Sender: LSF System <lsfadmin@mn458>
Subject: Job 520401: <#!/bin/bash;#BSUB -q q_hpc;#BSUB -oo S36.out;#BSUB -eo S36.err;#BSUB -n 32; #BSUB -R "span[hosts=1]";#BSUB -m "g3_a g3_b"; module load gaussian/2016.03;input=S36.com; sed -i "s/\( % nprocshared =\).*/\1 $LSB_DJOB_NUMPROC /g" $input;echo " Ejecucion de Gaussian ";g16 < $input> in cluster <cluster1> Done

Job <#!/bin/bash;#BSUB -q q_hpc;#BSUB -oo S36.out;#BSUB -eo S36.err;#BSUB -n 32; #BSUB -R "span[hosts=1]";#BSUB -m "g3_a g3_b"; module load gaussian/2016.03;input=S36.com; sed -i "s/\( % nprocshared =\).*/\1 $LSB_DJOB_NUMPROC /g" $input;echo " Ejecucion de Gaussian ";g16 < $input> was submitted from host <mn325> by user <andfag_a> in cluster <cluster1>.
Job was executed on host(s) <32*mn458>, in queue <q_hpc>, as user <andfag_a> in cluster <cluster1>.
</home/ilgs_g/andfag_a> was used as the home directory.
</home/ilgs_g/andfag_a/work/Jobs/Georgina/Structures> was used as the working directory.
Started at Tue Jun  4 00:06:29 2024
Results reported on Tue Jun  4 00:25:43 2024

Your job looked like:

------------------------------------------------------------
# LSBATCH: User input
#!/bin/bash
#BSUB -q q_hpc
#BSUB -oo S36.out
#BSUB -eo S36.err
#BSUB -n 32

#BSUB -R "span[hosts=1]"
#BSUB -m "g3_a g3_b"

module load gaussian/2016.03
input=S36.com

sed -i "s/\( % nprocshared =\).*/\1 $LSB_DJOB_NUMPROC /g" $input
echo " Ejecucion de Gaussian "
g16 < $input


------------------------------------------------------------

Successfully completed.

Resource usage summary:

    CPU time :                                   36391.77 sec.
    Max Memory :                                 24258.50 MB
    Average Memory :                             3399.73 MB
    Total Requested Memory :                     -
    Delta Memory :                               -
    Max Swap :                                   107088 MB
    Max Processes :                              5
    Max Threads :                                37

The output (if any) follows:

	 Directorio de scratch es: 	 /tmpu/ilgs_g/andfag_a/g16scrdir
 Ejecucion de Gaussian 
 Entering Gaussian System, Link 0=g16
 Initial command:
 /tmpu/scunam/7/gaussian-2016.03/g1/g16/l1.exe "/tmpu/ilgs_g/andfag_a/g16scrdir/Gau-12081.inp" -scrdir="/tmpu/ilgs_g/andfag_a/g16scrdir/"
 Entering Link 1 = /tmpu/scunam/7/gaussian-2016.03/g1/g16/l1.exe PID=     12082.
  
 Copyright (c) 1988,1990,1992,1993,1995,1998,2003,2009,2016,
            Gaussian, Inc.  All Rights Reserved.
  
 This is part of the Gaussian(R) 16 program.  It is based on
 the Gaussian(R) 09 system (copyright 2009, Gaussian, Inc.),
 the Gaussian(R) 03 system (copyright 2003, Gaussian, Inc.),
 the Gaussian(R) 98 system (copyright 1998, Gaussian, Inc.),
 the Gaussian(R) 94 system (copyright 1995, Gaussian, Inc.),
 the Gaussian 92(TM) system (copyright 1992, Gaussian, Inc.),
 the Gaussian 90(TM) system (copyright 1990, Gaussian, Inc.),
 the Gaussian 88(TM) system (copyright 1988, Gaussian, Inc.),
 the Gaussian 86(TM) system (copyright 1986, Carnegie Mellon
 University), and the Gaussian 82(TM) system (copyright 1983,
 Carnegie Mellon University). Gaussian is a federally registered
 trademark of Gaussian, Inc.
  
 This software contains proprietary and confidential information,
 including trade secrets, belonging to Gaussian, Inc.
  
 This software is provided under written license and may be
 used, copied, transmitted, or stored only in accord with that
 written license.
  
 The following legend is applicable only to US Government
 contracts under FAR:
  
                    RESTRICTED RIGHTS LEGEND
  
 Use, reproduction and disclosure by the US Government is
 subject to restrictions as set forth in subparagraphs (a)
 and (c) of the Commercial Computer Software - Restricted
 Rights clause in FAR 52.227-19.
  
 Gaussian, Inc.
 340 Quinnipiac St., Bldg. 40, Wallingford CT 06492
  
  
 ---------------------------------------------------------------
 Warning -- This program may not be used in any manner that
 competes with the business of Gaussian, Inc. or will provide
 assistance to any competitor of Gaussian, Inc.  The licensee
 of this program is prohibited from giving any competitor of
 Gaussian, Inc. access to this program.  By using this program,
 the user acknowledges that Gaussian, Inc. is engaged in the
 business of creating and licensing software in the field of
 computational chemistry and represents and warrants to the
 licensee that it is not a competitor of Gaussian, Inc. and that
 it will not use this program in any manner prohibited above.
 ---------------------------------------------------------------
  

 Cite this work as:
 Gaussian 16, Revision A.03,
 M. J. Frisch, G. W. Trucks, H. B. Schlegel, G. E. Scuseria, 
 M. A. Robb, J. R. Cheeseman, G. Scalmani, V. Barone, 
 G. A. Petersson, H. Nakatsuji, X. Li, M. Caricato, A. V. Marenich, 
 J. Bloino, B. G. Janesko, R. Gomperts, B. Mennucci, H. P. Hratchian, 
 J. V. Ortiz, A. F. Izmaylov, J. L. Sonnenberg, D. Williams-Young, 
 F. Ding, F. Lipparini, F. Egidi, J. Goings, B. Peng, A. Petrone, 
 T. Henderson, D. Ranasinghe, V. G. Zakrzewski, J. Gao, N. Rega, 
 G. Zheng, W. Liang, M. Hada, M. Ehara, K. Toyota, R. Fukuda, 
 J. Hasegawa, M. Ishida, T. Nakajima, Y. Honda, O. Kitao, H. Nakai, 
 T. Vreven, K. Throssell, J. A. Montgomery, Jr., J. E. Peralta, 
 F. Ogliaro, M. J. Bearpark, J. J. Heyd, E. N. Brothers, K. N. Kudin, 
 V. N. Staroverov, T. A. Keith, R. Kobayashi, J. Normand, 
 K. Raghavachari, A. P. Rendell, J. C. Burant, S. S. Iyengar, 
 J. Tomasi, M. Cossi, J. M. Millam, M. Klene, C. Adamo, R. Cammi, 
 J. W. Ochterski, R. L. Martin, K. Morokuma, O. Farkas, 
 J. B. Foresman, and D. J. Fox, Gaussian, Inc., Wallingford CT, 2016.
 
 ******************************************
 Gaussian 16:  ES64L-G16RevA.03 25-Dec-2016
                 4-Jun-2024 
 ******************************************
 %nprocshared=32
 Will use up to   32 processors via shared memory.
 %mem=100GB
 %chk=S36.chk
 ----------------------------------------------------------------------
 #p opt=(maxcycle=2000) freq=raman b3lyp/def2tzvp scf=(maxcycle=2000,di
 rect,NoInCore, xqc)
 ----------------------------------------------------------------------
 1/6=2000,18=20,19=15,26=3,38=1/1,3;
 2/9=110,12=2,17=6,18=5,40=1/2;
 3/5=44,7=101,11=2,25=1,30=1,71=1,74=-5/1,2,3;
 4//1;
 5/5=2,7=2000,8=3,13=1,38=5/2,8;
 6/7=2,8=2,9=2,10=2,28=1/1;
 7//1,2,3,16;
 1/6=2000,18=20,19=15,26=3/3(2);
 2/9=110/2;
 99//99;
 2/9=110/2;
 3/5=44,7=101,11=2,25=1,30=1,71=1,74=-5/1,2,3;
 4/5=5,16=3,69=1/1;
 5/5=2,7=2000,8=3,13=1,38=5/2,8;
 7//1,2,3,16;
 1/6=2000,18=20,19=15,26=3/3(-5);
 2/9=110/2;
 6/7=2,8=2,9=2,10=2,19=2,28=1/1;
 99/9=1/99;
 Leave Link    1 at Tue Jun  4 00:06:30 2024, MaxMem= 13421772800 cpu:               1.5 elap:               0.1
 (Enter /tmpu/scunam/7/gaussian-2016.03/g1/g16/l101.exe)
 ---
 S36
 ---
 Symbolic Z-matrix:
 Charge =  0 Multiplicity = 1
 O                     2.7413   -0.5846   -0.9962 
 C                     0.0469   -0.787    -0.2713 
 C                     1.0109    0.0441    0.5723 
 C                    -1.3397   -0.7636    0.3057 
 C                    -2.3515    0.0646   -0.0154 
 C                     2.4221    0.046     0.0105 
 C                    -3.6958   -0.0805    0.6465 
 C                    -2.267     1.1859   -1.012 
 C                     3.4328    0.875     0.7599 
 H                     0.0474   -0.4372   -1.3099 
 H                     0.3882   -1.8291   -0.315 
 H                     1.0568   -0.3513    1.5937 
 H                     0.6701    1.085     0.619 
 H                    -1.5201   -1.5251    1.0634 
 H                    -4.4695   -0.2677   -0.1053 
 H                    -3.9523    0.8353    1.1892 
 H                    -3.7218   -0.9088    1.3624 
 H                    -1.2602    1.3313   -1.4115 
 H                    -2.5653    2.1297   -0.5432 
 H                    -2.9377    0.9922   -1.8554 
 H                     3.5194    0.5078    1.7855 
 H                     4.4088    0.7961    0.2729 
 H                     3.1208    1.9222    0.7586 
 
 ITRead=  0  0  0  0  0  0  0  0  0  0  0  0  0  0  0  0  0  0  0  0
 ITRead=  0  0  0
 MicOpt= -1 -1 -1 -1 -1 -1 -1 -1 -1 -1 -1 -1 -1 -1 -1 -1 -1 -1 -1 -1
 MicOpt= -1 -1 -1
 NAtoms=     23 NQM=       23 NQMF=       0 NMMI=      0 NMMIF=      0
                NMic=       0 NMicF=      0.
                    Isotopes and Nuclear Properties:
 (Nuclear quadrupole moments (NQMom) in fm**2, nuclear magnetic moments (NMagM)
  in nuclear magnetons)

  Atom         1           2           3           4           5           6           7           8           9          10
 IAtWgt=          16          12          12          12          12          12          12          12          12           1
 AtmWgt=  15.9949146  12.0000000  12.0000000  12.0000000  12.0000000  12.0000000  12.0000000  12.0000000  12.0000000   1.0078250
 NucSpn=           0           0           0           0           0           0           0           0           0           1
 AtZEff=  -0.0000000  -0.0000000  -0.0000000  -0.0000000  -0.0000000  -0.0000000  -0.0000000  -0.0000000  -0.0000000  -0.0000000
 NQMom=    0.0000000   0.0000000   0.0000000   0.0000000   0.0000000   0.0000000   0.0000000   0.0000000   0.0000000   0.0000000
 NMagM=    0.0000000   0.0000000   0.0000000   0.0000000   0.0000000   0.0000000   0.0000000   0.0000000   0.0000000   2.7928460
 AtZNuc=   8.0000000   6.0000000   6.0000000   6.0000000   6.0000000   6.0000000   6.0000000   6.0000000   6.0000000   1.0000000

  Atom        11          12          13          14          15          16          17          18          19          20
 IAtWgt=           1           1           1           1           1           1           1           1           1           1
 AtmWgt=   1.0078250   1.0078250   1.0078250   1.0078250   1.0078250   1.0078250   1.0078250   1.0078250   1.0078250   1.0078250
 NucSpn=           1           1           1           1           1           1           1           1           1           1
 AtZEff=  -0.0000000  -0.0000000  -0.0000000  -0.0000000  -0.0000000  -0.0000000  -0.0000000  -0.0000000  -0.0000000  -0.0000000
 NQMom=    0.0000000   0.0000000   0.0000000   0.0000000   0.0000000   0.0000000   0.0000000   0.0000000   0.0000000   0.0000000
 NMagM=    2.7928460   2.7928460   2.7928460   2.7928460   2.7928460   2.7928460   2.7928460   2.7928460   2.7928460   2.7928460
 AtZNuc=   1.0000000   1.0000000   1.0000000   1.0000000   1.0000000   1.0000000   1.0000000   1.0000000   1.0000000   1.0000000

  Atom        21          22          23
 IAtWgt=           1           1           1
 AtmWgt=   1.0078250   1.0078250   1.0078250
 NucSpn=           1           1           1
 AtZEff=  -0.0000000  -0.0000000  -0.0000000
 NQMom=    0.0000000   0.0000000   0.0000000
 NMagM=    2.7928460   2.7928460   2.7928460
 AtZNuc=   1.0000000   1.0000000   1.0000000
 Leave Link  101 at Tue Jun  4 00:06:30 2024, MaxMem= 13421772800 cpu:              11.5 elap:               0.4
 (Enter /tmpu/scunam/7/gaussian-2016.03/g1/g16/l103.exe)

 GradGradGradGradGradGradGradGradGradGradGradGradGradGradGradGradGradGrad
 Berny optimization.
 Initialization pass.
                           ----------------------------
                           !    Initial Parameters    !
                           ! (Angstroms and Degrees)  !
 --------------------------                            --------------------------
 ! Name  Definition              Value          Derivative Info.                !
 --------------------------------------------------------------------------------
 ! R1    R(1,6)                  1.23           estimate D2E/DX2                !
 ! R2    R(2,3)                  1.527          estimate D2E/DX2                !
 ! R3    R(2,4)                  1.502          estimate D2E/DX2                !
 ! R4    R(2,10)                 1.0959         estimate D2E/DX2                !
 ! R5    R(2,11)                 1.0974         estimate D2E/DX2                !
 ! R6    R(3,6)                  1.5189         estimate D2E/DX2                !
 ! R7    R(3,12)                 1.0962         estimate D2E/DX2                !
 ! R8    R(3,13)                 1.0963         estimate D2E/DX2                !
 ! R9    R(4,5)                  1.3464         estimate D2E/DX2                !
 ! R10   R(4,14)                 1.0893         estimate D2E/DX2                !
 ! R11   R(5,7)                  1.5054         estimate D2E/DX2                !
 ! R12   R(5,8)                  1.5026         estimate D2E/DX2                !
 ! R13   R(6,9)                  1.5068         estimate D2E/DX2                !
 ! R14   R(7,15)                 1.0949         estimate D2E/DX2                !
 ! R15   R(7,16)                 1.095          estimate D2E/DX2                !
 ! R16   R(7,17)                 1.0951         estimate D2E/DX2                !
 ! R17   R(8,18)                 1.0929         estimate D2E/DX2                !
 ! R18   R(8,19)                 1.0952         estimate D2E/DX2                !
 ! R19   R(8,20)                 1.0948         estimate D2E/DX2                !
 ! R20   R(9,21)                 1.0928         estimate D2E/DX2                !
 ! R21   R(9,22)                 1.0936         estimate D2E/DX2                !
 ! R22   R(9,23)                 1.0927         estimate D2E/DX2                !
 ! A1    A(3,2,4)              111.2283         estimate D2E/DX2                !
 ! A2    A(3,2,10)             110.4599         estimate D2E/DX2                !
 ! A3    A(3,2,11)             110.0289         estimate D2E/DX2                !
 ! A4    A(4,2,10)             111.0694         estimate D2E/DX2                !
 ! A5    A(4,2,11)             108.4927         estimate D2E/DX2                !
 ! A6    A(10,2,11)            105.3794         estimate D2E/DX2                !
 ! A7    A(2,3,6)              112.5123         estimate D2E/DX2                !
 ! A8    A(2,3,12)             110.1739         estimate D2E/DX2                !
 ! A9    A(2,3,13)             110.1247         estimate D2E/DX2                !
 ! A10   A(6,3,12)             107.8287         estimate D2E/DX2                !
 ! A11   A(6,3,13)             107.6617         estimate D2E/DX2                !
 ! A12   A(12,3,13)            108.4092         estimate D2E/DX2                !
 ! A13   A(2,4,5)              127.7127         estimate D2E/DX2                !
 ! A14   A(2,4,14)             114.1547         estimate D2E/DX2                !
 ! A15   A(5,4,14)             118.1292         estimate D2E/DX2                !
 ! A16   A(4,5,7)              120.4584         estimate D2E/DX2                !
 ! A17   A(4,5,8)              125.0974         estimate D2E/DX2                !
 ! A18   A(7,5,8)              114.442          estimate D2E/DX2                !
 ! A19   A(1,6,3)              122.8998         estimate D2E/DX2                !
 ! A20   A(1,6,9)              121.0004         estimate D2E/DX2                !
 ! A21   A(3,6,9)              116.0998         estimate D2E/DX2                !
 ! A22   A(5,7,15)             110.2173         estimate D2E/DX2                !
 ! A23   A(5,7,16)             110.272          estimate D2E/DX2                !
 ! A24   A(5,7,17)             112.4284         estimate D2E/DX2                !
 ! A25   A(15,7,16)            108.5282         estimate D2E/DX2                !
 ! A26   A(15,7,17)            107.624          estimate D2E/DX2                !
 ! A27   A(16,7,17)            107.6394         estimate D2E/DX2                !
 ! A28   A(5,8,18)             113.1756         estimate D2E/DX2                !
 ! A29   A(5,8,19)             110.1124         estimate D2E/DX2                !
 ! A30   A(5,8,20)             110.149          estimate D2E/DX2                !
 ! A31   A(18,8,19)            107.0216         estimate D2E/DX2                !
 ! A32   A(18,8,20)            107.8358         estimate D2E/DX2                !
 ! A33   A(19,8,20)            108.3817         estimate D2E/DX2                !
 ! A34   A(6,9,21)             109.5761         estimate D2E/DX2                !
 ! A35   A(6,9,22)             109.7225         estimate D2E/DX2                !
 ! A36   A(6,9,23)             109.5822         estimate D2E/DX2                !
 ! A37   A(21,9,22)            108.8426         estimate D2E/DX2                !
 ! A38   A(21,9,23)            110.2291         estimate D2E/DX2                !
 ! A39   A(22,9,23)            108.8712         estimate D2E/DX2                !
 ! D1    D(4,2,3,6)           -179.7231         estimate D2E/DX2                !
 ! D2    D(4,2,3,12)            59.921          estimate D2E/DX2                !
 ! D3    D(4,2,3,13)           -59.6137         estimate D2E/DX2                !
 ! D4    D(10,2,3,6)           -55.905          estimate D2E/DX2                !
 ! D5    D(10,2,3,12)         -176.2609         estimate D2E/DX2                !
 ! D6    D(10,2,3,13)           64.2044         estimate D2E/DX2                !
 ! D7    D(11,2,3,6)            60.0263         estimate D2E/DX2                !
 ! D8    D(11,2,3,12)          -60.3295         estimate D2E/DX2                !
 ! D9    D(11,2,3,13)         -179.8643         estimate D2E/DX2                !
 ! D10   D(3,2,4,5)             93.8796         estimate D2E/DX2                !
 ! D11   D(3,2,4,14)           -86.8047         estimate D2E/DX2                !
 ! D12   D(10,2,4,5)           -29.5913         estimate D2E/DX2                !
 ! D13   D(10,2,4,14)          149.7244         estimate D2E/DX2                !
 ! D14   D(11,2,4,5)          -144.9659         estimate D2E/DX2                !
 ! D15   D(11,2,4,14)           34.3498         estimate D2E/DX2                !
 ! D16   D(2,3,6,1)             -1.6296         estimate D2E/DX2                !
 ! D17   D(2,3,6,9)            178.3241         estimate D2E/DX2                !
 ! D18   D(12,3,6,1)           120.069          estimate D2E/DX2                !
 ! D19   D(12,3,6,9)           -59.9774         estimate D2E/DX2                !
 ! D20   D(13,3,6,1)          -123.1523         estimate D2E/DX2                !
 ! D21   D(13,3,6,9)            56.8014         estimate D2E/DX2                !
 ! D22   D(2,4,5,7)            178.4164         estimate D2E/DX2                !
 ! D23   D(2,4,5,8)             -2.1563         estimate D2E/DX2                !
 ! D24   D(14,4,5,7)            -0.8756         estimate D2E/DX2                !
 ! D25   D(14,4,5,8)           178.5517         estimate D2E/DX2                !
 ! D26   D(4,5,7,15)          -120.8199         estimate D2E/DX2                !
 ! D27   D(4,5,7,16)           119.3772         estimate D2E/DX2                !
 ! D28   D(4,5,7,17)            -0.7501         estimate D2E/DX2                !
 ! D29   D(8,5,7,15)            59.6948         estimate D2E/DX2                !
 ! D30   D(8,5,7,16)           -60.1082         estimate D2E/DX2                !
 ! D31   D(8,5,7,17)           179.7646         estimate D2E/DX2                !
 ! D32   D(4,5,8,18)            -4.7552         estimate D2E/DX2                !
 ! D33   D(4,5,8,19)          -124.4825         estimate D2E/DX2                !
 ! D34   D(4,5,8,20)           116.0401         estimate D2E/DX2                !
 ! D35   D(7,5,8,18)           174.7025         estimate D2E/DX2                !
 ! D36   D(7,5,8,19)            54.9752         estimate D2E/DX2                !
 ! D37   D(7,5,8,20)           -64.5021         estimate D2E/DX2                !
 ! D38   D(1,6,9,21)          -119.9099         estimate D2E/DX2                !
 ! D39   D(1,6,9,22)            -0.4621         estimate D2E/DX2                !
 ! D40   D(1,6,9,23)           119.0244         estimate D2E/DX2                !
 ! D41   D(3,6,9,21)            60.1356         estimate D2E/DX2                !
 ! D42   D(3,6,9,22)           179.5833         estimate D2E/DX2                !
 ! D43   D(3,6,9,23)           -60.9302         estimate D2E/DX2                !
 --------------------------------------------------------------------------------
 Trust Radius=3.00D-01 FncErr=1.00D-07 GrdErr=1.00D-06 EigMax=2.50D+02 EigMin=1.00D-04
 Number of steps in this run=    138 maximum allowed number of steps=    138.
 GradGradGradGradGradGradGradGradGradGradGradGradGradGradGradGradGradGrad

 Leave Link  103 at Tue Jun  4 00:06:30 2024, MaxMem= 13421772800 cpu:               0.4 elap:               0.0
 (Enter /tmpu/scunam/7/gaussian-2016.03/g1/g16/l202.exe)
                          Input orientation:                          
 ---------------------------------------------------------------------
 Center     Atomic      Atomic             Coordinates (Angstroms)
 Number     Number       Type             X           Y           Z
 ---------------------------------------------------------------------
      1          8           0        2.741300   -0.584600   -0.996200
      2          6           0        0.046900   -0.787000   -0.271300
      3          6           0        1.010900    0.044100    0.572300
      4          6           0       -1.339700   -0.763600    0.305700
      5          6           0       -2.351500    0.064600   -0.015400
      6          6           0        2.422100    0.046000    0.010500
      7          6           0       -3.695800   -0.080500    0.646500
      8          6           0       -2.267000    1.185900   -1.012000
      9          6           0        3.432800    0.875000    0.759900
     10          1           0        0.047400   -0.437200   -1.309900
     11          1           0        0.388200   -1.829100   -0.315000
     12          1           0        1.056800   -0.351300    1.593700
     13          1           0        0.670100    1.085000    0.619000
     14          1           0       -1.520100   -1.525100    1.063400
     15          1           0       -4.469500   -0.267700   -0.105300
     16          1           0       -3.952300    0.835300    1.189200
     17          1           0       -3.721800   -0.908800    1.362400
     18          1           0       -1.260200    1.331300   -1.411500
     19          1           0       -2.565300    2.129700   -0.543200
     20          1           0       -2.937700    0.992200   -1.855400
     21          1           0        3.519400    0.507800    1.785500
     22          1           0        4.408800    0.796100    0.272900
     23          1           0        3.120800    1.922200    0.758600
 ---------------------------------------------------------------------
                    Distance matrix (angstroms):
                    1          2          3          4          5
     1  O    0.000000
     2  C    2.797541   0.000000
     3  C    2.418624   1.526985   0.000000
     4  C    4.287370   1.502044   2.499755   0.000000
     5  C    5.226858   2.557935   3.413436   1.346388   0.000000
     6  C    1.230037   2.532760   1.518917   3.859240   4.773706
     7  C    6.662495   3.917819   4.708934   2.476687   1.505426
     8  C    5.312061   3.129713   3.815540   2.529183   1.502553
     9  C    2.385894   3.910235   2.567331   5.066366   5.892026
    10  H    2.716106   1.095924   2.168561   2.154239   2.771688
    11  H    2.747707   1.097437   2.164240   2.122781   3.343922
    12  H    3.098314   2.165169   1.096223   2.751754   3.791924
    13  H    3.112283   2.164578   1.096266   2.748595   3.251730
    14  H    4.825559   2.186711   3.018200   1.089282   2.093366
    15  H    7.272535   4.549186   5.530926   3.195385   2.145793
    16  H    7.183061   4.556152   5.063587   3.187904   2.146532
    17  H    6.887653   4.109369   4.891904   2.610000   2.173376
    18  H    4.455912   2.737839   3.278756   2.709927   2.178201
    19  H    5.977678   3.924877   4.287572   3.254829   2.142177
    20  H    5.956137   3.818738   4.731180   3.210419   2.142352
    21  H    3.088144   4.238536   2.824791   5.236136   6.156877
    22  H    2.509483   4.672101   3.492974   5.956424   6.805870
    23  H    3.083406   4.224846   2.830838   5.226347   5.830594
                    6          7          8          9         10
     6  C    0.000000
     7  C    6.152170   0.000000
     8  C    4.932802   2.529004   0.000000
     9  C    1.506770   7.193245   5.976956   0.000000
    10  H    2.759735   4.238665   2.842472   4.179339   0.000000
    11  H    2.785444   4.545453   4.077514   4.211550   1.744522
    12  H    2.128007   4.853630   4.494475   2.800787   3.075250
    13  H    2.125864   4.518875   3.361086   2.774250   2.534858
    14  H    4.372401   2.644682   3.494949   5.512151   3.045182
    15  H    6.899708   1.094924   2.790352   8.031232   4.677839
    16  H    6.530337   1.094991   2.794358   7.397674   4.884911
    17  H    6.362923   1.095112   3.484535   7.398192   4.644401
    18  H    4.151315   3.487218   1.092880   5.191092   2.201757
    19  H    5.433466   2.752889   1.095224   6.264946   3.742059
    20  H    5.753637   2.825757   1.094843   6.887438   3.354337
    21  H    2.137277   7.328201   6.462836   1.092790   4.746505
    22  H    2.139738   8.160426   6.809495   1.093604   4.800843
    23  H    2.137279   7.105590   5.718877   1.092691   4.392180
                   11         12         13         14         15
    11  H    0.000000
    12  H    2.504806   0.000000
    13  H    3.073077   1.778352   0.000000
    14  H    2.373607   2.880875   3.436145   0.000000
    15  H    5.106779   5.782178   5.363758   3.412605   0.000000
    16  H    5.310516   5.163596   4.664125   3.391594   1.777592
    17  H    4.533511   4.816568   4.880232   2.305799   1.767543
    18  H    3.729298   4.151007   2.812410   3.788364   3.816093
    19  H    4.944425   4.882756   3.593038   4.126884   3.092776
    20  H    4.625384   5.445853   4.375784   4.106797   2.645110
    21  H    4.435946   2.615194   3.132474   5.481849   8.246154
    22  H    4.837616   3.781130   3.765784   6.415973   8.949800
    23  H    4.763609   3.182183   2.593515   5.789191   7.946989
                   16         17         18         19         20
    16  H    0.000000
    17  H    1.767771   0.000000
    18  H    3.775852   4.332672   0.000000
    19  H    2.569134   3.768459   1.759168   0.000000
    20  H    3.213039   3.818750   1.768062   1.776079   0.000000
    21  H    7.502608   7.390585   5.808919   6.713939   7.428656
    22  H    8.411251   8.378565   5.938114   7.147208   7.651090
    23  H    7.169066   7.429691   4.924597   5.836906   6.663581
                   21         22         23
    21  H    0.000000
    22  H    1.778232   0.000000
    23  H    1.792745   1.778468   0.000000
 Stoichiometry    C8H14O
 Framework group  C1[X(C8H14O)]
 Deg. of freedom    63
 Full point group                 C1      NOp   1
 Largest Abelian subgroup         C1      NOp   1
 Largest concise Abelian subgroup C1      NOp   1
                         Standard orientation:                         
 ---------------------------------------------------------------------
 Center     Atomic      Atomic             Coordinates (Angstroms)
 Number     Number       Type             X           Y           Z
 ---------------------------------------------------------------------
      1          8           0        2.753569   -0.010652   -1.220166
      2          6           0        0.065987   -0.564199   -0.675443
      3          6           0        1.041225   -0.284684    0.465813
      4          6           0       -1.314618   -0.844911   -0.154609
      5          6           0       -2.326864    0.027878    0.007743
      6          6           0        2.446666    0.009929   -0.029210
      7          6           0       -3.664870   -0.440884    0.514013
      8          6           0       -2.248735    1.502666   -0.268952
      9          6           0        3.467642    0.336320    1.029767
     10          1           0        0.057136    0.270975   -1.384990
     11          1           0        0.403369   -1.433793   -1.253670
     12          1           0        1.096148   -1.149953    1.136632
     13          1           0        0.704369    0.582337    1.045987
     14          1           0       -1.489865   -1.888466    0.103882
     15          1           0       -4.446755   -0.215542   -0.218609
     16          1           0       -3.912826    0.063434    1.453793
     17          1           0       -3.686370   -1.519761    0.700649
     18          1           0       -1.245553    1.835605   -0.546738
     19          1           0       -2.539144    2.068976    0.622378
     20          1           0       -2.928575    1.769908   -1.084478
     21          1           0        3.563399   -0.506854    1.718301
     22          1           0        4.438397    0.522102    0.561696
     23          1           0        3.159119    1.233553    1.571763
 ---------------------------------------------------------------------
 Rotational constants (GHZ):           3.8343622           0.6051431           0.6034900
 Leave Link  202 at Tue Jun  4 00:06:30 2024, MaxMem= 13421772800 cpu:               2.7 elap:               0.1
 (Enter /tmpu/scunam/7/gaussian-2016.03/g1/g16/l301.exe)
 Standard basis: def2TZVP (5D, 7F)
 Ernie: Thresh=  0.10000D-02 Tol=  0.10000D-05 Strict=F.
 There are   408 symmetry adapted cartesian basis functions of A   symmetry.
 There are   363 symmetry adapted basis functions of A   symmetry.
   363 basis functions,   571 primitive gaussians,   408 cartesian basis functions
    35 alpha electrons       35 beta electrons
       nuclear repulsion energy       432.0354800839 Hartrees.
 IExCor=  402 DFT=T Ex+Corr=B3LYP ExCW=0 ScaHFX=  0.200000
 ScaDFX=  0.800000  0.720000  1.000000  0.810000 ScalE2=  1.000000  1.000000
 IRadAn=      5 IRanWt=     -1 IRanGd=            0 ICorTp=0 IEmpDi=  4
 NAtoms=   23 NActive=   23 NUniq=   23 SFac= 1.00D+00 NAtFMM=   60 NAOKFM=F Big=F
 Integral buffers will be    131072 words long.
 Raffenetti 2 integral format.
 Two-electron integral symmetry is turned on.
 Leave Link  301 at Tue Jun  4 00:06:31 2024, MaxMem= 13421772800 cpu:               3.3 elap:               0.1
 (Enter /tmpu/scunam/7/gaussian-2016.03/g1/g16/l302.exe)
 NPDir=0 NMtPBC=     1 NCelOv=     1 NCel=       1 NClECP=     1 NCelD=      1
         NCelK=      1 NCelE2=     1 NClLst=     1 CellRange=     0.0.
 One-electron integrals computed using PRISM.
 One-electron integral symmetry used in STVInt
   1 Symmetry operations used in ECPInt.
 ECPInt:  NShTT=   12090 NPrTT=   35220 LenC2=   11387 LenP2D=   25794.
 LDataN:  DoStor=T MaxTD1= 6 Len=  172
 NBasis=   363 RedAO= T EigKep=  7.81D-05  NBF=   363
 NBsUse=   363 1.00D-06 EigRej= -1.00D+00 NBFU=   363
 Precomputing XC quadrature grid using
 IXCGrd= 4 IRadAn=           5 IRanWt=          -1 IRanGd=           0 AccXCQ= 0.00D+00.
 Generated NRdTot=       0 NPtTot=           0 NUsed=           0 NTot=          32
 NSgBfM=   406   406   406   406   406 MxSgAt=    23 MxSgA2=    23.
 Leave Link  302 at Tue Jun  4 00:06:31 2024, MaxMem= 13421772800 cpu:              13.1 elap:               0.4
 (Enter /tmpu/scunam/7/gaussian-2016.03/g1/g16/l303.exe)
 DipDrv:  MaxL=1.
 Leave Link  303 at Tue Jun  4 00:06:31 2024, MaxMem= 13421772800 cpu:               1.5 elap:               0.1
 (Enter /tmpu/scunam/7/gaussian-2016.03/g1/g16/l401.exe)
 ExpMin= 9.52D-02 ExpMax= 2.70D+04 ExpMxC= 9.22D+02 IAcc=3 IRadAn=         5 AccDes= 0.00D+00
 Harris functional with IExCor=  402 and IRadAn=       5 diagonalized for initial guess.
 HarFok:  IExCor=  402 AccDes= 0.00D+00 IRadAn=         5 IDoV= 1 UseB2=F ITyADJ=14
 ICtDFT=  3500011 ScaDFX=  1.000000  1.000000  1.000000  1.000000
 FoFCou: FMM=F IPFlag=           0 FMFlag=      100000 FMFlg1=           0
         NFxFlg=           0 DoJE=T BraDBF=F KetDBF=T FulRan=T
         wScrn=  0.000000 ICntrl=       500 IOpCl=  0 I1Cent=   200000004 NGrid=           0
         NMat0=    1 NMatS0=      1 NMatT0=    0 NMatD0=    1 NMtDS0=    0 NMtDT0=    0
 Petite list used in FoFCou.
 Harris En= -388.756021349328    
 JPrj=0 DoOrth=F DoCkMO=F.
 Leave Link  401 at Tue Jun  4 00:06:33 2024, MaxMem= 13421772800 cpu:              35.3 elap:               1.1
 (Enter /tmpu/scunam/7/gaussian-2016.03/g1/g16/l502.exe)
 Integral symmetry usage will be decided dynamically.
 Closed shell SCF:
 Using DIIS extrapolation, IDIIS=  1040.
 NGot= 13421772800 LenX= 13421422965 LenY= 13421256060
 Requested convergence on RMS density matrix=1.00D-08 within 128 cycles.
 Requested convergence on MAX density matrix=1.00D-06.
 Requested convergence on             energy=1.00D-06.
 No special actions if energy rises.
 Fock matrices will be formed incrementally for  20 cycles.
 Integral accuracy reduced to 1.0D-05 until final iterations.

 Cycle   1  Pass 0  IDiag  1:
 FoFJK:  IHMeth= 1 ICntrl=       0 DoSepK=F KAlg= 0 I1Cent=           0 FoldK=F
 IRaf= 900000000 NMat=       1 IRICut=       1 DoRegI=T DoRafI=F ISym2E= 0 IDoP0=0 IntGTp=1.
 FoFCou: FMM=F IPFlag=           0 FMFlag=      100000 FMFlg1=           0
         NFxFlg=           0 DoJE=F BraDBF=F KetDBF=F FulRan=T
         wScrn=  0.000000 ICntrl=         0 IOpCl=  0 I1Cent=           0 NGrid=           0
         NMat0=    1 NMatS0=      1 NMatT0=    0 NMatD0=    1 NMtDS0=    0 NMtDT0=    0
 Symmetry not used in FoFCou.
 E= -388.274631270468    
 DIIS: error= 3.15D-02 at cycle   1 NSaved=   1.
 NSaved= 1 IEnMin= 1 EnMin= -388.274631270468     IErMin= 1 ErrMin= 3.15D-02
 ErrMax= 3.15D-02  0.00D+00 EMaxC= 1.00D-01 BMatC= 3.99D-01 BMatP= 3.99D-01
 IDIUse=3 WtCom= 6.85D-01 WtEn= 3.15D-01
 Coeff-Com:  0.100D+01
 Coeff-En:   0.100D+01
 Coeff:      0.100D+01
 Gap=     0.131 Goal=   None    Shift=    0.000
 GapD=    0.131 DampG=1.000 DampE=0.500 DampFc=0.5000 IDamp=-1.
 Damping current iteration by 5.00D-01
 RMSDP=7.72D-03 MaxDP=1.04D+00              OVMax= 2.90D-01

 Cycle   2  Pass 0  IDiag  1:
 RMSU=  3.86D-03    CP:  9.80D-01
 E= -388.417258743298     Delta-E=       -0.142627472829 Rises=F Damp=T
 DIIS: error= 7.88D-03 at cycle   2 NSaved=   2.
 NSaved= 2 IEnMin= 2 EnMin= -388.417258743298     IErMin= 2 ErrMin= 7.88D-03
 ErrMax= 7.88D-03  0.00D+00 EMaxC= 1.00D-01 BMatC= 3.47D-02 BMatP= 3.99D-01
 IDIUse=3 WtCom= 9.21D-01 WtEn= 7.88D-02
 Coeff-Com:  0.137D+00 0.863D+00
 Coeff-En:   0.226D+00 0.774D+00
 Coeff:      0.144D+00 0.856D+00
 Gap=     0.288 Goal=   None    Shift=    0.000
 RMSDP=2.93D-03 MaxDP=4.32D-01 DE=-1.43D-01 OVMax= 2.24D-01

 Cycle   3  Pass 0  IDiag  1:
 RMSU=  1.07D-03    CP:  9.69D-01  2.93D-01
 E= -388.610412216559     Delta-E=       -0.193153473262 Rises=F Damp=F
 DIIS: error= 1.10D-02 at cycle   3 NSaved=   3.
 NSaved= 3 IEnMin= 3 EnMin= -388.610412216559     IErMin= 2 ErrMin= 7.88D-03
 ErrMax= 1.10D-02  0.00D+00 EMaxC= 1.00D-01 BMatC= 4.96D-02 BMatP= 3.47D-02
 IDIUse=2 WtCom= 0.00D+00 WtEn= 1.00D+00
 Coeff-En:   0.000D+00 0.000D+00 0.100D+01
 Coeff:      0.000D+00 0.000D+00 0.100D+01
 Gap=     0.209 Goal=   None    Shift=    0.000
 RMSDP=2.73D-03 MaxDP=3.61D-01 DE=-1.93D-01 OVMax= 2.83D-01

 Cycle   4  Pass 0  IDiag  1:
 RMSU=  1.22D-03    CP:  9.83D-01  8.88D-01  2.40D-01
 E= -388.424078508554     Delta-E=        0.186333708005 Rises=F Damp=F
 DIIS: error= 2.68D-02 at cycle   4 NSaved=   4.
 NSaved= 4 IEnMin= 3 EnMin= -388.610412216559     IErMin= 2 ErrMin= 7.88D-03
 ErrMax= 2.68D-02  0.00D+00 EMaxC= 1.00D-01 BMatC= 2.94D-01 BMatP= 3.47D-02
 IDIUse=2 WtCom= 0.00D+00 WtEn= 1.00D+00
 Coeff-En:   0.000D+00 0.000D+00 0.799D+00 0.201D+00
 Coeff:      0.000D+00 0.000D+00 0.799D+00 0.201D+00
 Gap=     0.207 Goal=   None    Shift=    0.000
 RMSDP=1.79D-03 MaxDP=2.51D-01 DE= 1.86D-01 OVMax= 1.36D-01

 Cycle   5  Pass 0  IDiag  1:
 RMSU=  1.80D-04    CP:  9.76D-01  4.82D-01  7.29D-01  4.59D-01
 E= -388.630523061122     Delta-E=       -0.206444552568 Rises=F Damp=F
 DIIS: error= 7.35D-03 at cycle   5 NSaved=   5.
 NSaved= 5 IEnMin= 5 EnMin= -388.630523061122     IErMin= 5 ErrMin= 7.35D-03
 ErrMax= 7.35D-03  0.00D+00 EMaxC= 1.00D-01 BMatC= 2.37D-02 BMatP= 3.47D-02
 IDIUse=3 WtCom= 9.27D-01 WtEn= 7.35D-02
 Coeff-Com: -0.132D-02 0.193D-01 0.316D+00-0.924D-01 0.758D+00
 Coeff-En:   0.000D+00 0.000D+00 0.363D+00 0.000D+00 0.637D+00
 Coeff:     -0.122D-02 0.179D-01 0.319D+00-0.856D-01 0.750D+00
 Gap=     0.213 Goal=   None    Shift=    0.000
 RMSDP=4.51D-04 MaxDP=5.58D-02 DE=-2.06D-01 OVMax= 4.85D-02

 Cycle   6  Pass 0  IDiag  1:
 RMSU=  3.59D-05    CP:  9.73D-01  3.88D-01  8.53D-01  2.72D-01  7.73D-01
 E= -388.648189267451     Delta-E=       -0.017666206329 Rises=F Damp=F
 DIIS: error= 1.62D-04 at cycle   6 NSaved=   6.
 NSaved= 6 IEnMin= 6 EnMin= -388.648189267451     IErMin= 6 ErrMin= 1.62D-04
 ErrMax= 1.62D-04  0.00D+00 EMaxC= 1.00D-01 BMatC= 1.72D-05 BMatP= 2.37D-02
 IDIUse=3 WtCom= 9.98D-01 WtEn= 1.62D-03
 Coeff-Com: -0.909D-03 0.397D-02 0.107D+00-0.441D-01 0.301D+00 0.633D+00
 Coeff-En:   0.000D+00 0.000D+00 0.000D+00 0.000D+00 0.000D+00 0.100D+01
 Coeff:     -0.908D-03 0.396D-02 0.106D+00-0.441D-01 0.301D+00 0.634D+00
 Gap=     0.209 Goal=   None    Shift=    0.000
 RMSDP=1.15D-05 MaxDP=5.09D-04 DE=-1.77D-02 OVMax= 9.50D-04

 Cycle   7  Pass 0  IDiag  1:
 RMSU=  8.97D-06    CP:  9.73D-01  3.89D-01  8.54D-01  2.71D-01  7.90D-01
                    CP:  8.46D-01
 E= -388.648202541054     Delta-E=       -0.000013273602 Rises=F Damp=F
 DIIS: error= 7.40D-05 at cycle   7 NSaved=   7.
 NSaved= 7 IEnMin= 7 EnMin= -388.648202541054     IErMin= 7 ErrMin= 7.40D-05
 ErrMax= 7.40D-05  0.00D+00 EMaxC= 1.00D-01 BMatC= 3.41D-06 BMatP= 1.72D-05
 IDIUse=1 WtCom= 1.00D+00 WtEn= 0.00D+00
 Coeff-Com:  0.242D-03-0.129D-02 0.206D-01-0.835D-02 0.534D-01 0.258D+00
 Coeff-Com:  0.678D+00
 Coeff:      0.242D-03-0.129D-02 0.206D-01-0.835D-02 0.534D-01 0.258D+00
 Coeff:      0.678D+00
 Gap=     0.209 Goal=   None    Shift=    0.000
 RMSDP=7.88D-06 MaxDP=8.59D-04 DE=-1.33D-05 OVMax= 4.83D-04

 Initial convergence to 1.0D-05 achieved.  Increase integral accuracy.
 Cycle   8  Pass 1  IDiag  1:
 E= -388.648212054091     Delta-E=       -0.000009513037 Rises=F Damp=F
 DIIS: error= 6.84D-05 at cycle   1 NSaved=   1.
 NSaved= 1 IEnMin= 1 EnMin= -388.648212054091     IErMin= 1 ErrMin= 6.84D-05
 ErrMax= 6.84D-05  0.00D+00 EMaxC= 1.00D-01 BMatC= 1.95D-06 BMatP= 1.95D-06
 IDIUse=1 WtCom= 1.00D+00 WtEn= 0.00D+00
 Coeff-Com:  0.100D+01
 Coeff:      0.100D+01
 Gap=     0.209 Goal=   None    Shift=    0.000
 RMSDP=7.88D-06 MaxDP=8.59D-04 DE=-9.51D-06 OVMax= 2.92D-04

 Cycle   9  Pass 1  IDiag  1:
 RMSU=  9.78D-05    CP:  1.00D+00
 E= -388.648213103222     Delta-E=       -0.000001049131 Rises=F Damp=F
 DIIS: error= 2.27D-05 at cycle   2 NSaved=   2.
 NSaved= 2 IEnMin= 2 EnMin= -388.648213103222     IErMin= 2 ErrMin= 2.27D-05
 ErrMax= 2.27D-05  0.00D+00 EMaxC= 1.00D-01 BMatC= 1.91D-07 BMatP= 1.95D-06
 IDIUse=1 WtCom= 1.00D+00 WtEn= 0.00D+00
 Coeff-Com:  0.119D+00 0.881D+00
 Coeff:      0.119D+00 0.881D+00
 Gap=     0.209 Goal=   None    Shift=    0.000
 RMSDP=4.08D-06 MaxDP=4.49D-04 DE=-1.05D-06 OVMax= 3.67D-04

 Cycle  10  Pass 1  IDiag  1:
 RMSU=  3.71D-06    CP:  1.00D+00  1.02D+00
 E= -388.648212789409     Delta-E=        0.000000313814 Rises=F Damp=F
 DIIS: error= 4.14D-05 at cycle   3 NSaved=   3.
 NSaved= 3 IEnMin= 2 EnMin= -388.648213103222     IErMin= 2 ErrMin= 2.27D-05
 ErrMax= 4.14D-05  0.00D+00 EMaxC= 1.00D-01 BMatC= 6.16D-07 BMatP= 1.91D-07
 IDIUse=1 WtCom= 1.00D+00 WtEn= 0.00D+00
 Coeff-Com:  0.169D-03 0.644D+00 0.356D+00
 Coeff:      0.169D-03 0.644D+00 0.356D+00
 Gap=     0.209 Goal=   None    Shift=    0.000
 RMSDP=2.48D-06 MaxDP=2.88D-04 DE= 3.14D-07 OVMax= 2.61D-04

 Cycle  11  Pass 1  IDiag  1:
 RMSU=  6.27D-07    CP:  1.00D+00  1.02D+00  3.68D-01
 E= -388.648213242014     Delta-E=       -0.000000452606 Rises=F Damp=F
 DIIS: error= 2.71D-06 at cycle   4 NSaved=   4.
 NSaved= 4 IEnMin= 4 EnMin= -388.648213242014     IErMin= 4 ErrMin= 2.71D-06
 ErrMax= 2.71D-06  0.00D+00 EMaxC= 1.00D-01 BMatC= 4.77D-09 BMatP= 1.91D-07
 IDIUse=1 WtCom= 1.00D+00 WtEn= 0.00D+00
 Coeff-Com: -0.217D-02 0.333D+00 0.199D+00 0.470D+00
 Coeff:     -0.217D-02 0.333D+00 0.199D+00 0.470D+00
 Gap=     0.209 Goal=   None    Shift=    0.000
 RMSDP=2.12D-07 MaxDP=1.59D-05 DE=-4.53D-07 OVMax= 1.64D-05

 Cycle  12  Pass 1  IDiag  1:
 RMSU=  1.58D-07    CP:  1.00D+00  1.02D+00  3.93D-01  8.40D-01
 E= -388.648213246429     Delta-E=       -0.000000004414 Rises=F Damp=F
 DIIS: error= 4.79D-07 at cycle   5 NSaved=   5.
 NSaved= 5 IEnMin= 5 EnMin= -388.648213246429     IErMin= 5 ErrMin= 4.79D-07
 ErrMax= 4.79D-07  0.00D+00 EMaxC= 1.00D-01 BMatC= 1.38D-10 BMatP= 4.77D-09
 IDIUse=1 WtCom= 1.00D+00 WtEn= 0.00D+00
 Coeff-Com: -0.119D-02 0.157D+00 0.954D-01 0.249D+00 0.500D+00
 Coeff:     -0.119D-02 0.157D+00 0.954D-01 0.249D+00 0.500D+00
 Gap=     0.209 Goal=   None    Shift=    0.000
 RMSDP=3.50D-08 MaxDP=1.62D-06 DE=-4.41D-09 OVMax= 5.83D-06

 Cycle  13  Pass 1  IDiag  1:
 RMSU=  3.35D-08    CP:  1.00D+00  1.02D+00  3.94D-01  8.44D-01  1.01D+00
 E= -388.648213246551     Delta-E=       -0.000000000123 Rises=F Damp=F
 DIIS: error= 2.42D-07 at cycle   6 NSaved=   6.
 NSaved= 6 IEnMin= 6 EnMin= -388.648213246551     IErMin= 6 ErrMin= 2.42D-07
 ErrMax= 2.42D-07  0.00D+00 EMaxC= 1.00D-01 BMatC= 1.56D-11 BMatP= 1.38D-10
 IDIUse=1 WtCom= 1.00D+00 WtEn= 0.00D+00
 Coeff-Com: -0.485D-03 0.592D-01 0.366D-01 0.101D+00 0.292D+00 0.511D+00
 Coeff:     -0.485D-03 0.592D-01 0.366D-01 0.101D+00 0.292D+00 0.511D+00
 Gap=     0.209 Goal=   None    Shift=    0.000
 RMSDP=1.34D-08 MaxDP=7.71D-07 DE=-1.23D-10 OVMax= 2.27D-06

 Cycle  14  Pass 1  IDiag  1:
 RMSU=  9.96D-09    CP:  1.00D+00  1.02D+00  3.96D-01  8.47D-01  1.05D+00
                    CP:  9.39D-01
 E= -388.648213246565     Delta-E=       -0.000000000013 Rises=F Damp=F
 DIIS: error= 7.05D-08 at cycle   7 NSaved=   7.
 NSaved= 7 IEnMin= 7 EnMin= -388.648213246565     IErMin= 7 ErrMin= 7.05D-08
 ErrMax= 7.05D-08  0.00D+00 EMaxC= 1.00D-01 BMatC= 1.38D-12 BMatP= 1.56D-11
 IDIUse=1 WtCom= 1.00D+00 WtEn= 0.00D+00
 Coeff-Com: -0.121D-04-0.372D-03-0.515D-04 0.353D-02 0.466D-01 0.257D+00
 Coeff-Com:  0.693D+00
 Coeff:     -0.121D-04-0.372D-03-0.515D-04 0.353D-02 0.466D-01 0.257D+00
 Coeff:      0.693D+00
 Gap=     0.209 Goal=   None    Shift=    0.000
 RMSDP=5.65D-09 MaxDP=2.06D-07 DE=-1.32D-11 OVMax= 5.90D-07

 SCF Done:  E(RB3LYP) =  -388.648213247     A.U. after   14 cycles
            NFock= 14  Conv=0.56D-08     -V/T= 2.0056
 KE= 3.864923262822D+02 PE=-1.767284367013D+03 EE= 5.601083473999D+02
 Leave Link  502 at Tue Jun  4 00:07:04 2024, MaxMem= 13421772800 cpu:            1010.1 elap:              31.6
 (Enter /tmpu/scunam/7/gaussian-2016.03/g1/g16/l508.exe)
 QCSCF skips out because SCF is already converged.
 Leave Link  508 at Tue Jun  4 00:07:05 2024, MaxMem= 13421772800 cpu:               1.1 elap:               0.1
 (Enter /tmpu/scunam/7/gaussian-2016.03/g1/g16/l601.exe)
 Copying SCF densities to generalized density rwf, IOpCl= 0 IROHF=0.

 **********************************************************************

            Population analysis using the SCF density.

 **********************************************************************

 Orbital symmetries:
       Occupied  (A) (A) (A) (A) (A) (A) (A) (A) (A) (A) (A) (A)
                 (A) (A) (A) (A) (A) (A) (A) (A) (A) (A) (A) (A)
                 (A) (A) (A) (A) (A) (A) (A) (A) (A) (A) (A)
       Virtual   (A) (A) (A) (A) (A) (A) (A) (A) (A) (A) (A) (A)
                 (A) (A) (A) (A) (A) (A) (A) (A) (A) (A) (A) (A)
                 (A) (A) (A) (A) (A) (A) (A) (A) (A) (A) (A) (A)
                 (A) (A) (A) (A) (A) (A) (A) (A) (A) (A) (A) (A)
                 (A) (A) (A) (A) (A) (A) (A) (A) (A) (A) (A) (A)
                 (A) (A) (A) (A) (A) (A) (A) (A) (A) (A) (A) (A)
                 (A) (A) (A) (A) (A) (A) (A) (A) (A) (A) (A) (A)
                 (A) (A) (A) (A) (A) (A) (A) (A) (A) (A) (A) (A)
                 (A) (A) (A) (A) (A) (A) (A) (A) (A) (A) (A) (A)
                 (A) (A) (A) (A) (A) (A) (A) (A) (A) (A) (A) (A)
                 (A) (A) (A) (A) (A) (A) (A) (A) (A) (A) (A) (A)
                 (A) (A) (A) (A) (A) (A) (A) (A) (A) (A) (A) (A)
                 (A) (A) (A) (A) (A) (A) (A) (A) (A) (A) (A) (A)
                 (A) (A) (A) (A) (A) (A) (A) (A) (A) (A) (A) (A)
                 (A) (A) (A) (A) (A) (A) (A) (A) (A) (A) (A) (A)
                 (A) (A) (A) (A) (A) (A) (A) (A) (A) (A) (A) (A)
                 (A) (A) (A) (A) (A) (A) (A) (A) (A) (A) (A) (A)
                 (A) (A) (A) (A) (A) (A) (A) (A) (A) (A) (A) (A)
                 (A) (A) (A) (A) (A) (A) (A) (A) (A) (A) (A) (A)
                 (A) (A) (A) (A) (A) (A) (A) (A) (A) (A) (A) (A)
                 (A) (A) (A) (A) (A) (A) (A) (A) (A) (A) (A) (A)
                 (A) (A) (A) (A) (A) (A) (A) (A) (A) (A) (A) (A)
                 (A) (A) (A) (A) (A) (A) (A) (A) (A) (A) (A) (A)
                 (A) (A) (A) (A) (A) (A) (A) (A) (A) (A) (A) (A)
                 (A) (A) (A) (A) (A) (A) (A) (A) (A) (A) (A) (A)
                 (A) (A) (A) (A) (A) (A) (A) (A) (A) (A) (A) (A)
                 (A) (A) (A) (A) (A) (A) (A) (A) (A) (A) (A) (A)
                 (A) (A) (A) (A)
 The electronic state is 1-A.
 Alpha  occ. eigenvalues --  -19.11665 -10.26381 -10.18459 -10.17836 -10.17833
 Alpha  occ. eigenvalues --  -10.16994 -10.16830 -10.16470 -10.16202  -1.03578
 Alpha  occ. eigenvalues --   -0.82260  -0.78911  -0.74997  -0.69617  -0.69069
 Alpha  occ. eigenvalues --   -0.62073  -0.53105  -0.52030  -0.48775  -0.47097
 Alpha  occ. eigenvalues --   -0.45725  -0.44799  -0.43841  -0.42627  -0.42168
 Alpha  occ. eigenvalues --   -0.39283  -0.39204  -0.37906  -0.37532  -0.36591
 Alpha  occ. eigenvalues --   -0.35520  -0.34439  -0.32886  -0.26035  -0.23540
 Alpha virt. eigenvalues --   -0.02617   0.00990   0.02249   0.03814   0.06002
 Alpha virt. eigenvalues --    0.06476   0.08529   0.09004   0.09581   0.10414
 Alpha virt. eigenvalues --    0.10880   0.11308   0.13022   0.13106   0.14116
 Alpha virt. eigenvalues --    0.14233   0.14686   0.15791   0.16137   0.16830
 Alpha virt. eigenvalues --    0.18331   0.18984   0.20368   0.21316   0.21788
 Alpha virt. eigenvalues --    0.23338   0.24325   0.25276   0.26710   0.27580
 Alpha virt. eigenvalues --    0.29400   0.30071   0.31450   0.32158   0.33242
 Alpha virt. eigenvalues --    0.34881   0.35415   0.36809   0.37184   0.38242
 Alpha virt. eigenvalues --    0.38998   0.40224   0.40460   0.41226   0.41897
 Alpha virt. eigenvalues --    0.43205   0.43727   0.44329   0.44901   0.45326
 Alpha virt. eigenvalues --    0.45408   0.45960   0.46499   0.47262   0.47391
 Alpha virt. eigenvalues --    0.48361   0.49244   0.50784   0.51314   0.52780
 Alpha virt. eigenvalues --    0.53102   0.54745   0.55337   0.56777   0.58250
 Alpha virt. eigenvalues --    0.60984   0.61136   0.62543   0.63293   0.64272
 Alpha virt. eigenvalues --    0.65510   0.67836   0.68369   0.71154   0.72894
 Alpha virt. eigenvalues --    0.74520   0.78050   0.79678   0.81020   0.83379
 Alpha virt. eigenvalues --    0.85139   0.86268   0.88659   0.89632   0.90953
 Alpha virt. eigenvalues --    0.93008   0.95719   0.95839   0.96830   0.98430
 Alpha virt. eigenvalues --    0.99492   1.01951   1.03947   1.04953   1.05399
 Alpha virt. eigenvalues --    1.07032   1.09418   1.10083   1.10611   1.12622
 Alpha virt. eigenvalues --    1.14941   1.16714   1.18079   1.19698   1.21004
 Alpha virt. eigenvalues --    1.23838   1.24823   1.28432   1.29706   1.35198
 Alpha virt. eigenvalues --    1.38250   1.38861   1.42506   1.44730   1.45256
 Alpha virt. eigenvalues --    1.46894   1.49163   1.50410   1.50980   1.52070
 Alpha virt. eigenvalues --    1.52726   1.53649   1.54498   1.55338   1.55917
 Alpha virt. eigenvalues --    1.57386   1.57825   1.58061   1.58726   1.59659
 Alpha virt. eigenvalues --    1.60869   1.61227   1.62888   1.63205   1.64102
 Alpha virt. eigenvalues --    1.67309   1.68720   1.70793   1.76372   1.80182
 Alpha virt. eigenvalues --    1.82173   1.84836   1.85322   1.86194   1.88031
 Alpha virt. eigenvalues --    1.88175   1.92021   1.93424   1.94007   1.96234
 Alpha virt. eigenvalues --    1.97660   2.00114   2.01148   2.03791   2.06046
 Alpha virt. eigenvalues --    2.07342   2.07983   2.09623   2.11518   2.14988
 Alpha virt. eigenvalues --    2.16030   2.17178   2.19465   2.19919   2.21418
 Alpha virt. eigenvalues --    2.23730   2.25604   2.28931   2.30004   2.31851
 Alpha virt. eigenvalues --    2.32237   2.33487   2.35528   2.35976   2.38703
 Alpha virt. eigenvalues --    2.39655   2.40260   2.42321   2.44094   2.46322
 Alpha virt. eigenvalues --    2.48410   2.49666   2.50537   2.51729   2.52650
 Alpha virt. eigenvalues --    2.53768   2.54665   2.55860   2.56543   2.57243
 Alpha virt. eigenvalues --    2.57721   2.63643   2.64056   2.65447   2.65801
 Alpha virt. eigenvalues --    2.67739   2.68367   2.72024   2.73067   2.74884
 Alpha virt. eigenvalues --    2.77493   2.77966   2.79278   2.81641   2.84783
 Alpha virt. eigenvalues --    2.88850   2.90047   2.91763   2.93702   2.94532
 Alpha virt. eigenvalues --    2.97666   2.98138   3.00615   3.01541   3.02623
 Alpha virt. eigenvalues --    3.02918   3.03400   3.03898   3.05500   3.07851
 Alpha virt. eigenvalues --    3.10313   3.11316   3.11786   3.12478   3.14504
 Alpha virt. eigenvalues --    3.16672   3.17112   3.18350   3.21087   3.21806
 Alpha virt. eigenvalues --    3.21961   3.23264   3.25911   3.28044   3.29316
 Alpha virt. eigenvalues --    3.29442   3.31713   3.32129   3.33522   3.34387
 Alpha virt. eigenvalues --    3.36462   3.37628   3.38574   3.39631   3.40620
 Alpha virt. eigenvalues --    3.43892   3.44525   3.45810   3.46078   3.47894
 Alpha virt. eigenvalues --    3.49817   3.51179   3.52375   3.53545   3.55496
 Alpha virt. eigenvalues --    3.56096   3.62857   3.64142   3.68154   3.71878
 Alpha virt. eigenvalues --    3.73203   3.74043   3.76367   3.76768   3.82742
 Alpha virt. eigenvalues --    3.83232   3.86250   3.88104   3.89435   3.91394
 Alpha virt. eigenvalues --    3.92669   3.96017   4.00368   4.01372   4.03637
 Alpha virt. eigenvalues --    4.04647   4.05373   4.10317   4.11542   4.19757
 Alpha virt. eigenvalues --    4.22569   4.25340   4.27872   4.30780   4.31834
 Alpha virt. eigenvalues --    4.37136   4.39882   4.41346   4.43062   4.44457
 Alpha virt. eigenvalues --    4.45811   4.47811   4.52141   4.53932   4.54316
 Alpha virt. eigenvalues --    4.62662   4.63872   4.70938   4.77129   4.77989
 Alpha virt. eigenvalues --    4.81093   4.84146   4.91418   5.02869   5.09415
 Alpha virt. eigenvalues --    5.18678   5.19507   5.24624   5.37998   5.57015
 Alpha virt. eigenvalues --    5.66048   6.09851   6.26904   6.37884   6.47838
 Alpha virt. eigenvalues --    6.53344   6.80656   7.01297   7.05033  22.24356
 Alpha virt. eigenvalues --   22.30293  22.37139  22.41326  22.44536  22.57005
 Alpha virt. eigenvalues --   22.94550  23.01318  43.84463
          Condensed to atoms (all electrons):
               1          2          3          4          5          6
     1  O    7.837429   0.018206  -0.155696   0.003273  -0.000372   0.668768
     2  C    0.018206   4.938985   0.235023   0.250822  -0.029183  -0.026793
     3  C   -0.155696   0.235023   5.653792  -0.086869   0.006115   0.131203
     4  C    0.003273   0.250822  -0.086869   5.138892   0.637512   0.015222
     5  C   -0.000372  -0.029183   0.006115   0.637512   5.094407  -0.002095
     6  C    0.668768  -0.026793   0.131203   0.015222  -0.002095   4.799830
     7  C   -0.000001   0.012259  -0.000360  -0.051195   0.300196   0.000053
     8  C   -0.000049  -0.006009  -0.001805  -0.055311   0.277526  -0.000171
     9  C   -0.098154   0.020129  -0.238046   0.000501  -0.000347   0.342757
    10  H    0.008151   0.442774  -0.063120  -0.053644  -0.001812   0.002430
    11  H    0.006365   0.426009  -0.047118  -0.043664   0.000812  -0.002316
    12  H    0.003995  -0.029000   0.355294  -0.001630   0.003664  -0.010377
    13  H    0.004080  -0.030286   0.363670   0.003244  -0.004905  -0.016964
    14  H    0.000045  -0.039236  -0.001728   0.395509  -0.040400   0.000031
    15  H   -0.000000  -0.000695  -0.000156  -0.003131  -0.044225   0.000001
    16  H    0.000000  -0.000877   0.000513  -0.005021  -0.046739  -0.000006
    17  H   -0.000000   0.001254  -0.000016   0.000852  -0.053585   0.000003
    18  H    0.000022   0.007239  -0.003460  -0.008199  -0.053903   0.000388
    19  H    0.000002  -0.001222   0.001778  -0.002762  -0.046128  -0.000104
    20  H    0.000000  -0.001373  -0.000536   0.002808  -0.048249   0.000049
    21  H    0.003378  -0.001183   0.019577  -0.000125   0.000048  -0.036566
    22  H    0.009878  -0.001091   0.018055   0.000011   0.000007  -0.043658
    23  H    0.003344  -0.001089   0.018114  -0.000147  -0.000005  -0.036897
               7          8          9         10         11         12
     1  O   -0.000001  -0.000049  -0.098154   0.008151   0.006365   0.003995
     2  C    0.012259  -0.006009   0.020129   0.442774   0.426009  -0.029000
     3  C   -0.000360  -0.001805  -0.238046  -0.063120  -0.047118   0.355294
     4  C   -0.051195  -0.055311   0.000501  -0.053644  -0.043664  -0.001630
     5  C    0.300196   0.277526  -0.000347  -0.001812   0.000812   0.003664
     6  C    0.000053  -0.000171   0.342757   0.002430  -0.002316  -0.010377
     7  C    4.933520  -0.070047  -0.000005  -0.000664  -0.000561  -0.000233
     8  C   -0.070047   4.948754   0.000018  -0.002247   0.000628  -0.000072
     9  C   -0.000005   0.000018   5.143179   0.001590   0.001023   0.007569
    10  H   -0.000664  -0.002247   0.001590   0.551115  -0.013499   0.006236
    11  H   -0.000561   0.000628   0.001023  -0.013499   0.568426  -0.002064
    12  H   -0.000233  -0.000072   0.007569   0.006236  -0.002064   0.572347
    13  H   -0.000092   0.001196   0.007553  -0.000856   0.006128  -0.016242
    14  H   -0.019357   0.010058   0.000083   0.005277  -0.005117   0.001821
    15  H    0.399328   0.000346  -0.000000   0.000116   0.000079   0.000010
    16  H    0.407280  -0.002869   0.000001  -0.000053  -0.000017  -0.000025
    17  H    0.413265   0.007804   0.000000   0.000029  -0.000097   0.000031
    18  H    0.007139   0.426478  -0.000094   0.000651   0.000149   0.000092
    19  H    0.000009   0.405110   0.000009  -0.000101  -0.000092  -0.000033
    20  H   -0.002496   0.403292  -0.000001   0.000695   0.000134   0.000012
    21  H   -0.000000  -0.000004   0.369836  -0.000131   0.000002  -0.002715
    22  H    0.000000  -0.000001   0.392525  -0.000055  -0.000038  -0.000600
    23  H    0.000000   0.000005   0.371454  -0.000026  -0.000106   0.000026
              13         14         15         16         17         18
     1  O    0.004080   0.000045  -0.000000   0.000000  -0.000000   0.000022
     2  C   -0.030286  -0.039236  -0.000695  -0.000877   0.001254   0.007239
     3  C    0.363670  -0.001728  -0.000156   0.000513  -0.000016  -0.003460
     4  C    0.003244   0.395509  -0.003131  -0.005021   0.000852  -0.008199
     5  C   -0.004905  -0.040400  -0.044225  -0.046739  -0.053585  -0.053903
     6  C   -0.016964   0.000031   0.000001  -0.000006   0.000003   0.000388
     7  C   -0.000092  -0.019357   0.399328   0.407280   0.413265   0.007139
     8  C    0.001196   0.010058   0.000346  -0.002869   0.007804   0.426478
     9  C    0.007553   0.000083  -0.000000   0.000001   0.000000  -0.000094
    10  H   -0.000856   0.005277   0.000116  -0.000053   0.000029   0.000651
    11  H    0.006128  -0.005117   0.000079  -0.000017  -0.000097   0.000149
    12  H   -0.016242   0.001821   0.000010  -0.000025   0.000031   0.000092
    13  H    0.570623   0.000781   0.000025  -0.000036  -0.000042   0.000245
    14  H    0.000781   0.593028   0.000626   0.000419   0.004848   0.000078
    15  H    0.000025   0.000626   0.599647  -0.039971  -0.024306  -0.000024
    16  H   -0.000036   0.000419  -0.039971   0.602195  -0.024906  -0.000144
    17  H   -0.000042   0.004848  -0.024306  -0.024906   0.569784  -0.000376
    18  H    0.000245   0.000078  -0.000024  -0.000144  -0.000376   0.565716
    19  H   -0.000533  -0.000335  -0.001895   0.006195   0.000018  -0.027354
    20  H    0.000147  -0.000370   0.006154  -0.001579  -0.000212  -0.023569
    21  H   -0.000333  -0.000013   0.000000  -0.000000   0.000000   0.000004
    22  H   -0.000577  -0.000001   0.000000  -0.000000   0.000000   0.000001
    23  H   -0.002156   0.000003  -0.000000  -0.000000  -0.000000  -0.000004
              19         20         21         22         23
     1  O    0.000002   0.000000   0.003378   0.009878   0.003344
     2  C   -0.001222  -0.001373  -0.001183  -0.001091  -0.001089
     3  C    0.001778  -0.000536   0.019577   0.018055   0.018114
     4  C   -0.002762   0.002808  -0.000125   0.000011  -0.000147
     5  C   -0.046128  -0.048249   0.000048   0.000007  -0.000005
     6  C   -0.000104   0.000049  -0.036566  -0.043658  -0.036897
     7  C    0.000009  -0.002496  -0.000000   0.000000   0.000000
     8  C    0.405110   0.403292  -0.000004  -0.000001   0.000005
     9  C    0.000009  -0.000001   0.369836   0.392525   0.371454
    10  H   -0.000101   0.000695  -0.000131  -0.000055  -0.000026
    11  H   -0.000092   0.000134   0.000002  -0.000038  -0.000106
    12  H   -0.000033   0.000012  -0.002715  -0.000600   0.000026
    13  H   -0.000533   0.000147  -0.000333  -0.000577  -0.002156
    14  H   -0.000335  -0.000370  -0.000013  -0.000001   0.000003
    15  H   -0.001895   0.006154   0.000000   0.000000  -0.000000
    16  H    0.006195  -0.001579  -0.000000  -0.000000  -0.000000
    17  H    0.000018  -0.000212   0.000000   0.000000  -0.000000
    18  H   -0.027354  -0.023569   0.000004   0.000001  -0.000004
    19  H    0.591703  -0.035074  -0.000000  -0.000000   0.000002
    20  H   -0.035074   0.584038   0.000000   0.000000  -0.000001
    21  H   -0.000000   0.000000   0.570494  -0.017120  -0.022415
    22  H   -0.000000   0.000000  -0.017120   0.529281  -0.016872
    23  H    0.000002  -0.000001  -0.022415  -0.016872   0.568886
 Mulliken charges:
               1
     1  O   -0.312665
     2  C   -0.184663
     3  C   -0.204224
     4  C   -0.136949
     5  C    0.051659
     6  C    0.215211
     7  C   -0.328038
     8  C   -0.342630
     9  C   -0.321583
    10  H    0.117143
    11  H    0.104934
    12  H    0.111893
    13  H    0.115331
    14  H    0.093950
    15  H    0.108072
    16  H    0.105640
    17  H    0.105652
    18  H    0.108923
    19  H    0.110806
    20  H    0.116131
    21  H    0.117265
    22  H    0.130257
    23  H    0.117884
 Sum of Mulliken charges =  -0.00000
 Mulliken charges with hydrogens summed into heavy atoms:
               1
     1  O   -0.312665
     2  C    0.037414
     3  C    0.023000
     4  C   -0.042998
     5  C    0.051659
     6  C    0.215211
     7  C   -0.008675
     8  C   -0.006769
     9  C    0.043824
 Electronic spatial extent (au):  <R**2>=           2008.5283
 Charge=             -0.0000 electrons
 Dipole moment (field-independent basis, Debye):
    X=             -0.9290    Y=              0.2802    Z=              2.7268  Tot=              2.8943
 Quadrupole moment (field-independent basis, Debye-Ang):
   XX=            -59.1545   YY=            -55.0995   ZZ=            -60.8253
   XY=             -0.7552   XZ=              7.8433   YZ=             -0.2466
 Traceless Quadrupole moment (field-independent basis, Debye-Ang):
   XX=             -0.7948   YY=              3.2603   ZZ=             -2.4655
   XY=             -0.7552   XZ=              7.8433   YZ=             -0.2466
 Octapole moment (field-independent basis, Debye-Ang**2):
  XXX=              2.6407  YYY=             -2.9766  ZZZ=              0.5458  XYY=              6.0079
  XXY=              3.0428  XXZ=             21.4825  XZZ=             -3.6186  YZZ=              1.4846
  YYZ=              0.4812  XYZ=              0.4986
 Hexadecapole moment (field-independent basis, Debye-Ang**3):
 XXXX=          -2217.5634 YYYY=           -278.0507 ZZZZ=           -261.4123 XXXY=             -2.7611
 XXXZ=             61.5476 YYYX=              4.7157 YYYZ=              1.0488 ZZZX=              1.2101
 ZZZY=             -0.1955 XXYY=           -410.0749 XXZZ=           -435.7774 YYZZ=            -85.3994
 XXYZ=             -4.2109 YYXZ=             -2.9466 ZZXY=             -6.8525
 N-N= 4.320354800839D+02 E-N=-1.767284362889D+03  KE= 3.864923262822D+02
 No NMR shielding tensors so no spin-rotation constants.
 Leave Link  601 at Tue Jun  4 00:07:05 2024, MaxMem= 13421772800 cpu:               6.4 elap:               0.3
 (Enter /tmpu/scunam/7/gaussian-2016.03/g1/g16/l701.exe)
 ... and contract with generalized density number  0.
 Compute integral first derivatives.
   1 Symmetry operations used in ECPInt.
 ECPInt:  NShTT=   12090 NPrTT=   35220 LenC2=   11387 LenP2D=   25794.
 LDataN:  DoStor=T MaxTD1= 7 Len=  274
 Leave Link  701 at Tue Jun  4 00:07:05 2024, MaxMem= 13421772800 cpu:               8.7 elap:               0.3
 (Enter /tmpu/scunam/7/gaussian-2016.03/g1/g16/l702.exe)
 L702 exits ... SP integral derivatives will be done elsewhere.
 Leave Link  702 at Tue Jun  4 00:07:05 2024, MaxMem= 13421772800 cpu:               0.6 elap:               0.0
 (Enter /tmpu/scunam/7/gaussian-2016.03/g1/g16/l703.exe)
 Integral derivatives from FoFJK, PRISM(SPDF).
 Compute integral first derivatives, UseDBF=F ICtDFT=           0.
 Calling FoFJK, ICntrl=      2127 FMM=F ISym2X=0 I1Cent= 0 IOpClX= 0 NMat=1 NMatS=1 NMatT=0.
 FoFJK:  IHMeth= 1 ICntrl=    2127 DoSepK=F KAlg= 0 I1Cent=           0 FoldK=F
 IRaf=         0 NMat=       1 IRICut=       1 DoRegI=T DoRafI=F ISym2E= 0 IDoP0=0 IntGTp=1.
 FoFCou: FMM=F IPFlag=           0 FMFlag=      100000 FMFlg1=         800
         NFxFlg=           0 DoJE=F BraDBF=F KetDBF=F FulRan=T
         wScrn=  0.000000 ICntrl=      2127 IOpCl=  0 I1Cent=           0 NGrid=           0
         NMat0=    1 NMatS0=      1 NMatT0=    0 NMatD0=    1 NMtDS0=    0 NMtDT0=    0
 Symmetry not used in FoFCou.
 Leave Link  703 at Tue Jun  4 00:07:16 2024, MaxMem= 13421772800 cpu:             338.6 elap:              10.6
 (Enter /tmpu/scunam/7/gaussian-2016.03/g1/g16/l716.exe)
 Dipole        =-3.65494229D-01 1.10233492D-01 1.07278824D+00
 ***** Axes restored to original set *****
 -------------------------------------------------------------------
 Center     Atomic                   Forces (Hartrees/Bohr)
 Number     Number              X              Y              Z
 -------------------------------------------------------------------
      1        8          -0.010257381    0.014320744    0.023876998
      2        6          -0.006633110   -0.001513115   -0.003004727
      3        6           0.005554059   -0.005868249   -0.010782162
      4        6          -0.009258510    0.004120222   -0.004834244
      5        6           0.008046276   -0.010187056    0.007836359
      6        6           0.010385170   -0.013642360   -0.021726887
      7        6           0.001404552   -0.002289466    0.002393412
      8        6           0.005799720   -0.001358464   -0.001085041
      9        6           0.006872192   -0.001776938   -0.004899653
     10        1           0.001831911    0.000638781    0.004039681
     11        1           0.001325597    0.004186063    0.000467952
     12        1          -0.000897800    0.004190031    0.000664581
     13        1           0.000199850   -0.001616605    0.004100691
     14        1          -0.002433424    0.002062544   -0.000339189
     15        1          -0.001428253    0.002333589    0.001214681
     16        1          -0.002862134   -0.000078326   -0.001620340
     17        1           0.001423513    0.001906785   -0.002363655
     18        1          -0.002093273   -0.001493705    0.000284350
     19        1          -0.002099176   -0.000753807   -0.001706914
     20        1          -0.000809034    0.002717591    0.000472540
     21        1          -0.001178734    0.004179076    0.001307762
     22        1          -0.003008965    0.000126997    0.001241944
     23        1           0.000116951   -0.000204331    0.004461861
 -------------------------------------------------------------------
 Cartesian Forces:  Max     0.023876998 RMS     0.006086858
 Leave Link  716 at Tue Jun  4 00:07:16 2024, MaxMem= 13421772800 cpu:               0.9 elap:               0.1
 (Enter /tmpu/scunam/7/gaussian-2016.03/g1/g16/l103.exe)

 GradGradGradGradGradGradGradGradGradGradGradGradGradGradGradGradGradGrad
 Berny optimization.
 FormGI is forming the generalized inverse of G from B-inverse, IUseBI=4.
 Internal  Forces:  Max     0.029544849 RMS     0.003745209
 Search for a local minimum.
 Step number   1 out of a maximum of  138
 All quantities printed in internal units (Hartrees-Bohrs-Radians)
 RMS Force = .37452D-02 SwitMx=.10000D-02 MixMth= 1
 Mixed Optimization -- RFO/linear search
 Second derivative matrix not updated -- first step.
 ITU=  0
     Eigenvalues ---    0.00409   0.00516   0.00594   0.00676   0.00694
     Eigenvalues ---    0.00732   0.00739   0.01300   0.01597   0.02798
     Eigenvalues ---    0.04157   0.04203   0.05364   0.05436   0.07020
     Eigenvalues ---    0.07088   0.07309   0.07347   0.07430   0.07482
     Eigenvalues ---    0.09274   0.09371   0.12760   0.12786   0.15999
     Eigenvalues ---    0.16000   0.16000   0.16000   0.16000   0.16000
     Eigenvalues ---    0.16000   0.16000   0.16000   0.16000   0.21857
     Eigenvalues ---    0.22000   0.22005   0.24999   0.24999   0.25000
     Eigenvalues ---    0.25000   0.29704   0.30471   0.31677   0.31815
     Eigenvalues ---    0.32111   0.32164   0.33967   0.34098   0.34103
     Eigenvalues ---    0.34137   0.34216   0.34229   0.34242   0.34250
     Eigenvalues ---    0.34259   0.34399   0.34482   0.34492   0.34504
     Eigenvalues ---    0.34896   0.55797   0.91071
 RFO step:  Lambda=-4.32915271D-03 EMin= 4.08983466D-03
 Linear search not attempted -- first point.
 Iteration  1 RMS(Cart)=  0.06541494 RMS(Int)=  0.00114738
 Iteration  2 RMS(Cart)=  0.00196558 RMS(Int)=  0.00013260
 Iteration  3 RMS(Cart)=  0.00000202 RMS(Int)=  0.00013259
 Iteration  4 RMS(Cart)=  0.00000000 RMS(Int)=  0.00013259
 ITry= 1 IFail=0 DXMaxC= 1.94D-01 DCOld= 1.00D+10 DXMaxT= 3.00D-01 DXLimC= 3.00D+00 Rises=F
 Variable       Old X    -DE/DX   Delta X   Delta X   Delta X     New X
                                 (Linear)    (Quad)   (Total)
    R1        2.32443  -0.02954   0.00000  -0.03229  -0.03229   2.29214
    R2        2.88558   0.00378   0.00000   0.01256   0.01256   2.89814
    R3        2.83845   0.00403   0.00000   0.01236   0.01236   2.85082
    R4        2.07100  -0.00362   0.00000  -0.01048  -0.01048   2.06052
    R5        2.07386  -0.00358   0.00000  -0.01041  -0.01041   2.06344
    R6        2.87034   0.00115   0.00000   0.00372   0.00372   2.87406
    R7        2.07156  -0.00093   0.00000  -0.00269  -0.00269   2.06887
    R8        2.07164  -0.00142   0.00000  -0.00412  -0.00412   2.06752
    R9        2.54430  -0.01250   0.00000  -0.02224  -0.02224   2.52207
   R10        2.05845  -0.00127   0.00000  -0.00361  -0.00361   2.05484
   R11        2.84484   0.00096   0.00000   0.00298   0.00298   2.84782
   R12        2.83941   0.00073   0.00000   0.00225   0.00225   2.84166
   R13        2.84738   0.00421   0.00000   0.01310   0.01310   2.86049
   R14        2.06911  -0.00022   0.00000  -0.00065  -0.00065   2.06846
   R15        2.06923  -0.00020   0.00000  -0.00057  -0.00057   2.06866
   R16        2.06946  -0.00302   0.00000  -0.00872  -0.00872   2.06075
   R17        2.06524  -0.00223   0.00000  -0.00639  -0.00639   2.05885
   R18        2.06967  -0.00081   0.00000  -0.00233  -0.00233   2.06734
   R19        2.06895  -0.00035   0.00000  -0.00101  -0.00101   2.06795
   R20        2.06507  -0.00027   0.00000  -0.00078  -0.00078   2.06430
   R21        2.06661  -0.00325   0.00000  -0.00932  -0.00932   2.05729
   R22        2.06489  -0.00023   0.00000  -0.00067  -0.00067   2.06421
    A1        1.94130   0.00544   0.00000   0.02607   0.02616   1.96746
    A2        1.92789  -0.00294   0.00000  -0.01989  -0.02020   1.90769
    A3        1.92037  -0.00368   0.00000  -0.02856  -0.02881   1.89156
    A4        1.93853  -0.00049   0.00000   0.00896   0.00909   1.94762
    A5        1.89356   0.00002   0.00000   0.01022   0.01047   1.90402
    A6        1.83922   0.00138   0.00000   0.00166   0.00113   1.84034
    A7        1.96371   0.00582   0.00000   0.03642   0.03599   1.99970
    A8        1.92290  -0.00027   0.00000   0.00376   0.00359   1.92648
    A9        1.92204  -0.00066   0.00000   0.00325   0.00289   1.92492
   A10        1.88197  -0.00200   0.00000  -0.00502  -0.00532   1.87664
   A11        1.87905  -0.00128   0.00000   0.00329   0.00287   1.88192
   A12        1.89210  -0.00190   0.00000  -0.04493  -0.04495   1.84715
   A13        2.22901  -0.00078   0.00000  -0.00341  -0.00348   2.22553
   A14        1.99238   0.00341   0.00000   0.02020   0.02013   2.01251
   A15        2.06174  -0.00263   0.00000  -0.01657  -0.01664   2.04510
   A16        2.10240   0.00309   0.00000   0.01220   0.01215   2.11455
   A17        2.18336  -0.00395   0.00000  -0.01550  -0.01555   2.16782
   A18        1.99739   0.00087   0.00000   0.00345   0.00341   2.00079
   A19        2.14501  -0.00448   0.00000  -0.01760  -0.01761   2.12740
   A20        2.11186   0.00188   0.00000   0.00738   0.00738   2.11923
   A21        2.02632   0.00260   0.00000   0.01022   0.01022   2.03654
   A22        1.92365   0.00210   0.00000   0.01072   0.01073   1.93439
   A23        1.92461   0.00267   0.00000   0.01514   0.01516   1.93977
   A24        1.96225  -0.00243   0.00000  -0.01151  -0.01148   1.95076
   A25        1.89417  -0.00363   0.00000  -0.02852  -0.02852   1.86565
   A26        1.87839   0.00055   0.00000   0.00559   0.00562   1.88401
   A27        1.87866   0.00055   0.00000   0.00732   0.00735   1.88601
   A28        1.97529  -0.00084   0.00000  -0.00105  -0.00107   1.97421
   A29        1.92182   0.00071   0.00000   0.00335   0.00334   1.92516
   A30        1.92246   0.00220   0.00000   0.01038   0.01038   1.93285
   A31        1.86788   0.00112   0.00000   0.01263   0.01261   1.88049
   A32        1.88209  -0.00040   0.00000  -0.00043  -0.00044   1.88165
   A33        1.89162  -0.00299   0.00000  -0.02633  -0.02632   1.86530
   A34        1.91246   0.00247   0.00000   0.01173   0.01168   1.92414
   A35        1.91502  -0.00031   0.00000   0.00487   0.00475   1.91977
   A36        1.91257   0.00246   0.00000   0.01147   0.01142   1.92399
   A37        1.89966   0.00024   0.00000   0.00849   0.00836   1.90803
   A38        1.92386  -0.00506   0.00000  -0.04414  -0.04411   1.87975
   A39        1.90016   0.00016   0.00000   0.00759   0.00747   1.90763
    D1       -3.13676  -0.00033   0.00000  -0.01876  -0.01879   3.12763
    D2        1.04582  -0.00148   0.00000  -0.03934  -0.03944   1.00638
    D3       -1.04046   0.00146   0.00000   0.01184   0.01189  -1.02857
    D4       -0.97573   0.00079   0.00000  -0.00302  -0.00324  -0.97897
    D5       -3.07633  -0.00037   0.00000  -0.02359  -0.02389  -3.10022
    D6        1.12058   0.00257   0.00000   0.02759   0.02744   1.14802
    D7        1.04766  -0.00144   0.00000  -0.02957  -0.02933   1.01833
    D8       -1.05295  -0.00260   0.00000  -0.05014  -0.04997  -1.10292
    D9       -3.13922   0.00035   0.00000   0.00103   0.00136  -3.13787
   D10        1.63851   0.00072   0.00000   0.04759   0.04752   1.68603
   D11       -1.51503   0.00117   0.00000   0.07014   0.07023  -1.44480
   D12       -0.51646   0.00097   0.00000   0.04808   0.04791  -0.46855
   D13        2.61318   0.00142   0.00000   0.07063   0.07062   2.68380
   D14       -2.53013  -0.00043   0.00000   0.03515   0.03514  -2.49499
   D15        0.59952   0.00001   0.00000   0.05769   0.05785   0.65737
   D16       -0.02844   0.00003   0.00000   0.00601   0.00607  -0.02237
   D17        3.11234  -0.00000   0.00000   0.00238   0.00247   3.11481
   D18        2.09560   0.00201   0.00000   0.03037   0.03035   2.12595
   D19       -1.04680   0.00198   0.00000   0.02674   0.02675  -1.02006
   D20       -2.14941  -0.00192   0.00000  -0.02316  -0.02323  -2.17265
   D21        0.99137  -0.00196   0.00000  -0.02679  -0.02684   0.96454
   D22        3.11395   0.00128   0.00000   0.03953   0.03943  -3.12980
   D23       -0.03764   0.00161   0.00000   0.05826   0.05812   0.02048
   D24       -0.01528   0.00079   0.00000   0.01599   0.01613   0.00085
   D25        3.11632   0.00112   0.00000   0.03472   0.03482  -3.13205
   D26       -2.10871  -0.00052   0.00000   0.00097   0.00107  -2.10764
   D27        2.08352   0.00095   0.00000   0.01992   0.02000   2.10353
   D28       -0.01309   0.00002   0.00000   0.00782   0.00790  -0.00519
   D29        1.04187  -0.00079   0.00000  -0.01574  -0.01582   1.02605
   D30       -1.04909   0.00068   0.00000   0.00321   0.00311  -1.04597
   D31        3.13748  -0.00025   0.00000  -0.00890  -0.00899   3.12850
   D32       -0.08299   0.00035   0.00000   0.01414   0.01422  -0.06878
   D33       -2.17263  -0.00102   0.00000  -0.00362  -0.00356  -2.17619
   D34        2.02528   0.00085   0.00000   0.02032   0.02040   2.04569
   D35        3.04913   0.00068   0.00000   0.03193   0.03186   3.08100
   D36        0.95950  -0.00069   0.00000   0.01417   0.01408   0.97358
   D37       -1.12577   0.00117   0.00000   0.03811   0.03805  -1.08773
   D38       -2.09282  -0.00161   0.00000  -0.02277  -0.02284  -2.11566
   D39       -0.00807   0.00000   0.00000  -0.00221  -0.00222  -0.01029
   D40        2.07737   0.00152   0.00000   0.01710   0.01714   2.09451
   D41        1.04956  -0.00157   0.00000  -0.01920  -0.01925   1.03032
   D42        3.13432   0.00004   0.00000   0.00136   0.00137   3.13569
   D43       -1.06343   0.00156   0.00000   0.02066   0.02073  -1.04270
         Item               Value     Threshold  Converged?
 Maximum Force            0.029545     0.000450     NO 
 RMS     Force            0.003745     0.000300     NO 
 Maximum Displacement     0.194457     0.001800     NO 
 RMS     Displacement     0.064790     0.001200     NO 
 Predicted change in Energy=-2.285139D-03
 Lowest energy point so far.  Saving SCF results.
 GradGradGradGradGradGradGradGradGradGradGradGradGradGradGradGradGradGrad

 Leave Link  103 at Tue Jun  4 00:07:16 2024, MaxMem= 13421772800 cpu:               6.2 elap:               0.2
 (Enter /tmpu/scunam/7/gaussian-2016.03/g1/g16/l202.exe)
                          Input orientation:                          
 ---------------------------------------------------------------------
 Center     Atomic      Atomic             Coordinates (Angstroms)
 Number     Number       Type             X           Y           Z
 ---------------------------------------------------------------------
      1          8           0        2.756829   -0.525992   -1.010532
      2          6           0        0.033498   -0.742633   -0.298115
      3          6           0        1.037363    0.040869    0.556520
      4          6           0       -1.354609   -0.749309    0.292607
      5          6           0       -2.372777    0.056750   -0.015315
      6          6           0        2.456098    0.058587    0.008819
      7          6           0       -3.703703   -0.067691    0.680536
      8          6           0       -2.311147    1.134346   -1.062324
      9          6           0        3.479021    0.848889    0.796442
     10          1           0        0.035734   -0.343980   -1.313002
     11          1           0        0.387913   -1.771432   -0.389046
     12          1           0        1.080156   -0.372514    1.569371
     13          1           0        0.709615    1.078396    0.671153
     14          1           0       -1.528148   -1.496321    1.063474
     15          1           0       -4.501474   -0.275658   -0.039479
     16          1           0       -3.970759    0.863020    1.191222
     17          1           0       -3.700399   -0.869775    1.419346
     18          1           0       -1.322363    1.242774   -1.506796
     19          1           0       -2.590154    2.099877   -0.630214
     20          1           0       -3.020771    0.930919   -1.870139
     21          1           0        3.553900    0.460989    1.814883
     22          1           0        4.452489    0.783193    0.313484
     23          1           0        3.178288    1.896994    0.861502
 ---------------------------------------------------------------------
                    Distance matrix (angstroms):
                    1          2          3          4          5
     1  O    0.000000
     2  C    2.823297   0.000000
     3  C    2.394482   1.533630   0.000000
     4  C    4.318791   1.508587   2.532896   0.000000
     5  C    5.257652   2.551303   3.457789   1.334621   0.000000
     6  C    1.212950   2.570049   1.520887   3.905728   4.828935
     7  C    6.693894   3.921731   4.743931   2.476557   1.507003
     8  C    5.333272   3.099101   3.876709   2.509773   1.503742
     9  C    2.382649   3.950016   2.583051   5.115864   5.960703
    10  H    2.743897   1.090378   2.155570   2.162250   2.765051
    11  H    2.747568   1.091928   2.144834   2.132080   3.332166
    12  H    3.080696   2.172553   1.094799   2.774920   3.823381
    13  H    3.097291   2.170889   1.094086   2.782952   3.319057
    14  H    4.858402   2.204701   3.033448   1.087373   2.071042
    15  H    7.327249   4.566281   5.579796   3.199592   2.154630
    16  H    7.213703   4.564024   5.114692   3.201774   2.158552
    17  H    6.907842   4.111912   4.901034   2.605146   2.163164
    18  H    4.473769   2.690930   3.357105   2.684638   2.175899
    19  H    5.969091   3.882486   4.336673   3.239758   2.144696
    20  H    6.020147   3.821072   4.811374   3.205734   2.150451
    21  H    3.097163   4.278633   2.844808   5.279735   6.215990
    22  H    2.518382   4.714836   3.503312   6.005945   6.871687
    23  H    3.090793   4.266386   2.849873   5.279556   5.913513
                    6          7          8          9         10
     6  C    0.000000
     7  C    6.197604   0.000000
     8  C    5.003122   2.534100   0.000000
     9  C    1.513704   7.241898   6.087902   0.000000
    10  H    2.787011   4.246636   2.784985   4.210572   0.000000
    11  H    2.790100   4.559392   4.022657   4.222134   1.736474
    12  H    2.124708   4.875269   4.549438   2.800678   3.065894
    13  H    2.128121   4.559712   3.483256   2.781723   2.532615
    14  H    4.405026   2.630715   3.471673   5.535617   3.069406
    15  H    6.965763   1.094582   2.798545   8.102572   4.713044
    16  H    6.584047   1.094689   2.811832   7.460246   4.876472
    17  H    6.383877   1.090500   3.479254   7.408501   4.658420
    18  H    4.239829   3.488914   1.089498   5.339788   2.097563
    19  H    5.480865   2.767022   1.093990   6.358868   3.651565
    20  H    5.855556   2.823041   1.094310   7.026001   3.358273
    21  H    2.151502   7.364717   6.567382   1.092380   4.775890
    22  H    2.145566   8.208666   6.911073   1.088671   4.839803
    23  H    2.151364   7.159228   5.866570   1.092335   4.430133
                   11         12         13         14         15
    11  H    0.000000
    12  H    2.504310   0.000000
    13  H    3.057619   1.746207   0.000000
    14  H    2.420081   2.884809   3.433754   0.000000
    15  H    5.125001   5.809679   5.430829   3.398116   0.000000
    16  H    5.332504   5.213567   4.714102   3.398405   1.758656
    17  H    4.560434   4.808688   4.878871   2.288641   1.767164
    18  H    3.641406   4.224222   2.983188   3.761818   3.816464
    19  H    4.890202   4.941868   3.691267   4.114495   3.105685
    20  H    4.595156   5.508790   4.516159   4.089682   2.645680
    21  H    4.456959   2.621910   3.127182   5.497535   8.298817
    22  H    4.851849   3.779622   3.771496   6.444121   9.023259
    23  H    4.775711   3.170789   2.607812   5.805680   8.031870
                   16         17         18         19         20
    16  H    0.000000
    17  H    1.768535   0.000000
    18  H    3.799673   4.322062   0.000000
    19  H    2.598752   3.775205   1.763609   0.000000
    20  H    3.206091   3.811181   1.764614   1.757643   0.000000
    21  H    7.561156   7.385948   5.951695   6.812771   7.551591
    22  H    8.469233   8.391949   6.072359   7.226551   7.787146
    23  H    7.230954   7.435223   5.127641   5.961653   6.842770
                   21         22         23
    21  H    0.000000
    22  H    1.779178   0.000000
    23  H    1.764122   1.778894   0.000000
 Stoichiometry    C8H14O
 Framework group  C1[X(C8H14O)]
 Deg. of freedom    63
 Full point group                 C1      NOp   1
 RotChk:  IX=0 Diff= 8.71D-01
 Largest Abelian subgroup         C1      NOp   1
 Largest concise Abelian subgroup C1      NOp   1
                         Standard orientation:                         
 ---------------------------------------------------------------------
 Center     Atomic      Atomic             Coordinates (Angstroms)
 Number     Number       Type             X           Y           Z
 ---------------------------------------------------------------------
      1          8           0        2.761450    0.743753   -0.961610
      2          6           0        0.047218   -0.025508   -0.851207
      3          6           0        1.067727   -0.493223    0.193698
      4          6           0       -1.332412   -0.586194   -0.610198
      5          6           0       -2.350002    0.002557    0.021544
      6          6           0        2.478656    0.032560   -0.020610
      7          6           0       -3.671676   -0.700432    0.194868
      8          6           0       -2.296749    1.389127    0.601050
      9          6           0        3.517313   -0.370653    1.004041
     10          1           0        0.037486    1.064367   -0.882871
     11          1           0        0.394164   -0.341960   -1.837003
     12          1           0        1.122366   -1.586528    0.210518
     13          1           0        0.747832   -0.194858    1.196529
     14          1           0       -1.499493   -1.590227   -0.992796
     15          1           0       -4.480775   -0.128399   -0.270156
     16          1           0       -3.925924   -0.807589    1.254217
     17          1           0       -3.662715   -1.694717   -0.252913
     18          1           0       -1.313718    1.850997    0.515426
     19          1           0       -2.563849    1.367775    1.661717
     20          1           0       -3.018925    2.044628    0.104770
     21          1           0        3.604266   -1.458753    1.046137
     22          1           0        4.483446    0.058096    0.743339
     23          1           0        3.223793   -0.022258    1.996847
 ---------------------------------------------------------------------
 Rotational constants (GHZ):           3.8761271           0.5967854           0.5918191
 Leave Link  202 at Tue Jun  4 00:07:17 2024, MaxMem= 13421772800 cpu:               2.7 elap:               0.1
 (Enter /tmpu/scunam/7/gaussian-2016.03/g1/g16/l301.exe)
 Standard basis: def2TZVP (5D, 7F)
 Ernie: Thresh=  0.10000D-02 Tol=  0.10000D-05 Strict=F.
 There are   408 symmetry adapted cartesian basis functions of A   symmetry.
 There are   363 symmetry adapted basis functions of A   symmetry.
   363 basis functions,   571 primitive gaussians,   408 cartesian basis functions
    35 alpha electrons       35 beta electrons
       nuclear repulsion energy       431.1642901074 Hartrees.
 IExCor=  402 DFT=T Ex+Corr=B3LYP ExCW=0 ScaHFX=  0.200000
 ScaDFX=  0.800000  0.720000  1.000000  0.810000 ScalE2=  1.000000  1.000000
 IRadAn=      5 IRanWt=     -1 IRanGd=            0 ICorTp=0 IEmpDi=  4
 NAtoms=   23 NActive=   23 NUniq=   23 SFac= 1.00D+00 NAtFMM=   60 NAOKFM=F Big=F
 Integral buffers will be    131072 words long.
 Raffenetti 2 integral format.
 Two-electron integral symmetry is turned on.
 Leave Link  301 at Tue Jun  4 00:07:17 2024, MaxMem= 13421772800 cpu:               2.6 elap:               0.1
 (Enter /tmpu/scunam/7/gaussian-2016.03/g1/g16/l302.exe)
 NPDir=0 NMtPBC=     1 NCelOv=     1 NCel=       1 NClECP=     1 NCelD=      1
         NCelK=      1 NCelE2=     1 NClLst=     1 CellRange=     0.0.
 One-electron integrals computed using PRISM.
 One-electron integral symmetry used in STVInt
   1 Symmetry operations used in ECPInt.
 ECPInt:  NShTT=   12090 NPrTT=   35220 LenC2=   11366 LenP2D=   25713.
 LDataN:  DoStor=T MaxTD1= 6 Len=  172
 NBasis=   363 RedAO= T EigKep=  7.42D-05  NBF=   363
 NBsUse=   363 1.00D-06 EigRej= -1.00D+00 NBFU=   363
 Precomputing XC quadrature grid using
 IXCGrd= 4 IRadAn=           5 IRanWt=          -1 IRanGd=           0 AccXCQ= 0.00D+00.
 Generated NRdTot=       0 NPtTot=           0 NUsed=           0 NTot=          32
 NSgBfM=   406   406   406   406   406 MxSgAt=    23 MxSgA2=    23.
 Leave Link  302 at Tue Jun  4 00:07:17 2024, MaxMem= 13421772800 cpu:              11.9 elap:               0.4
 (Enter /tmpu/scunam/7/gaussian-2016.03/g1/g16/l303.exe)
 DipDrv:  MaxL=1.
 Leave Link  303 at Tue Jun  4 00:07:17 2024, MaxMem= 13421772800 cpu:               2.7 elap:               0.1
 (Enter /tmpu/scunam/7/gaussian-2016.03/g1/g16/l401.exe)
 Initial guess from the checkpoint file:  "S36.chk"
 B after Tr=     0.000000   -0.000000   -0.000000
         Rot=    0.950823   -0.309727   -0.001448   -0.001490 Ang= -36.09 deg.
 Guess basis will be translated and rotated to current coordinates.
 JPrj=2 DoOrth=T DoCkMO=T.
 Generating alternative initial guess.
 ExpMin= 9.52D-02 ExpMax= 2.70D+04 ExpMxC= 9.22D+02 IAcc=2 IRadAn=         4 AccDes= 0.00D+00
 Harris functional with IExCor=  402 and IRadAn=       4 diagonalized for initial guess.
 HarFok:  IExCor=  402 AccDes= 0.00D+00 IRadAn=         4 IDoV= 1 UseB2=F ITyADJ=14
 ICtDFT=  3500011 ScaDFX=  1.000000  1.000000  1.000000  1.000000
 FoFCou: FMM=F IPFlag=           0 FMFlag=      100000 FMFlg1=           0
         NFxFlg=           0 DoJE=T BraDBF=F KetDBF=T FulRan=T
         wScrn=  0.000000 ICntrl=       500 IOpCl=  0 I1Cent=   200000004 NGrid=           0
         NMat0=    1 NMatS0=      1 NMatT0=    0 NMatD0=    1 NMtDS0=    0 NMtDT0=    0
 Petite list used in FoFCou.
 Harris En= -388.761400875772    
 Leave Link  401 at Tue Jun  4 00:07:18 2024, MaxMem= 13421772800 cpu:              28.9 elap:               1.0
 (Enter /tmpu/scunam/7/gaussian-2016.03/g1/g16/l502.exe)
 Integral symmetry usage will be decided dynamically.
 Closed shell SCF:
 Using DIIS extrapolation, IDIIS=  1040.
 NGot= 13421772800 LenX= 13421422965 LenY= 13421256060
 Requested convergence on RMS density matrix=1.00D-08 within 128 cycles.
 Requested convergence on MAX density matrix=1.00D-06.
 Requested convergence on             energy=1.00D-06.
 No special actions if energy rises.
 Fock matrices will be formed incrementally for  20 cycles.
 Integral accuracy reduced to 1.0D-05 until final iterations.

 Cycle   1  Pass 0  IDiag  1:
 FoFJK:  IHMeth= 1 ICntrl=       0 DoSepK=F KAlg= 0 I1Cent=           0 FoldK=F
 IRaf= 890000000 NMat=       1 IRICut=       1 DoRegI=T DoRafI=F ISym2E= 0 IDoP0=0 IntGTp=1.
 FoFCou: FMM=F IPFlag=           0 FMFlag=      100000 FMFlg1=           0
         NFxFlg=           0 DoJE=F BraDBF=F KetDBF=F FulRan=T
         wScrn=  0.000000 ICntrl=         0 IOpCl=  0 I1Cent=           0 NGrid=           0
         NMat0=    1 NMatS0=      1 NMatT0=    0 NMatD0=    1 NMtDS0=    0 NMtDT0=    0
 Symmetry not used in FoFCou.
 E= -388.645712101486    
 DIIS: error= 1.98D-03 at cycle   1 NSaved=   1.
 NSaved= 1 IEnMin= 1 EnMin= -388.645712101486     IErMin= 1 ErrMin= 1.98D-03
 ErrMax= 1.98D-03  0.00D+00 EMaxC= 1.00D-01 BMatC= 3.76D-03 BMatP= 3.76D-03
 IDIUse=3 WtCom= 9.80D-01 WtEn= 1.98D-02
 Coeff-Com:  0.100D+01
 Coeff-En:   0.100D+01
 Coeff:      0.100D+01
 Gap=     0.600 Goal=   None    Shift=    0.000
 GapD=    0.600 DampG=2.000 DampE=1.000 DampFc=2.0000 IDamp=-1.
 RMSDP=2.36D-04 MaxDP=5.60D-03              OVMax= 1.54D-02

 Cycle   2  Pass 0  IDiag  1:
 RMSU=  2.36D-04    CP:  9.98D-01
 E= -388.650456796195     Delta-E=       -0.004744694710 Rises=F Damp=F
 DIIS: error= 2.80D-04 at cycle   2 NSaved=   2.
 NSaved= 2 IEnMin= 2 EnMin= -388.650456796195     IErMin= 2 ErrMin= 2.80D-04
 ErrMax= 2.80D-04  0.00D+00 EMaxC= 1.00D-01 BMatC= 7.96D-05 BMatP= 3.76D-03
 IDIUse=3 WtCom= 9.97D-01 WtEn= 2.80D-03
 Coeff-Com: -0.200D-01 0.102D+01
 Coeff-En:   0.000D+00 0.100D+01
 Coeff:     -0.200D-01 0.102D+01
 Gap=     0.216 Goal=   None    Shift=    0.000
 RMSDP=6.50D-05 MaxDP=6.79D-03 DE=-4.74D-03 OVMax= 3.70D-03

 Cycle   3  Pass 0  IDiag  1:
 RMSU=  6.37D-05    CP:  9.99D-01  1.04D+00
 E= -388.650482579220     Delta-E=       -0.000025783025 Rises=F Damp=F
 DIIS: error= 3.74D-04 at cycle   3 NSaved=   3.
 NSaved= 3 IEnMin= 3 EnMin= -388.650482579220     IErMin= 2 ErrMin= 2.80D-04
 ErrMax= 3.74D-04  0.00D+00 EMaxC= 1.00D-01 BMatC= 8.59D-05 BMatP= 7.96D-05
 IDIUse=3 WtCom= 9.96D-01 WtEn= 3.74D-03
 Coeff-Com: -0.276D-01 0.533D+00 0.494D+00
 Coeff-En:   0.000D+00 0.377D+00 0.623D+00
 Coeff:     -0.275D-01 0.533D+00 0.495D+00
 Gap=     0.216 Goal=   None    Shift=    0.000
 RMSDP=4.74D-05 MaxDP=5.62D-03 DE=-2.58D-05 OVMax= 3.34D-03

 Cycle   4  Pass 0  IDiag  1:
 RMSU=  2.22D-05    CP:  9.98D-01  1.06D+00  3.59D-01
 E= -388.650537976562     Delta-E=       -0.000055397342 Rises=F Damp=F
 DIIS: error= 1.93D-04 at cycle   4 NSaved=   4.
 NSaved= 4 IEnMin= 4 EnMin= -388.650537976562     IErMin= 4 ErrMin= 1.93D-04
 ErrMax= 1.93D-04  0.00D+00 EMaxC= 1.00D-01 BMatC= 1.71D-05 BMatP= 7.96D-05
 IDIUse=3 WtCom= 9.98D-01 WtEn= 1.93D-03
 Coeff-Com: -0.136D-01 0.206D+00 0.328D+00 0.480D+00
 Coeff-En:   0.000D+00 0.000D+00 0.151D+00 0.849D+00
 Coeff:     -0.136D-01 0.206D+00 0.328D+00 0.480D+00
 Gap=     0.216 Goal=   None    Shift=    0.000
 RMSDP=1.42D-05 MaxDP=1.61D-03 DE=-5.54D-05 OVMax= 1.52D-03

 Cycle   5  Pass 0  IDiag  1:
 RMSU=  6.12D-06    CP:  9.98D-01  1.06D+00  5.15D-01  6.54D-01
 E= -388.650549640311     Delta-E=       -0.000011663749 Rises=F Damp=F
 DIIS: error= 4.77D-05 at cycle   5 NSaved=   5.
 NSaved= 5 IEnMin= 5 EnMin= -388.650549640311     IErMin= 5 ErrMin= 4.77D-05
 ErrMax= 4.77D-05  0.00D+00 EMaxC= 1.00D-01 BMatC= 1.27D-06 BMatP= 1.71D-05
 IDIUse=1 WtCom= 1.00D+00 WtEn= 0.00D+00
 Coeff-Com: -0.352D-02 0.374D-01 0.116D+00 0.272D+00 0.578D+00
 Coeff:     -0.352D-02 0.374D-01 0.116D+00 0.272D+00 0.578D+00
 Gap=     0.216 Goal=   None    Shift=    0.000
 RMSDP=2.87D-06 MaxDP=1.02D-04 DE=-1.17D-05 OVMax= 2.46D-04

 Initial convergence to 1.0D-05 achieved.  Increase integral accuracy.
 Cycle   6  Pass 1  IDiag  1:
 E= -388.650546839779     Delta-E=        0.000002800532 Rises=F Damp=F
 DIIS: error= 7.38D-05 at cycle   1 NSaved=   1.
 NSaved= 1 IEnMin= 1 EnMin= -388.650546839779     IErMin= 1 ErrMin= 7.38D-05
 ErrMax= 7.38D-05  0.00D+00 EMaxC= 1.00D-01 BMatC= 1.71D-06 BMatP= 1.71D-06
 IDIUse=1 WtCom= 1.00D+00 WtEn= 0.00D+00
 Coeff-Com:  0.100D+01
 Coeff:      0.100D+01
 Gap=     0.216 Goal=   None    Shift=    0.000
 RMSDP=2.87D-06 MaxDP=1.02D-04 DE= 2.80D-06 OVMax= 2.29D-04

 Cycle   7  Pass 1  IDiag  1:
 RMSU=  8.77D-05    CP:  1.00D+00
 E= -388.650547739530     Delta-E=       -0.000000899751 Rises=F Damp=F
 DIIS: error= 1.16D-05 at cycle   2 NSaved=   2.
 NSaved= 2 IEnMin= 2 EnMin= -388.650547739530     IErMin= 2 ErrMin= 1.16D-05
 ErrMax= 1.16D-05  0.00D+00 EMaxC= 1.00D-01 BMatC= 7.32D-08 BMatP= 1.71D-06
 IDIUse=1 WtCom= 1.00D+00 WtEn= 0.00D+00
 Coeff-Com:  0.614D-01 0.939D+00
 Coeff:      0.614D-01 0.939D+00
 Gap=     0.216 Goal=   None    Shift=    0.000
 RMSDP=2.15D-06 MaxDP=8.08D-05 DE=-9.00D-07 OVMax= 1.97D-04

 Cycle   8  Pass 1  IDiag  1:
 RMSU=  1.66D-06    CP:  1.00D+00  1.02D+00
 E= -388.650547673150     Delta-E=        0.000000066381 Rises=F Damp=F
 DIIS: error= 1.65D-05 at cycle   3 NSaved=   3.
 NSaved= 3 IEnMin= 2 EnMin= -388.650547739530     IErMin= 2 ErrMin= 1.16D-05
 ErrMax= 1.65D-05  0.00D+00 EMaxC= 1.00D-01 BMatC= 1.47D-07 BMatP= 7.32D-08
 IDIUse=1 WtCom= 1.00D+00 WtEn= 0.00D+00
 Coeff-Com: -0.603D-03 0.588D+00 0.412D+00
 Coeff:     -0.603D-03 0.588D+00 0.412D+00
 Gap=     0.216 Goal=   None    Shift=    0.000
 RMSDP=1.06D-06 MaxDP=8.43D-05 DE= 6.64D-08 OVMax= 1.35D-04

 Cycle   9  Pass 1  IDiag  1:
 RMSU=  5.84D-07    CP:  1.00D+00  1.02D+00  4.79D-01
 E= -388.650547806667     Delta-E=       -0.000000133518 Rises=F Damp=F
 DIIS: error= 3.20D-06 at cycle   4 NSaved=   4.
 NSaved= 4 IEnMin= 4 EnMin= -388.650547806667     IErMin= 4 ErrMin= 3.20D-06
 ErrMax= 3.20D-06  0.00D+00 EMaxC= 1.00D-01 BMatC= 5.26D-09 BMatP= 7.32D-08
 IDIUse=1 WtCom= 1.00D+00 WtEn= 0.00D+00
 Coeff-Com: -0.205D-02 0.355D+00 0.267D+00 0.380D+00
 Coeff:     -0.205D-02 0.355D+00 0.267D+00 0.380D+00
 Gap=     0.216 Goal=   None    Shift=    0.000
 RMSDP=2.22D-07 MaxDP=2.30D-05 DE=-1.34D-07 OVMax= 1.91D-05

 Cycle  10  Pass 1  IDiag  1:
 RMSU=  1.52D-07    CP:  1.00D+00  1.02D+00  5.07D-01  7.42D-01
 E= -388.650547811160     Delta-E=       -0.000000004493 Rises=F Damp=F
 DIIS: error= 2.91D-07 at cycle   5 NSaved=   5.
 NSaved= 5 IEnMin= 5 EnMin= -388.650547811160     IErMin= 5 ErrMin= 2.91D-07
 ErrMax= 2.91D-07  0.00D+00 EMaxC= 1.00D-01 BMatC= 8.88D-11 BMatP= 5.26D-09
 IDIUse=1 WtCom= 1.00D+00 WtEn= 0.00D+00
 Coeff-Com: -0.948D-03 0.126D+00 0.971D-01 0.173D+00 0.605D+00
 Coeff:     -0.948D-03 0.126D+00 0.971D-01 0.173D+00 0.605D+00
 Gap=     0.216 Goal=   None    Shift=    0.000
 RMSDP=3.26D-08 MaxDP=2.22D-06 DE=-4.49D-09 OVMax= 2.97D-06

 Cycle  11  Pass 1  IDiag  1:
 RMSU=  2.84D-08    CP:  1.00D+00  1.02D+00  5.08D-01  7.64D-01  9.59D-01
 E= -388.650547811224     Delta-E=       -0.000000000064 Rises=F Damp=F
 DIIS: error= 2.52D-07 at cycle   6 NSaved=   6.
 NSaved= 6 IEnMin= 6 EnMin= -388.650547811224     IErMin= 6 ErrMin= 2.52D-07
 ErrMax= 2.52D-07  0.00D+00 EMaxC= 1.00D-01 BMatC= 2.44D-11 BMatP= 8.88D-11
 IDIUse=1 WtCom= 1.00D+00 WtEn= 0.00D+00
 Coeff-Com: -0.334D-03 0.341D-01 0.269D-01 0.588D-01 0.362D+00 0.518D+00
 Coeff:     -0.334D-03 0.341D-01 0.269D-01 0.588D-01 0.362D+00 0.518D+00
 Gap=     0.216 Goal=   None    Shift=    0.000
 RMSDP=1.65D-08 MaxDP=1.27D-06 DE=-6.38D-11 OVMax= 2.36D-06

 Cycle  12  Pass 1  IDiag  1:
 RMSU=  1.38D-08    CP:  1.00D+00  1.02D+00  5.11D-01  7.62D-01  9.98D-01
                    CP:  8.96D-01
 E= -388.650547811246     Delta-E=       -0.000000000022 Rises=F Damp=F
 DIIS: error= 8.33D-08 at cycle   7 NSaved=   7.
 NSaved= 7 IEnMin= 7 EnMin= -388.650547811246     IErMin= 7 ErrMin= 8.33D-08
 ErrMax= 8.33D-08  0.00D+00 EMaxC= 1.00D-01 BMatC= 3.45D-12 BMatP= 2.44D-11
 IDIUse=1 WtCom= 1.00D+00 WtEn= 0.00D+00
 Coeff-Com:  0.109D-03-0.194D-01-0.147D-01-0.210D-01-0.197D-02 0.284D+00
 Coeff-Com:  0.773D+00
 Coeff:      0.109D-03-0.194D-01-0.147D-01-0.210D-01-0.197D-02 0.284D+00
 Coeff:      0.773D+00
 Gap=     0.216 Goal=   None    Shift=    0.000
 RMSDP=1.09D-08 MaxDP=8.38D-07 DE=-2.19D-11 OVMax= 1.45D-06

 Cycle  13  Pass 1  IDiag  1:
 RMSU=  7.08D-09    CP:  1.00D+00  1.02D+00  5.10D-01  7.73D-01  1.00D+00
                    CP:  1.02D+00  8.72D-01
 E= -388.650547811255     Delta-E=       -0.000000000009 Rises=F Damp=F
 DIIS: error= 2.04D-08 at cycle   8 NSaved=   8.
 NSaved= 8 IEnMin= 8 EnMin= -388.650547811255     IErMin= 8 ErrMin= 2.04D-08
 ErrMax= 2.04D-08  0.00D+00 EMaxC= 1.00D-01 BMatC= 3.55D-13 BMatP= 3.45D-12
 IDIUse=1 WtCom= 1.00D+00 WtEn= 0.00D+00
 Coeff-Com:  0.822D-04-0.127D-01-0.969D-02-0.151D-01-0.275D-01 0.108D+00
 Coeff-Com:  0.396D+00 0.561D+00
 Coeff:      0.822D-04-0.127D-01-0.969D-02-0.151D-01-0.275D-01 0.108D+00
 Coeff:      0.396D+00 0.561D+00
 Gap=     0.216 Goal=   None    Shift=    0.000
 RMSDP=3.01D-09 MaxDP=3.02D-07 DE=-9.44D-12 OVMax= 2.64D-07

 SCF Done:  E(RB3LYP) =  -388.650547811     A.U. after   13 cycles
            NFock= 13  Conv=0.30D-08     -V/T= 2.0054
 KE= 3.865796278989D+02 PE=-1.765594592647D+03 EE= 5.592001268295D+02
 Leave Link  502 at Tue Jun  4 00:07:49 2024, MaxMem= 13421772800 cpu:             977.5 elap:              30.6
 (Enter /tmpu/scunam/7/gaussian-2016.03/g1/g16/l508.exe)
 QCSCF skips out because SCF is already converged.
 Leave Link  508 at Tue Jun  4 00:07:49 2024, MaxMem= 13421772800 cpu:               0.2 elap:               0.0
 (Enter /tmpu/scunam/7/gaussian-2016.03/g1/g16/l701.exe)
 ... and contract with generalized density number  0.
 Compute integral first derivatives.
   1 Symmetry operations used in ECPInt.
 ECPInt:  NShTT=   12090 NPrTT=   35220 LenC2=   11366 LenP2D=   25713.
 LDataN:  DoStor=T MaxTD1= 7 Len=  274
 Leave Link  701 at Tue Jun  4 00:07:49 2024, MaxMem= 13421772800 cpu:               8.9 elap:               0.3
 (Enter /tmpu/scunam/7/gaussian-2016.03/g1/g16/l702.exe)
 L702 exits ... SP integral derivatives will be done elsewhere.
 Leave Link  702 at Tue Jun  4 00:07:49 2024, MaxMem= 13421772800 cpu:               0.6 elap:               0.0
 (Enter /tmpu/scunam/7/gaussian-2016.03/g1/g16/l703.exe)
 Integral derivatives from FoFJK, PRISM(SPDF).
 Compute integral first derivatives, UseDBF=F ICtDFT=           0.
 Calling FoFJK, ICntrl=      2127 FMM=F ISym2X=0 I1Cent= 0 IOpClX= 0 NMat=1 NMatS=1 NMatT=0.
 FoFJK:  IHMeth= 1 ICntrl=    2127 DoSepK=F KAlg= 0 I1Cent=           0 FoldK=F
 IRaf=         0 NMat=       1 IRICut=       1 DoRegI=T DoRafI=F ISym2E= 0 IDoP0=0 IntGTp=1.
 FoFCou: FMM=F IPFlag=           0 FMFlag=      100000 FMFlg1=         800
         NFxFlg=           0 DoJE=F BraDBF=F KetDBF=F FulRan=T
         wScrn=  0.000000 ICntrl=      2127 IOpCl=  0 I1Cent=           0 NGrid=           0
         NMat0=    1 NMatS0=      1 NMatT0=    0 NMatD0=    1 NMtDS0=    0 NMtDT0=    0
 Symmetry not used in FoFCou.
 Leave Link  703 at Tue Jun  4 00:08:00 2024, MaxMem= 13421772800 cpu:             339.7 elap:              10.7
 (Enter /tmpu/scunam/7/gaussian-2016.03/g1/g16/l716.exe)
 Dipole        =-3.52378786D-01-5.62870469D-01 9.01826854D-01
 ***** Axes restored to original set *****
 -------------------------------------------------------------------
 Center     Atomic                   Forces (Hartrees/Bohr)
 Number     Number              X              Y              Z
 -------------------------------------------------------------------
      1        8          -0.000892943    0.002300418    0.004112962
      2        6          -0.001482845   -0.001015248    0.000287696
      3        6           0.000502836   -0.001257067   -0.001851398
      4        6           0.003036607    0.000184591   -0.000510560
      5        6          -0.001605166   -0.000094277   -0.000094152
      6        6           0.000142749   -0.003384999   -0.005914929
      7        6           0.001035685   -0.001229180   -0.000335842
      8        6           0.001749553    0.000509506    0.000067571
      9        6           0.001047296   -0.000618511   -0.000834242
     10        1           0.000192946    0.000542395    0.000653227
     11        1           0.000352002   -0.000281373   -0.000375346
     12        1          -0.000491030    0.001003869    0.001462347
     13        1          -0.000300441    0.000712363    0.001504196
     14        1           0.000616973    0.000415974    0.000784930
     15        1          -0.000448405    0.000577379   -0.000008005
     16        1          -0.000166819    0.000198155   -0.000467888
     17        1           0.000241015    0.000073375   -0.000065691
     18        1          -0.000846416   -0.000202674    0.000158600
     19        1          -0.000602329    0.000418066   -0.000431182
     20        1          -0.000669084    0.000344306    0.000176222
     21        1          -0.000453132    0.000902788    0.000726224
     22        1          -0.000629741   -0.000272745   -0.000161267
     23        1          -0.000329309    0.000172890    0.001116527
 -------------------------------------------------------------------
 Cartesian Forces:  Max     0.005914929 RMS     0.001281369
 Leave Link  716 at Tue Jun  4 00:08:00 2024, MaxMem= 13421772800 cpu:               0.7 elap:               0.0
 (Enter /tmpu/scunam/7/gaussian-2016.03/g1/g16/l103.exe)

 GradGradGradGradGradGradGradGradGradGradGradGradGradGradGradGradGradGrad
 Berny optimization.
 Using GEDIIS/GDIIS optimizer.
 FormGI is forming the generalized inverse of G from B-inverse, IUseBI=4.
 Internal  Forces:  Max     0.004786935 RMS     0.000778672
 Search for a local minimum.
 Step number   2 out of a maximum of  138
 All quantities printed in internal units (Hartrees-Bohrs-Radians)
 RMS Force = .77867D-03 SwitMx=.10000D-02 MixMth= 2
 Mixed Optimization -- En-DIIS/RFO-DIIS
 Update second derivatives using D2CorX and points    1    2
 DE= -2.33D-03 DEPred=-2.29D-03 R= 1.02D+00
 TightC=F SS=  1.41D+00  RLast= 2.35D-01 DXNew= 5.0454D-01 7.0445D-01
 Trust test= 1.02D+00 RLast= 2.35D-01 DXMaxT set to 5.05D-01
 ITU=  1  0
 Use linear search instead of GDIIS.
     Eigenvalues ---    0.00409   0.00516   0.00596   0.00676   0.00694
     Eigenvalues ---    0.00719   0.00733   0.01300   0.01580   0.02884
     Eigenvalues ---    0.03850   0.04077   0.05046   0.05507   0.06927
     Eigenvalues ---    0.07042   0.07070   0.07257   0.07324   0.07348
     Eigenvalues ---    0.09305   0.09733   0.12905   0.13058   0.15515
     Eigenvalues ---    0.16000   0.16000   0.16000   0.16000   0.16000
     Eigenvalues ---    0.16000   0.16000   0.16000   0.16220   0.21847
     Eigenvalues ---    0.21966   0.22851   0.24944   0.24999   0.25000
     Eigenvalues ---    0.26179   0.29906   0.30526   0.31560   0.31844
     Eigenvalues ---    0.32092   0.32876   0.33936   0.34036   0.34101
     Eigenvalues ---    0.34193   0.34211   0.34242   0.34246   0.34256
     Eigenvalues ---    0.34343   0.34430   0.34481   0.34499   0.34799
     Eigenvalues ---    0.35096   0.57251   0.85439
 RFO step:  Lambda=-3.97840749D-04 EMin= 4.08540760D-03
 Quartic linear search produced a step of  0.08042.
 Iteration  1 RMS(Cart)=  0.04346294 RMS(Int)=  0.00040395
 Iteration  2 RMS(Cart)=  0.00068833 RMS(Int)=  0.00001555
 Iteration  3 RMS(Cart)=  0.00000011 RMS(Int)=  0.00001555
 ITry= 1 IFail=0 DXMaxC= 1.26D-01 DCOld= 1.00D+10 DXMaxT= 5.05D-01 DXLimC= 3.00D+00 Rises=F
 Variable       Old X    -DE/DX   Delta X   Delta X   Delta X     New X
                                 (Linear)    (Quad)   (Total)
    R1        2.29214  -0.00479  -0.00260  -0.00543  -0.00803   2.28411
    R2        2.89814  -0.00105   0.00101  -0.00392  -0.00291   2.89523
    R3        2.85082  -0.00245   0.00099  -0.00829  -0.00730   2.84352
    R4        2.06052  -0.00041  -0.00084  -0.00121  -0.00205   2.05846
    R5        2.06344   0.00041  -0.00084   0.00138   0.00055   2.06399
    R6        2.87406  -0.00071   0.00030  -0.00253  -0.00223   2.87183
    R7        2.06887   0.00095  -0.00022   0.00304   0.00282   2.07169
    R8        2.06752   0.00092  -0.00033   0.00295   0.00262   2.07014
    R9        2.52207   0.00159  -0.00179   0.00324   0.00145   2.52352
   R10        2.05484   0.00017  -0.00029   0.00056   0.00027   2.05511
   R11        2.84782  -0.00096   0.00024  -0.00327  -0.00303   2.84479
   R12        2.84166   0.00077   0.00018   0.00257   0.00275   2.84441
   R13        2.86049   0.00029   0.00105   0.00089   0.00194   2.86243
   R14        2.06846   0.00022  -0.00005   0.00071   0.00065   2.06911
   R15        2.06866  -0.00001  -0.00005  -0.00002  -0.00007   2.06859
   R16        2.06075  -0.00010  -0.00070  -0.00024  -0.00094   2.05981
   R17        2.05885  -0.00085  -0.00051  -0.00261  -0.00313   2.05573
   R18        2.06734   0.00035  -0.00019   0.00113   0.00094   2.06828
   R19        2.06795   0.00024  -0.00008   0.00076   0.00068   2.06863
   R20        2.06430   0.00033  -0.00006   0.00102   0.00096   2.06526
   R21        2.05729  -0.00048  -0.00075  -0.00142  -0.00216   2.05513
   R22        2.06421   0.00032  -0.00005   0.00101   0.00096   2.06518
    A1        1.96746  -0.00099   0.00210  -0.00582  -0.00371   1.96375
    A2        1.90769   0.00005  -0.00162  -0.00185  -0.00350   1.90419
    A3        1.89156   0.00005  -0.00232  -0.00071  -0.00304   1.88852
    A4        1.94762   0.00046   0.00073   0.00237   0.00310   1.95072
    A5        1.90402   0.00052   0.00084   0.00416   0.00501   1.90904
    A6        1.84034  -0.00003   0.00009   0.00237   0.00239   1.84274
    A7        1.99970  -0.00161   0.00289  -0.00559  -0.00273   1.99697
    A8        1.92648   0.00071   0.00029   0.00428   0.00455   1.93103
    A9        1.92492   0.00077   0.00023   0.00555   0.00575   1.93068
   A10        1.87664   0.00063  -0.00043   0.00426   0.00380   1.88045
   A11        1.88192   0.00065   0.00023   0.00527   0.00546   1.88738
   A12        1.84715  -0.00113  -0.00361  -0.01464  -0.01825   1.82890
   A13        2.22553   0.00132  -0.00028   0.00647   0.00618   2.23171
   A14        2.01251  -0.00104   0.00162  -0.00596  -0.00435   2.00815
   A15        2.04510  -0.00028  -0.00134  -0.00054  -0.00188   2.04322
   A16        2.11455  -0.00072   0.00098  -0.00321  -0.00223   2.11231
   A17        2.16782   0.00139  -0.00125   0.00611   0.00485   2.17267
   A18        2.00079  -0.00067   0.00027  -0.00291  -0.00264   1.99815
   A19        2.12740   0.00107  -0.00142   0.00476   0.00329   2.13069
   A20        2.11923   0.00041   0.00059   0.00175   0.00229   2.12152
   A21        2.03654  -0.00148   0.00082  -0.00643  -0.00566   2.03088
   A22        1.93439   0.00044   0.00086   0.00270   0.00356   1.93795
   A23        1.93977  -0.00027   0.00122  -0.00313  -0.00191   1.93785
   A24        1.95076  -0.00019  -0.00092   0.00016  -0.00077   1.95000
   A25        1.86565  -0.00050  -0.00229  -0.00573  -0.00802   1.85763
   A26        1.88401   0.00021   0.00045   0.00357   0.00402   1.88803
   A27        1.88601   0.00031   0.00059   0.00235   0.00295   1.88896
   A28        1.97421   0.00017  -0.00009   0.00282   0.00272   1.97693
   A29        1.92516   0.00063   0.00027   0.00405   0.00430   1.92946
   A30        1.93285  -0.00026   0.00083  -0.00334  -0.00250   1.93034
   A31        1.88049  -0.00000   0.00101   0.00262   0.00361   1.88409
   A32        1.88165   0.00013  -0.00004   0.00127   0.00124   1.88288
   A33        1.86530  -0.00072  -0.00212  -0.00797  -0.01008   1.85522
   A34        1.92414   0.00057   0.00094   0.00277   0.00371   1.92784
   A35        1.91977  -0.00064   0.00038  -0.00223  -0.00186   1.91791
   A36        1.92399   0.00038   0.00092   0.00132   0.00223   1.92622
   A37        1.90803   0.00040   0.00067   0.00486   0.00552   1.91354
   A38        1.87975  -0.00116  -0.00355  -0.01151  -0.01506   1.86469
   A39        1.90763   0.00044   0.00060   0.00472   0.00531   1.91294
    D1        3.12763  -0.00006  -0.00151  -0.01629  -0.01781   3.10982
    D2        1.00638  -0.00026  -0.00317  -0.02115  -0.02433   0.98205
    D3       -1.02857   0.00023   0.00096  -0.00912  -0.00816  -1.03673
    D4       -0.97897  -0.00014  -0.00026  -0.01877  -0.01905  -0.99802
    D5       -3.10022  -0.00034  -0.00192  -0.02362  -0.02557  -3.12579
    D6        1.14802   0.00015   0.00221  -0.01160  -0.00940   1.13862
    D7        1.01833  -0.00011  -0.00236  -0.01733  -0.01967   0.99866
    D8       -1.10292  -0.00032  -0.00402  -0.02218  -0.02619  -1.12911
    D9       -3.13787   0.00018   0.00011  -0.01016  -0.01002   3.13530
   D10        1.68603   0.00032   0.00382   0.04649   0.05031   1.73633
   D11       -1.44480   0.00038   0.00565   0.04981   0.05547  -1.38934
   D12       -0.46855   0.00064   0.00385   0.05149   0.05534  -0.41321
   D13        2.68380   0.00070   0.00568   0.05481   0.06050   2.74431
   D14       -2.49499   0.00009   0.00283   0.04469   0.04750  -2.44748
   D15        0.65737   0.00015   0.00465   0.04801   0.05266   0.71003
   D16       -0.02237   0.00000   0.00049  -0.00434  -0.00385  -0.02622
   D17        3.11481   0.00011   0.00020   0.01505   0.01526   3.13008
   D18        2.12595   0.00029   0.00244   0.00061   0.00304   2.12899
   D19       -1.02006   0.00040   0.00215   0.02000   0.02215  -0.99791
   D20       -2.17265  -0.00039  -0.00187  -0.01170  -0.01358  -2.18623
   D21        0.96454  -0.00028  -0.00216   0.00769   0.00553   0.97007
   D22       -3.12980  -0.00026   0.00317  -0.01027  -0.00710  -3.13691
   D23        0.02048  -0.00023   0.00467  -0.00912  -0.00445   0.01603
   D24        0.00085  -0.00032   0.00130  -0.01367  -0.01236  -0.01151
   D25       -3.13205  -0.00030   0.00280  -0.01252  -0.00971   3.14142
   D26       -2.10764  -0.00032   0.00009  -0.00586  -0.00578  -2.11341
   D27        2.10353   0.00019   0.00161   0.00158   0.00319   2.10671
   D28       -0.00519   0.00012   0.00064   0.00064   0.00128  -0.00391
   D29        1.02605  -0.00034  -0.00127  -0.00687  -0.00814   1.01791
   D30       -1.04597   0.00018   0.00025   0.00057   0.00082  -1.04515
   D31        3.12850   0.00010  -0.00072  -0.00036  -0.00109   3.12741
   D32       -0.06878   0.00026   0.00114   0.01651   0.01766  -0.05111
   D33       -2.17619  -0.00031  -0.00029   0.00831   0.00802  -2.16818
   D34        2.04569   0.00035   0.00164   0.01770   0.01934   2.06503
   D35        3.08100   0.00028   0.00256   0.01759   0.02016   3.10116
   D36        0.97358  -0.00028   0.00113   0.00940   0.01052   0.98409
   D37       -1.08773   0.00038   0.00306   0.01879   0.02184  -1.06588
   D38       -2.11566  -0.00039  -0.00184   0.00185  -0.00000  -2.11566
   D39       -0.01029   0.00007  -0.00018   0.00823   0.00805  -0.00223
   D40        2.09451   0.00045   0.00138   0.01352   0.01490   2.10940
   D41        1.03032  -0.00050  -0.00155  -0.01745  -0.01900   1.01131
   D42        3.13569  -0.00004   0.00011  -0.01107  -0.01095   3.12474
   D43       -1.04270   0.00034   0.00167  -0.00578  -0.00411  -1.04680
         Item               Value     Threshold  Converged?
 Maximum Force            0.004787     0.000450     NO 
 RMS     Force            0.000779     0.000300     NO 
 Maximum Displacement     0.125569     0.001800     NO 
 RMS     Displacement     0.043508     0.001200     NO 
 Predicted change in Energy=-2.181833D-04
 Lowest energy point so far.  Saving SCF results.
 GradGradGradGradGradGradGradGradGradGradGradGradGradGradGradGradGradGrad

 Leave Link  103 at Tue Jun  4 00:08:00 2024, MaxMem= 13421772800 cpu:               2.1 elap:               0.1
 (Enter /tmpu/scunam/7/gaussian-2016.03/g1/g16/l202.exe)
                          Input orientation:                          
 ---------------------------------------------------------------------
 Center     Atomic      Atomic             Coordinates (Angstroms)
 Number     Number       Type             X           Y           Z
 ---------------------------------------------------------------------
      1          8           0        2.763327   -0.521939   -1.011487
      2          6           0        0.038494   -0.705143   -0.309894
      3          6           0        1.049225    0.056921    0.553233
      4          6           0       -1.340441   -0.716686    0.292275
      5          6           0       -2.378609    0.062302   -0.021807
      6          6           0        2.467162    0.058594    0.006464
      7          6           0       -3.697743   -0.078696    0.689694
      8          6           0       -2.356831    1.120922   -1.091606
      9          6           0        3.499998    0.813101    0.817868
     10          1           0        0.037279   -0.282904   -1.314020
     11          1           0        0.392812   -1.731987   -0.423858
     12          1           0        1.082626   -0.358787    1.567099
     13          1           0        0.734415    1.097502    0.687922
     14          1           0       -1.489795   -1.443505    1.087333
     15          1           0       -4.501835   -0.312284   -0.015813
     16          1           0       -3.980256    0.857026    1.182515
     17          1           0       -3.667550   -0.865468    1.443473
     18          1           0       -1.383938    1.233448   -1.565124
     19          1           0       -2.644530    2.092114   -0.676978
     20          1           0       -3.087219    0.892574   -1.874353
     21          1           0        3.552317    0.415154    1.834385
     22          1           0        4.474973    0.731910    0.342955
     23          1           0        3.220715    1.866129    0.904123
 ---------------------------------------------------------------------
                    Distance matrix (angstroms):
                    1          2          3          4          5
     1  O    0.000000
     2  C    2.819665   0.000000
     3  C    2.391981   1.532091   0.000000
     4  C    4.310294   1.504727   2.525286   0.000000
     5  C    5.268805   2.552323   3.475737   1.335389   0.000000
     6  C    1.208701   2.565502   1.519705   3.896227   4.845854
     7  C    6.695962   3.918045   4.750865   2.474236   1.505400
     8  C    5.377865   3.111779   3.929225   2.514951   1.505198
     9  C    2.381503   3.944479   2.578396   5.103562   5.985547
    10  H    2.753181   1.089292   2.150849   2.160200   2.761430
    11  H    2.725595   1.092217   2.141442   2.132568   3.325942
    12  H    3.082285   2.175610   1.096291   2.761254   3.831721
    13  H    3.102751   2.174734   1.095471   2.784393   3.356527
    14  H    4.831499   2.198429   2.997193   1.087515   2.070661
    15  H    7.336069   4.566773   5.592351   3.202011   2.156024
    16  H    7.224341   4.562675   5.131456   3.199643   2.155748
    17  H    6.892099   4.103019   4.887872   2.600544   2.160827
    18  H    4.537368   2.712389   3.433939   2.693483   2.177793
    19  H    6.015820   3.893329   4.393092   3.244912   2.149442
    20  H    6.080648   3.843217   4.868435   3.214846   2.150211
    21  H    3.098328   4.266140   2.834635   5.253403   6.224616
    22  H    2.517218   4.708893   3.497939   5.993333   6.895869
    23  H    3.095422   4.267529   2.848110   5.277257   5.955130
                    6          7          8          9         10
     6  C    0.000000
     7  C    6.204168   0.000000
     8  C    5.060158   2.531829   0.000000
     9  C    1.514731   7.253909   6.167924   0.000000
    10  H    2.786509   4.243460   2.784234   4.211485   0.000000
    11  H    2.773857   4.550385   4.018148   4.204041   1.737422
    12  H    2.127611   4.868287   4.592180   2.788970   3.065838
    13  H    2.132164   4.585572   3.566941   2.783202   2.529683
    14  H    4.368305   2.625996   3.475027   5.482966   3.073344
    15  H    6.978894   1.094928   2.795077   8.123475   4.721203
    16  H    6.602255   1.094652   2.806559   7.489265   4.865461
    17  H    6.368169   1.090002   3.477119   7.388012   4.654987
    18  H    4.322168   3.487065   1.087844   5.450520   2.093379
    19  H    5.543616   2.772989   1.094486   6.451795   3.638493
    20  H    5.923187   2.808993   1.094671   7.116587   3.384998
    21  H    2.155457   7.356465   6.631558   1.092889   4.770246
    22  H    2.144269   8.220134   6.991627   1.087525   4.844435
    23  H    2.154256   7.189811   5.970535   1.092844   4.435401
                   11         12         13         14         15
    11  H    0.000000
    12  H    2.515042   0.000000
    13  H    3.059208   1.736370   0.000000
    14  H    2.431281   2.832692   3.400494   0.000000
    15  H    5.112693   5.804652   5.468186   3.401320   0.000000
    16  H    5.329835   5.221004   4.746638   3.391740   1.753659
    17  H    4.552397   4.778722   4.878669   2.281136   1.769621
    18  H    3.640486   4.293015   3.095500   3.769989   3.809323
    19  H    4.890119   4.993445   3.777496   4.116650   3.109317
    20  H    4.593787   5.549515   4.605664   4.096415   2.628116
    21  H    4.437607   2.601884   3.117779   5.425459   8.295889
    22  H    4.829372   3.767780   3.774180   6.392573   9.044454
    23  H    4.765188   3.156139   2.611363   5.759875   8.076481
                   16         17         18         19         20
    16  H    0.000000
    17  H    1.769991   0.000000
    18  H    3.798958   4.321110   0.000000
    19  H    2.601407   3.780234   1.764994   0.000000
    20  H    3.184842   3.799403   1.764366   1.751736   0.000000
    21  H    7.573628   7.342976   6.049205   6.893479   7.620113
    22  H    8.497730   8.370391   6.182163   7.319681   7.882197
    23  H    7.276659   7.429719   5.263107   6.078819   6.961162
                   21         22         23
    21  H    0.000000
    22  H    1.782131   0.000000
    23  H    1.755185   1.781720   0.000000
 Stoichiometry    C8H14O
 Framework group  C1[X(C8H14O)]
 Deg. of freedom    63
 Full point group                 C1      NOp   1
 RotChk:  IX=0 Diff= 1.69D-01
 Largest Abelian subgroup         C1      NOp   1
 Largest concise Abelian subgroup C1      NOp   1
                         Standard orientation:                         
 ---------------------------------------------------------------------
 Center     Atomic      Atomic             Coordinates (Angstroms)
 Number     Number       Type             X           Y           Z
 ---------------------------------------------------------------------
      1          8           0        2.763126    0.867114   -0.859707
      2          6           0        0.051257    0.096081   -0.817468
      3          6           0        1.080070   -0.501983    0.147501
      4          6           0       -1.316293   -0.508602   -0.649035
      5          6           0       -2.357815   -0.006757    0.019281
      6          6           0        2.487613    0.047423   -0.015222
      7          6           0       -3.663926   -0.751599    0.093540
      8          6           0       -2.352782    1.316763    0.736141
      9          6           0        3.537546   -0.502733    0.927847
     10          1           0        0.032647    1.178079   -0.693003
     11          1           0        0.400376   -0.075871   -1.838001
     12          1           0        1.131060   -1.590955    0.031773
     13          1           0        0.770877   -0.345409    1.186703
     14          1           0       -1.453003   -1.477713   -1.123190
     15          1           0       -4.481657   -0.153425   -0.321635
     16          1           0       -3.934489   -0.967590    1.132003
     17          1           0       -3.622063   -1.694814   -0.451160
     18          1           0       -1.388518    1.819316    0.703901
     19          1           0       -2.629878    1.185668    1.786823
     20          1           0       -3.098241    1.991799    0.303796
     21          1           0        3.607552   -1.588957    0.829759
     22          1           0        4.503296   -0.053019    0.709224
     23          1           0        3.263012   -0.295580    1.965163
 ---------------------------------------------------------------------
 Rotational constants (GHZ):           3.9081718           0.5945032           0.5861523
 Leave Link  202 at Tue Jun  4 00:08:00 2024, MaxMem= 13421772800 cpu:               2.7 elap:               0.1
 (Enter /tmpu/scunam/7/gaussian-2016.03/g1/g16/l301.exe)
 Standard basis: def2TZVP (5D, 7F)
 Ernie: Thresh=  0.10000D-02 Tol=  0.10000D-05 Strict=F.
 There are   408 symmetry adapted cartesian basis functions of A   symmetry.
 There are   363 symmetry adapted basis functions of A   symmetry.
   363 basis functions,   571 primitive gaussians,   408 cartesian basis functions
    35 alpha electrons       35 beta electrons
       nuclear repulsion energy       430.9465382937 Hartrees.
 IExCor=  402 DFT=T Ex+Corr=B3LYP ExCW=0 ScaHFX=  0.200000
 ScaDFX=  0.800000  0.720000  1.000000  0.810000 ScalE2=  1.000000  1.000000
 IRadAn=      5 IRanWt=     -1 IRanGd=            0 ICorTp=0 IEmpDi=  4
 NAtoms=   23 NActive=   23 NUniq=   23 SFac= 1.00D+00 NAtFMM=   60 NAOKFM=F Big=F
 Integral buffers will be    131072 words long.
 Raffenetti 2 integral format.
 Two-electron integral symmetry is turned on.
 Leave Link  301 at Tue Jun  4 00:08:00 2024, MaxMem= 13421772800 cpu:               1.9 elap:               0.1
 (Enter /tmpu/scunam/7/gaussian-2016.03/g1/g16/l302.exe)
 NPDir=0 NMtPBC=     1 NCelOv=     1 NCel=       1 NClECP=     1 NCelD=      1
         NCelK=      1 NCelE2=     1 NClLst=     1 CellRange=     0.0.
 One-electron integrals computed using PRISM.
 One-electron integral symmetry used in STVInt
   1 Symmetry operations used in ECPInt.
 ECPInt:  NShTT=   12090 NPrTT=   35220 LenC2=   11354 LenP2D=   25681.
 LDataN:  DoStor=T MaxTD1= 6 Len=  172
 NBasis=   363 RedAO= T EigKep=  7.38D-05  NBF=   363
 NBsUse=   363 1.00D-06 EigRej= -1.00D+00 NBFU=   363
 Precomputing XC quadrature grid using
 IXCGrd= 4 IRadAn=           5 IRanWt=          -1 IRanGd=           0 AccXCQ= 0.00D+00.
 Generated NRdTot=       0 NPtTot=           0 NUsed=           0 NTot=          32
 NSgBfM=   406   406   406   406   406 MxSgAt=    23 MxSgA2=    23.
 Leave Link  302 at Tue Jun  4 00:08:01 2024, MaxMem= 13421772800 cpu:              14.0 elap:               0.5
 (Enter /tmpu/scunam/7/gaussian-2016.03/g1/g16/l303.exe)
 DipDrv:  MaxL=1.
 Leave Link  303 at Tue Jun  4 00:08:01 2024, MaxMem= 13421772800 cpu:               4.3 elap:               0.2
 (Enter /tmpu/scunam/7/gaussian-2016.03/g1/g16/l401.exe)
 Initial guess from the checkpoint file:  "S36.chk"
 B after Tr=    -0.000000   -0.000000    0.000000
         Rot=    0.998177   -0.060297    0.000647   -0.002359 Ang=  -6.92 deg.
 Guess basis will be translated and rotated to current coordinates.
 JPrj=2 DoOrth=T DoCkMO=T.
 Generating alternative initial guess.
 ExpMin= 9.52D-02 ExpMax= 2.70D+04 ExpMxC= 9.22D+02 IAcc=2 IRadAn=         4 AccDes= 0.00D+00
 Harris functional with IExCor=  402 and IRadAn=       4 diagonalized for initial guess.
 HarFok:  IExCor=  402 AccDes= 0.00D+00 IRadAn=         4 IDoV= 1 UseB2=F ITyADJ=14
 ICtDFT=  3500011 ScaDFX=  1.000000  1.000000  1.000000  1.000000
 FoFCou: FMM=F IPFlag=           0 FMFlag=      100000 FMFlg1=           0
         NFxFlg=           0 DoJE=T BraDBF=F KetDBF=T FulRan=T
         wScrn=  0.000000 ICntrl=       500 IOpCl=  0 I1Cent=   200000004 NGrid=           0
         NMat0=    1 NMatS0=      1 NMatT0=    0 NMatD0=    1 NMtDS0=    0 NMtDT0=    0
 Petite list used in FoFCou.
 Harris En= -388.761875441015    
 Leave Link  401 at Tue Jun  4 00:08:02 2024, MaxMem= 13421772800 cpu:              27.2 elap:               0.9
 (Enter /tmpu/scunam/7/gaussian-2016.03/g1/g16/l502.exe)
 Integral symmetry usage will be decided dynamically.
 Closed shell SCF:
 Using DIIS extrapolation, IDIIS=  1040.
 NGot= 13421772800 LenX= 13421422965 LenY= 13421256060
 Requested convergence on RMS density matrix=1.00D-08 within 128 cycles.
 Requested convergence on MAX density matrix=1.00D-06.
 Requested convergence on             energy=1.00D-06.
 No special actions if energy rises.
 Fock matrices will be formed incrementally for  20 cycles.
 Integral accuracy reduced to 1.0D-05 until final iterations.

 Cycle   1  Pass 0  IDiag  1:
 FoFJK:  IHMeth= 1 ICntrl=       0 DoSepK=F KAlg= 0 I1Cent=           0 FoldK=F
 IRaf= 890000000 NMat=       1 IRICut=       1 DoRegI=T DoRafI=F ISym2E= 0 IDoP0=0 IntGTp=1.
 FoFCou: FMM=F IPFlag=           0 FMFlag=      100000 FMFlg1=           0
         NFxFlg=           0 DoJE=F BraDBF=F KetDBF=F FulRan=T
         wScrn=  0.000000 ICntrl=         0 IOpCl=  0 I1Cent=           0 NGrid=           0
         NMat0=    1 NMatS0=      1 NMatT0=    0 NMatD0=    1 NMtDS0=    0 NMtDT0=    0
 Symmetry not used in FoFCou.
 E= -388.648989615248    
 DIIS: error= 1.55D-03 at cycle   1 NSaved=   1.
 NSaved= 1 IEnMin= 1 EnMin= -388.648989615248     IErMin= 1 ErrMin= 1.55D-03
 ErrMax= 1.55D-03  0.00D+00 EMaxC= 1.00D-01 BMatC= 1.39D-03 BMatP= 1.39D-03
 IDIUse=3 WtCom= 9.85D-01 WtEn= 1.55D-02
 Coeff-Com:  0.100D+01
 Coeff-En:   0.100D+01
 Coeff:      0.100D+01
 Gap=     0.600 Goal=   None    Shift=    0.000
 GapD=    0.600 DampG=2.000 DampE=1.000 DampFc=2.0000 IDamp=-1.
 RMSDP=1.62D-04 MaxDP=5.17D-03              OVMax= 1.04D-02

 Cycle   2  Pass 0  IDiag  1:
 RMSU=  1.62D-04    CP:  9.99D-01
 E= -388.650774722865     Delta-E=       -0.001785107618 Rises=F Damp=F
 DIIS: error= 1.95D-04 at cycle   2 NSaved=   2.
 NSaved= 2 IEnMin= 2 EnMin= -388.650774722865     IErMin= 2 ErrMin= 1.95D-04
 ErrMax= 1.95D-04  0.00D+00 EMaxC= 1.00D-01 BMatC= 2.23D-05 BMatP= 1.39D-03
 IDIUse=3 WtCom= 9.98D-01 WtEn= 1.95D-03
 Coeff-Com: -0.345D-01 0.103D+01
 Coeff-En:   0.000D+00 0.100D+01
 Coeff:     -0.344D-01 0.103D+01
 Gap=     0.216 Goal=   None    Shift=    0.000
 RMSDP=3.83D-05 MaxDP=3.80D-03 DE=-1.79D-03 OVMax= 2.76D-03

 Cycle   3  Pass 0  IDiag  1:
 RMSU=  3.79D-05    CP:  9.99D-01  1.01D+00
 E= -388.650773674295     Delta-E=        0.000001048571 Rises=F Damp=F
 DIIS: error= 3.54D-04 at cycle   3 NSaved=   3.
 NSaved= 3 IEnMin= 2 EnMin= -388.650774722865     IErMin= 2 ErrMin= 1.95D-04
 ErrMax= 3.54D-04  0.00D+00 EMaxC= 1.00D-01 BMatC= 4.69D-05 BMatP= 2.23D-05
 IDIUse=3 WtCom= 3.47D-01 WtEn= 6.53D-01
 Coeff-Com: -0.336D-01 0.642D+00 0.391D+00
 Coeff-En:   0.000D+00 0.511D+00 0.489D+00
 Coeff:     -0.117D-01 0.557D+00 0.455D+00
 Gap=     0.216 Goal=   None    Shift=    0.000
 RMSDP=3.39D-05 MaxDP=4.02D-03 DE= 1.05D-06 OVMax= 2.89D-03

 Cycle   4  Pass 0  IDiag  1:
 RMSU=  1.59D-05    CP:  9.99D-01  1.05D+00  2.51D-01
 E= -388.650800014242     Delta-E=       -0.000026339948 Rises=F Damp=F
 DIIS: error= 1.62D-04 at cycle   4 NSaved=   4.
 NSaved= 4 IEnMin= 4 EnMin= -388.650800014242     IErMin= 4 ErrMin= 1.62D-04
 ErrMax= 1.62D-04  0.00D+00 EMaxC= 1.00D-01 BMatC= 1.05D-05 BMatP= 2.23D-05
 IDIUse=3 WtCom= 9.98D-01 WtEn= 1.62D-03
 Coeff-Com: -0.113D-01 0.152D+00 0.322D+00 0.537D+00
 Coeff-En:   0.000D+00 0.000D+00 0.228D+00 0.772D+00
 Coeff:     -0.113D-01 0.152D+00 0.322D+00 0.537D+00
 Gap=     0.216 Goal=   None    Shift=    0.000
 RMSDP=9.70D-06 MaxDP=1.05D-03 DE=-2.63D-05 OVMax= 1.02D-03

 Cycle   5  Pass 0  IDiag  1:
 RMSU=  3.29D-06    CP:  9.99D-01  1.05D+00  4.48D-01  7.02D-01
 E= -388.650807694046     Delta-E=       -0.000007679804 Rises=F Damp=F
 DIIS: error= 2.10D-05 at cycle   5 NSaved=   5.
 NSaved= 5 IEnMin= 5 EnMin= -388.650807694046     IErMin= 5 ErrMin= 2.10D-05
 ErrMax= 2.10D-05  0.00D+00 EMaxC= 1.00D-01 BMatC= 1.63D-07 BMatP= 1.05D-05
 IDIUse=1 WtCom= 1.00D+00 WtEn= 0.00D+00
 Coeff-Com: -0.833D-03-0.953D-02 0.893D-01 0.223D+00 0.698D+00
 Coeff:     -0.833D-03-0.953D-02 0.893D-01 0.223D+00 0.698D+00
 Gap=     0.216 Goal=   None    Shift=    0.000
 RMSDP=1.68D-06 MaxDP=1.15D-04 DE=-7.68D-06 OVMax= 1.50D-04

 Initial convergence to 1.0D-05 achieved.  Increase integral accuracy.
 Cycle   6  Pass 1  IDiag  1:
 E= -388.650810301683     Delta-E=       -0.000002607637 Rises=F Damp=F
 DIIS: error= 8.38D-05 at cycle   1 NSaved=   1.
 NSaved= 1 IEnMin= 1 EnMin= -388.650810301683     IErMin= 1 ErrMin= 8.38D-05
 ErrMax= 8.38D-05  0.00D+00 EMaxC= 1.00D-01 BMatC= 1.74D-06 BMatP= 1.74D-06
 IDIUse=1 WtCom= 1.00D+00 WtEn= 0.00D+00
 Coeff-Com:  0.100D+01
 Coeff:      0.100D+01
 Gap=     0.216 Goal=   None    Shift=    0.000
 RMSDP=1.68D-06 MaxDP=1.15D-04 DE=-2.61D-06 OVMax= 2.29D-04

 Cycle   7  Pass 1  IDiag  1:
 RMSU=  9.24D-05    CP:  1.00D+00
 E= -388.650811267787     Delta-E=       -0.000000966104 Rises=F Damp=F
 DIIS: error= 6.88D-06 at cycle   2 NSaved=   2.
 NSaved= 2 IEnMin= 2 EnMin= -388.650811267787     IErMin= 2 ErrMin= 6.88D-06
 ErrMax= 6.88D-06  0.00D+00 EMaxC= 1.00D-01 BMatC= 2.50D-08 BMatP= 1.74D-06
 IDIUse=1 WtCom= 1.00D+00 WtEn= 0.00D+00
 Coeff-Com:  0.179D-01 0.982D+00
 Coeff:      0.179D-01 0.982D+00
 Gap=     0.216 Goal=   None    Shift=    0.000
 RMSDP=2.15D-06 MaxDP=9.33D-05 DE=-9.66D-07 OVMax= 1.60D-04

 Cycle   8  Pass 1  IDiag  1:
 RMSU=  1.40D-06    CP:  1.00D+00  1.02D+00
 E= -388.650811232815     Delta-E=        0.000000034972 Rises=F Damp=F
 DIIS: error= 1.29D-05 at cycle   3 NSaved=   3.
 NSaved= 3 IEnMin= 2 EnMin= -388.650811267787     IErMin= 2 ErrMin= 6.88D-06
 ErrMax= 1.29D-05  0.00D+00 EMaxC= 1.00D-01 BMatC= 6.00D-08 BMatP= 2.50D-08
 IDIUse=1 WtCom= 1.00D+00 WtEn= 0.00D+00
 Coeff-Com: -0.260D-02 0.611D+00 0.391D+00
 Coeff:     -0.260D-02 0.611D+00 0.391D+00
 Gap=     0.216 Goal=   None    Shift=    0.000
 RMSDP=5.79D-07 MaxDP=2.99D-05 DE= 3.50D-08 OVMax= 1.18D-04

 Cycle   9  Pass 1  IDiag  1:
 RMSU=  3.82D-07    CP:  1.00D+00  1.02D+00  6.91D-01
 E= -388.650811291995     Delta-E=       -0.000000059180 Rises=F Damp=F
 DIIS: error= 2.52D-06 at cycle   4 NSaved=   4.
 NSaved= 4 IEnMin= 4 EnMin= -388.650811291995     IErMin= 4 ErrMin= 2.52D-06
 ErrMax= 2.52D-06  0.00D+00 EMaxC= 1.00D-01 BMatC= 1.70D-09 BMatP= 2.50D-08
 IDIUse=1 WtCom= 1.00D+00 WtEn= 0.00D+00
 Coeff-Com: -0.222D-02 0.344D+00 0.240D+00 0.419D+00
 Coeff:     -0.222D-02 0.344D+00 0.240D+00 0.419D+00
 Gap=     0.216 Goal=   None    Shift=    0.000
 RMSDP=1.20D-07 MaxDP=1.03D-05 DE=-5.92D-08 OVMax= 1.58D-05

 Cycle  10  Pass 1  IDiag  1:
 RMSU=  1.05D-07    CP:  1.00D+00  1.02D+00  6.59D-01  9.12D-01
 E= -388.650811293639     Delta-E=       -0.000000001644 Rises=F Damp=F
 DIIS: error= 1.23D-07 at cycle   5 NSaved=   5.
 NSaved= 5 IEnMin= 5 EnMin= -388.650811293639     IErMin= 5 ErrMin= 1.23D-07
 ErrMax= 1.23D-07  0.00D+00 EMaxC= 1.00D-01 BMatC= 1.22D-11 BMatP= 1.70D-09
 IDIUse=1 WtCom= 1.00D+00 WtEn= 0.00D+00
 Coeff-Com: -0.539D-03 0.725D-01 0.517D-01 0.118D+00 0.758D+00
 Coeff:     -0.539D-03 0.725D-01 0.517D-01 0.118D+00 0.758D+00
 Gap=     0.216 Goal=   None    Shift=    0.000
 RMSDP=2.35D-08 MaxDP=1.54D-06 DE=-1.64D-09 OVMax= 1.94D-06

 Cycle  11  Pass 1  IDiag  1:
 RMSU=  1.59D-08    CP:  1.00D+00  1.02D+00  6.67D-01  9.35D-01  9.68D-01
 E= -388.650811293650     Delta-E=       -0.000000000010 Rises=F Damp=F
 DIIS: error= 1.15D-07 at cycle   6 NSaved=   6.
 NSaved= 6 IEnMin= 6 EnMin= -388.650811293650     IErMin= 6 ErrMin= 1.15D-07
 ErrMax= 1.15D-07  0.00D+00 EMaxC= 1.00D-01 BMatC= 6.56D-12 BMatP= 1.22D-11
 IDIUse=1 WtCom= 1.00D+00 WtEn= 0.00D+00
 Coeff-Com: -0.660D-04 0.405D-02 0.355D-02 0.211D-01 0.437D+00 0.535D+00
 Coeff:     -0.660D-04 0.405D-02 0.355D-02 0.211D-01 0.437D+00 0.535D+00
 Gap=     0.216 Goal=   None    Shift=    0.000
 RMSDP=1.08D-08 MaxDP=9.97D-07 DE=-1.05D-11 OVMax= 1.07D-06

 Cycle  12  Pass 1  IDiag  1:
 RMSU=  7.29D-09    CP:  1.00D+00  1.02D+00  6.66D-01  9.42D-01  1.03D+00
                    CP:  8.70D-01
 E= -388.650811293653     Delta-E=       -0.000000000003 Rises=F Damp=F
 DIIS: error= 6.77D-08 at cycle   7 NSaved=   7.
 NSaved= 7 IEnMin= 7 EnMin= -388.650811293653     IErMin= 7 ErrMin= 6.77D-08
 ErrMax= 6.77D-08  0.00D+00 EMaxC= 1.00D-01 BMatC= 1.99D-12 BMatP= 6.56D-12
 IDIUse=1 WtCom= 1.00D+00 WtEn= 0.00D+00
 Coeff-Com:  0.104D-03-0.172D-01-0.118D-01-0.190D-01 0.802D-01 0.383D+00
 Coeff-Com:  0.585D+00
 Coeff:      0.104D-03-0.172D-01-0.118D-01-0.190D-01 0.802D-01 0.383D+00
 Coeff:      0.585D+00
 Gap=     0.216 Goal=   None    Shift=    0.000
 RMSDP=6.27D-09 MaxDP=5.83D-07 DE=-3.07D-12 OVMax= 5.95D-07

 SCF Done:  E(RB3LYP) =  -388.650811294     A.U. after   12 cycles
            NFock= 12  Conv=0.63D-08     -V/T= 2.0053
 KE= 3.866000362551D+02 PE=-1.765168610022D+03 EE= 5.589712241800D+02
 Leave Link  502 at Tue Jun  4 00:08:29 2024, MaxMem= 13421772800 cpu:             881.0 elap:              27.6
 (Enter /tmpu/scunam/7/gaussian-2016.03/g1/g16/l508.exe)
 QCSCF skips out because SCF is already converged.
 Leave Link  508 at Tue Jun  4 00:08:29 2024, MaxMem= 13421772800 cpu:               0.3 elap:               0.0
 (Enter /tmpu/scunam/7/gaussian-2016.03/g1/g16/l701.exe)
 ... and contract with generalized density number  0.
 Compute integral first derivatives.
   1 Symmetry operations used in ECPInt.
 ECPInt:  NShTT=   12090 NPrTT=   35220 LenC2=   11354 LenP2D=   25681.
 LDataN:  DoStor=T MaxTD1= 7 Len=  274
 Leave Link  701 at Tue Jun  4 00:08:30 2024, MaxMem= 13421772800 cpu:               9.8 elap:               0.3
 (Enter /tmpu/scunam/7/gaussian-2016.03/g1/g16/l702.exe)
 L702 exits ... SP integral derivatives will be done elsewhere.
 Leave Link  702 at Tue Jun  4 00:08:30 2024, MaxMem= 13421772800 cpu:               1.7 elap:               0.1
 (Enter /tmpu/scunam/7/gaussian-2016.03/g1/g16/l703.exe)
 Integral derivatives from FoFJK, PRISM(SPDF).
 Compute integral first derivatives, UseDBF=F ICtDFT=           0.
 Calling FoFJK, ICntrl=      2127 FMM=F ISym2X=0 I1Cent= 0 IOpClX= 0 NMat=1 NMatS=1 NMatT=0.
 FoFJK:  IHMeth= 1 ICntrl=    2127 DoSepK=F KAlg= 0 I1Cent=           0 FoldK=F
 IRaf=         0 NMat=       1 IRICut=       1 DoRegI=T DoRafI=F ISym2E= 0 IDoP0=0 IntGTp=1.
 FoFCou: FMM=F IPFlag=           0 FMFlag=      100000 FMFlg1=         800
         NFxFlg=           0 DoJE=F BraDBF=F KetDBF=F FulRan=T
         wScrn=  0.000000 ICntrl=      2127 IOpCl=  0 I1Cent=           0 NGrid=           0
         NMat0=    1 NMatS0=      1 NMatT0=    0 NMatD0=    1 NMtDS0=    0 NMtDT0=    0
 Symmetry not used in FoFCou.
 Leave Link  703 at Tue Jun  4 00:08:40 2024, MaxMem= 13421772800 cpu:             334.6 elap:              10.5
 (Enter /tmpu/scunam/7/gaussian-2016.03/g1/g16/l716.exe)
 Dipole        =-3.46343512D-01-6.71047625D-01 8.18772768D-01
 ***** Axes restored to original set *****
 -------------------------------------------------------------------
 Center     Atomic                   Forces (Hartrees/Bohr)
 Number     Number              X              Y              Z
 -------------------------------------------------------------------
      1        8           0.000378658    0.000050284   -0.001438701
      2        6          -0.000556557   -0.000121303    0.000605981
      3        6          -0.000268958    0.000191957   -0.000104589
      4        6           0.001254849    0.000405838   -0.000278996
      5        6          -0.000862195    0.000031976   -0.000988644
      6        6          -0.000301416   -0.001455785    0.001920263
      7        6           0.000225440   -0.000128507    0.000003064
      8        6           0.000023158   -0.000185707    0.000166399
      9        6           0.000060766    0.000596816   -0.000240877
     10        1          -0.000065253    0.000477897   -0.000110274
     11        1          -0.000064494   -0.000334969   -0.000426393
     12        1           0.000094719    0.000013323    0.000231144
     13        1          -0.000132969    0.000256400    0.000009324
     14        1           0.000289639    0.000110501    0.000496708
     15        1           0.000068397   -0.000051023   -0.000098220
     16        1          -0.000046729    0.000179061    0.000112417
     17        1          -0.000129171   -0.000048597    0.000123713
     18        1           0.000153857    0.000001792   -0.000088002
     19        1           0.000096407    0.000057714    0.000195763
     20        1          -0.000207912   -0.000096759   -0.000002433
     21        1          -0.000160507   -0.000156494   -0.000029644
     22        1           0.000181841    0.000042597   -0.000057901
     23        1          -0.000031570    0.000162988   -0.000000101
 -------------------------------------------------------------------
 Cartesian Forces:  Max     0.001920263 RMS     0.000456738
 Leave Link  716 at Tue Jun  4 00:08:41 2024, MaxMem= 13421772800 cpu:               1.8 elap:               0.1
 (Enter /tmpu/scunam/7/gaussian-2016.03/g1/g16/l103.exe)

 GradGradGradGradGradGradGradGradGradGradGradGradGradGradGradGradGradGrad
 Berny optimization.
 Using GEDIIS/GDIIS optimizer.
 FormGI is forming the generalized inverse of G from B-inverse, IUseBI=4.
 Internal  Forces:  Max     0.001280409 RMS     0.000245498
 Search for a local minimum.
 Step number   3 out of a maximum of  138
 All quantities printed in internal units (Hartrees-Bohrs-Radians)
 RMS Force = .24550D-03 SwitMx=.10000D-02 MixMth= 2
 Mixed Optimization -- En-DIIS/RFO-DIIS
 Swapping is turned off.
 Update second derivatives using D2CorX and points    1    2    3
 DE= -2.63D-04 DEPred=-2.18D-04 R= 1.21D+00
 TightC=F SS=  1.41D+00  RLast= 1.61D-01 DXNew= 8.4853D-01 4.8327D-01
 Trust test= 1.21D+00 RLast= 1.61D-01 DXMaxT set to 5.05D-01
 ITU=  1  1  0
     Eigenvalues ---    0.00312   0.00450   0.00517   0.00676   0.00694
     Eigenvalues ---    0.00731   0.00776   0.01309   0.01587   0.02917
     Eigenvalues ---    0.03819   0.04109   0.05296   0.05524   0.06922
     Eigenvalues ---    0.07057   0.07197   0.07282   0.07322   0.07348
     Eigenvalues ---    0.09373   0.09748   0.12876   0.13071   0.15904
     Eigenvalues ---    0.16000   0.16000   0.16000   0.16000   0.16000
     Eigenvalues ---    0.16000   0.16000   0.16213   0.16661   0.21815
     Eigenvalues ---    0.21948   0.22758   0.24973   0.24999   0.25080
     Eigenvalues ---    0.26084   0.29912   0.30581   0.31412   0.31868
     Eigenvalues ---    0.32227   0.32672   0.34009   0.34095   0.34108
     Eigenvalues ---    0.34186   0.34211   0.34246   0.34254   0.34274
     Eigenvalues ---    0.34364   0.34472   0.34491   0.34591   0.34709
     Eigenvalues ---    0.34985   0.57065   0.93592
 En-DIIS/RFO-DIIS/Sim-DIIS IScMMF=       -3 using points:     3    2
 RFO step:  Lambda=-3.68556701D-04.
 NNeg= 0 NGDIIS= 2 SimSw=  2.50D-03 Rises=F DC= -2.63D-04 SmlDif=  1.00D-05
 NRisDI= 0 DoIntr=F SqrtH=F CThrHd= 10.0 CDAdj=  3.0
 RMS Error=  0.2975972307D-01 NUsed= 2 OKEnD=T EnDIS=F
 InvSVX:  RCond= 5.29D-03 Info=           0 Equed=N FErr=  1.13D-14 BErr=  4.46D-17
 DidBck=F Rises=F RFO-DIIS coefs:    2.49044   -1.49044
 Iteration  1 RMS(Cart)=  0.06892459 RMS(Int)=  0.00123883
 Iteration  2 RMS(Cart)=  0.00191793 RMS(Int)=  0.00019123
 Iteration  3 RMS(Cart)=  0.00000128 RMS(Int)=  0.00019123
 Iteration  4 RMS(Cart)=  0.00000000 RMS(Int)=  0.00019123
 ITry= 1 IFail=0 DXMaxC= 2.25D-01 DCOld= 1.00D+10 DXMaxT= 5.05D-01 DXLimC= 3.00D+00 Rises=F
 Variable       Old X    -DE/DX   Delta X   Delta X   Delta X     New X
                                 (Linear)    (Quad)   (Total)
    R1        2.28411   0.00128  -0.01197   0.00542  -0.00655   2.27756
    R2        2.89523  -0.00010  -0.00433   0.00237  -0.00197   2.89326
    R3        2.84352  -0.00094  -0.01087   0.00210  -0.00877   2.83475
    R4        2.05846   0.00029  -0.00306   0.00187  -0.00119   2.05727
    R5        2.06399   0.00034   0.00082   0.00026   0.00107   2.06506
    R6        2.87183   0.00006  -0.00333   0.00207  -0.00126   2.87056
    R7        2.07169   0.00021   0.00420  -0.00134   0.00286   2.07455
    R8        2.07014   0.00028   0.00390  -0.00101   0.00289   2.07303
    R9        2.52352   0.00052   0.00216  -0.00119   0.00097   2.52449
   R10        2.05511   0.00025   0.00040   0.00051   0.00091   2.05602
   R11        2.84479  -0.00003  -0.00451   0.00218  -0.00234   2.84245
   R12        2.84441  -0.00035   0.00410  -0.00319   0.00091   2.84532
   R13        2.86243   0.00018   0.00289   0.00020   0.00309   2.86551
   R14        2.06911   0.00002   0.00097  -0.00041   0.00057   2.06968
   R15        2.06859   0.00022  -0.00011   0.00083   0.00072   2.06932
   R16        2.05981   0.00012  -0.00140   0.00056  -0.00084   2.05896
   R17        2.05573   0.00018  -0.00466   0.00245  -0.00221   2.05351
   R18        2.06828   0.00010   0.00140  -0.00043   0.00097   2.06925
   R19        2.06863   0.00016   0.00102   0.00007   0.00108   2.06971
   R20        2.06526   0.00002   0.00143  -0.00064   0.00079   2.06605
   R21        2.05513   0.00019  -0.00323   0.00163  -0.00160   2.05353
   R22        2.06518   0.00017   0.00143  -0.00009   0.00134   2.06651
    A1        1.96375  -0.00027  -0.00553   0.00245  -0.00307   1.96068
    A2        1.90419   0.00014  -0.00522   0.00244  -0.00278   1.90141
    A3        1.88852   0.00011  -0.00454   0.00115  -0.00337   1.88514
    A4        1.95072   0.00004   0.00462  -0.00172   0.00287   1.95359
    A5        1.90904   0.00003   0.00747  -0.00327   0.00417   1.91321
    A6        1.84274  -0.00004   0.00357  -0.00121   0.00231   1.84505
    A7        1.99697  -0.00016  -0.00408   0.00317  -0.00093   1.99604
    A8        1.93103   0.00018   0.00678  -0.00155   0.00524   1.93628
    A9        1.93068  -0.00004   0.00857  -0.00417   0.00438   1.93506
   A10        1.88045  -0.00009   0.00567  -0.00447   0.00120   1.88164
   A11        1.88738   0.00015   0.00814  -0.00219   0.00593   1.89330
   A12        1.82890  -0.00004  -0.02720   0.00979  -0.01738   1.81152
   A13        2.23171   0.00040   0.00921  -0.00217   0.00703   2.23874
   A14        2.00815  -0.00040  -0.00649   0.00152  -0.00497   2.00318
   A15        2.04322  -0.00000  -0.00281   0.00070  -0.00212   2.04110
   A16        2.11231  -0.00009  -0.00333   0.00189  -0.00144   2.11087
   A17        2.17267   0.00009   0.00723  -0.00388   0.00335   2.17602
   A18        1.99815  -0.00001  -0.00393   0.00204  -0.00190   1.99626
   A19        2.13069   0.00036   0.00490  -0.00108   0.00270   2.13339
   A20        2.12152  -0.00014   0.00341  -0.00140   0.00089   2.12241
   A21        2.03088  -0.00021  -0.00844   0.00395  -0.00562   2.02526
   A22        1.93795  -0.00021   0.00531  -0.00374   0.00156   1.93951
   A23        1.93785  -0.00000  -0.00285   0.00231  -0.00054   1.93732
   A24        1.95000   0.00024  -0.00114   0.00187   0.00072   1.95071
   A25        1.85763   0.00008  -0.01196   0.00424  -0.00772   1.84991
   A26        1.88803  -0.00002   0.00599  -0.00275   0.00323   1.89126
   A27        1.88896  -0.00008   0.00439  -0.00192   0.00247   1.89143
   A28        1.97693   0.00007   0.00405  -0.00136   0.00266   1.97959
   A29        1.92946  -0.00019   0.00641  -0.00461   0.00177   1.93123
   A30        1.93034  -0.00015  -0.00373   0.00140  -0.00233   1.92801
   A31        1.88409   0.00004   0.00538  -0.00174   0.00359   1.88768
   A32        1.88288   0.00010   0.00184   0.00036   0.00220   1.88509
   A33        1.85522   0.00015  -0.01503   0.00652  -0.00852   1.84670
   A34        1.92784  -0.00036   0.00552  -0.00496   0.00056   1.92840
   A35        1.91791   0.00014  -0.00277   0.00290   0.00012   1.91803
   A36        1.92622   0.00004   0.00332  -0.00048   0.00284   1.92906
   A37        1.91354   0.00010   0.00822  -0.00264   0.00557   1.91911
   A38        1.86469   0.00011  -0.02244   0.00836  -0.01408   1.85061
   A39        1.91294  -0.00004   0.00792  -0.00316   0.00475   1.91769
    D1        3.10982  -0.00010  -0.02654  -0.00477  -0.03132   3.07850
    D2        0.98205  -0.00002  -0.03626  -0.00000  -0.03627   0.94578
    D3       -1.03673  -0.00005  -0.01216  -0.00857  -0.02073  -1.05746
    D4       -0.99802  -0.00014  -0.02839  -0.00345  -0.03184  -1.02985
    D5       -3.12579  -0.00005  -0.03811   0.00132  -0.03679   3.12061
    D6        1.13862  -0.00009  -0.01401  -0.00725  -0.02124   1.11738
    D7        0.99866  -0.00005  -0.02932  -0.00300  -0.03232   0.96634
    D8       -1.12911   0.00004  -0.03903   0.00177  -0.03727  -1.16638
    D9        3.13530   0.00001  -0.01494  -0.00680  -0.02173   3.11356
   D10        1.73633   0.00038   0.07498   0.02961   0.10459   1.84093
   D11       -1.38934   0.00036   0.08267   0.02582   0.10848  -1.28085
   D12       -0.41321   0.00037   0.08249   0.02586   0.10838  -0.30483
   D13        2.74431   0.00034   0.09017   0.02207   0.11227   2.85658
   D14       -2.44748   0.00037   0.07080   0.03041   0.10119  -2.34630
   D15        0.71003   0.00035   0.07849   0.02662   0.10508   0.81511
   D16       -0.02622   0.00020  -0.00573   0.05035   0.04463   0.01842
   D17        3.13008  -0.00029   0.02275  -0.06182  -0.03907   3.09100
   D18        2.12899   0.00026   0.00453   0.04715   0.05169   2.18068
   D19       -0.99791  -0.00023   0.03302  -0.06503  -0.03201  -1.02992
   D20       -2.18623   0.00024  -0.02024   0.05525   0.03501  -2.15122
   D21        0.97007  -0.00024   0.00824  -0.05693  -0.04870   0.92137
   D22       -3.13691   0.00007  -0.01059   0.01166   0.00108  -3.13583
   D23        0.01603   0.00002  -0.00663   0.00559  -0.00104   0.01499
   D24       -0.01151   0.00009  -0.01843   0.01552  -0.00291  -0.01442
   D25        3.14142   0.00003  -0.01447   0.00945  -0.00503   3.13639
   D26       -2.11341  -0.00002  -0.00861   0.00407  -0.00455  -2.11796
   D27        2.10671   0.00002   0.00475  -0.00031   0.00444   2.11115
   D28       -0.00391  -0.00003   0.00191  -0.00075   0.00116  -0.00274
   D29        1.01791   0.00003  -0.01214   0.00953  -0.00260   1.01531
   D30       -1.04515   0.00007   0.00122   0.00516   0.00639  -1.03876
   D31        3.12741   0.00002  -0.00162   0.00472   0.00311   3.13052
   D32       -0.05111   0.00007   0.02633   0.00453   0.03088  -0.02023
   D33       -2.16818   0.00012   0.01195   0.01111   0.02304  -2.14513
   D34        2.06503   0.00014   0.02883   0.00506   0.03389   2.09891
   D35        3.10116   0.00002   0.03005  -0.00119   0.02888   3.13004
   D36        0.98409   0.00007   0.01567   0.00539   0.02105   1.00514
   D37       -1.06588   0.00009   0.03255  -0.00066   0.03189  -1.03399
   D38       -2.11566  -0.00025  -0.00000  -0.05003  -0.05000  -2.16567
   D39       -0.00223  -0.00027   0.01200  -0.05463  -0.04260  -0.04483
   D40        2.10940  -0.00020   0.02220  -0.05699  -0.03475   2.07466
   D41        1.01131   0.00023  -0.02833   0.06151   0.03315   1.04446
   D42        3.12474   0.00022  -0.01632   0.05690   0.04055  -3.11789
   D43       -1.04680   0.00029  -0.00612   0.05455   0.04840  -0.99840
         Item               Value     Threshold  Converged?
 Maximum Force            0.001280     0.000450     NO 
 RMS     Force            0.000245     0.000300     YES
 Maximum Displacement     0.225015     0.001800     NO 
 RMS     Displacement     0.068707     0.001200     NO 
 Predicted change in Energy=-2.025145D-04
 Lowest energy point so far.  Saving SCF results.
 GradGradGradGradGradGradGradGradGradGradGradGradGradGradGradGradGradGrad

 Leave Link  103 at Tue Jun  4 00:08:41 2024, MaxMem= 13421772800 cpu:               5.9 elap:               0.2
 (Enter /tmpu/scunam/7/gaussian-2016.03/g1/g16/l202.exe)
                          Input orientation:                          
 ---------------------------------------------------------------------
 Center     Atomic      Atomic             Coordinates (Angstroms)
 Number     Number       Type             X           Y           Z
 ---------------------------------------------------------------------
      1          8           0        2.768464   -0.486208   -1.026693
      2          6           0        0.043134   -0.642294   -0.324423
      3          6           0        1.072699    0.055772    0.568220
      4          6           0       -1.324382   -0.663827    0.291772
      5          6           0       -2.391127    0.070658   -0.035668
      6          6           0        2.492050    0.028001    0.027716
      7          6           0       -3.691903   -0.082027    0.704043
      8          6           0       -2.422768    1.088277   -1.144953
      9          6           0        3.531247    0.767448    0.847869
     10          1           0        0.041018   -0.163832   -1.302305
     11          1           0        0.384150   -1.666128   -0.496618
     12          1           0        1.086925   -0.388347    1.572081
     13          1           0        0.789600    1.100202    0.748297
     14          1           0       -1.440228   -1.359480    1.120257
     15          1           0       -4.502286   -0.364114    0.023434
     16          1           0       -3.997311    0.865321    1.160507
     17          1           0       -3.624656   -0.835227    1.488452
     18          1           0       -1.472453    1.194160   -1.661235
     19          1           0       -2.712883    2.071160   -0.759203
     20          1           0       -3.183381    0.822544   -1.886851
     21          1           0        3.592005    0.348700    1.855976
     22          1           0        4.500553    0.703801    0.360767
     23          1           0        3.246135    1.815741    0.972957
 ---------------------------------------------------------------------
                    Distance matrix (angstroms):
                    1          2          3          4          5
     1  O    0.000000
     2  C    2.818682   0.000000
     3  C    2.390211   1.531049   0.000000
     4  C    4.303636   1.500086   2.517984   0.000000
     5  C    5.283333   2.552902   3.516105   1.335901   0.000000
     6  C    1.205235   2.563296   1.519037   3.887609   4.883775
     7  C    6.700385   3.914351   4.768529   2.472573   1.504162
     8  C    5.426037   3.122310   4.027322   2.518035   1.505677
     9  C    2.380645   3.940630   2.574712   5.092634   6.028322
    10  H    2.760226   1.088662   2.147430   2.157636   2.752215
    11  H    2.712590   1.092785   2.138439   2.131958   3.306215
    12  H    3.096898   2.179614   1.097807   2.743990   3.859066
    13  H    3.095672   2.178125   1.096999   2.790902   3.433888
    14  H    4.804694   2.191306   2.936407   1.087999   2.070185
    15  H    7.347209   4.567191   5.617255   3.203266   2.156273
    16  H    7.237830   4.561043   5.168285   3.199617   2.154565
    17  H    6.878935   4.095903   4.868866   2.598593   2.159899
    18  H    4.605611   2.730684   3.569901   2.699681   2.179148
    19  H    6.054490   3.891979   4.489374   3.242320   2.151520
    20  H    6.154443   3.872639   4.972880   3.226697   2.149390
    21  H    3.112085   4.281435   2.844472   5.257642   6.281201
    22  H    2.518193   4.706383   3.494733   5.983731   6.932048
    23  H    3.086379   4.240795   2.825796   5.244224   5.986765
                    6          7          8          9         10
     6  C    0.000000
     7  C    6.221801   0.000000
     8  C    5.162827   2.529645   0.000000
     9  C    1.516365   7.274352   6.286856   0.000000
    10  H    2.795231   4.238730   2.768172   4.203835   0.000000
    11  H    2.754676   4.534884   3.985708   4.199304   1.738897
    12  H    2.129034   4.866675   4.677675   2.799116   3.066990
    13  H    2.137098   4.635029   3.728786   2.763561   2.522523
    14  H    4.310634   2.622053   3.476791   5.414202   3.080986
    15  H    7.005321   1.095227   2.792663   8.154617   4.737015
    16  H    6.640492   1.095035   2.800722   7.535682   4.840733
    17  H    6.347678   1.089555   3.475518   7.361105   4.655778
    18  H    4.464277   3.485564   1.086673   5.613795   2.064840
    19  H    5.646687   2.781328   1.095002   6.578108   3.588053
    20  H    6.042135   2.790981   1.095244   7.250377   3.422190
    21  H    2.157610   7.387002   6.762399   1.093307   4.779847
    22  H    2.145160   8.237215   7.095590   1.086680   4.837980
    23  H    2.158272   7.197931   6.095179   1.093552   4.400943
                   11         12         13         14         15
    11  H    0.000000
    12  H    2.531034   0.000000
    13  H    3.060520   1.727078   0.000000
    14  H    2.456964   2.744768   3.340737   0.000000
    15  H    5.083596   5.799843   5.538385   3.401466   0.000000
    16  H    5.324612   5.252669   4.810364   3.389695   1.749128
    17  H    4.549882   4.733465   4.876410   2.276430   1.771570
    18  H    3.603408   4.416908   3.306290   3.776085   3.800818
    19  H    4.860852   5.091425   3.934807   4.113553   3.121706
    20  H    4.566564   5.627254   4.775529   4.103963   2.607078
    21  H    4.459211   2.626644   3.105669   5.364936   8.329698
    22  H    4.826639   3.783243   3.752131   6.334575   9.072230
    23  H    4.740677   3.143110   2.568469   5.662661   8.105022
                   16         17         18         19         20
    16  H    0.000000
    17  H    1.771520   0.000000
    18  H    3.800694   4.320986   0.000000
    19  H    2.605588   3.785548   1.766765   0.000000
    20  H    3.154473   3.786238   1.765299   1.746998   0.000000
    21  H    7.638605   7.322360   6.223689   7.039719   7.754943
    22  H    8.536941   8.346215   6.325009   7.426821   8.006793
    23  H    7.307939   7.382488   5.439705   6.210919   7.106590
                   21         22         23
    21  H    0.000000
    22  H    1.785275   0.000000
    23  H    1.746871   1.784588   0.000000
 Stoichiometry    C8H14O
 Framework group  C1[X(C8H14O)]
 Deg. of freedom    63
 Full point group                 C1      NOp   1
 RotChk:  IX=0 Diff= 1.13D-01
 Largest Abelian subgroup         C1      NOp   1
 Largest concise Abelian subgroup C1      NOp   1
                         Standard orientation:                         
 ---------------------------------------------------------------------
 Center     Atomic      Atomic             Coordinates (Angstroms)
 Number     Number       Type             X           Y           Z
 ---------------------------------------------------------------------
      1          8           0        2.759413    0.974616   -0.754425
      2          6           0        0.053457    0.185462   -0.752517
      3          6           0        1.105377   -0.520134    0.107547
      4          6           0       -1.297504   -0.457221   -0.642418
      5          6           0       -2.373032   -0.015042    0.015113
      6          6           0        2.510171    0.039785   -0.035703
      7          6           0       -3.653946   -0.803535    0.021558
      8          6           0       -2.434434    1.276523    0.786574
      9          6           0        3.569795   -0.586206    0.850126
     10          1           0        0.025442    1.239723   -0.482455
     11          1           0        0.390710    0.154958   -1.791511
     12          1           0        1.146148   -1.592541   -0.123670
     13          1           0        0.826210   -0.491675    1.168047
     14          1           0       -1.391129   -1.412365   -1.154939
     15          1           0       -4.481572   -0.215416   -0.389142
     16          1           0       -3.948126   -1.065896    1.043187
     17          1           0       -3.565642   -1.722509   -0.557079
     18          1           0       -1.497995    1.827805    0.781216
     19          1           0       -2.715200    1.090987    1.828579
     20          1           0       -3.213919    1.929234    0.379227
     21          1           0        3.657171   -1.656424    0.644406
     22          1           0        4.526119   -0.097411    0.684604
     23          1           0        3.287177   -0.503190    1.903260
 ---------------------------------------------------------------------
 Rotational constants (GHZ):           3.9496156           0.5910464           0.5764601
 Leave Link  202 at Tue Jun  4 00:08:41 2024, MaxMem= 13421772800 cpu:               2.7 elap:               0.1
 (Enter /tmpu/scunam/7/gaussian-2016.03/g1/g16/l301.exe)
 Standard basis: def2TZVP (5D, 7F)
 Ernie: Thresh=  0.10000D-02 Tol=  0.10000D-05 Strict=F.
 There are   408 symmetry adapted cartesian basis functions of A   symmetry.
 There are   363 symmetry adapted basis functions of A   symmetry.
   363 basis functions,   571 primitive gaussians,   408 cartesian basis functions
    35 alpha electrons       35 beta electrons
       nuclear repulsion energy       430.4088866678 Hartrees.
 IExCor=  402 DFT=T Ex+Corr=B3LYP ExCW=0 ScaHFX=  0.200000
 ScaDFX=  0.800000  0.720000  1.000000  0.810000 ScalE2=  1.000000  1.000000
 IRadAn=      5 IRanWt=     -1 IRanGd=            0 ICorTp=0 IEmpDi=  4
 NAtoms=   23 NActive=   23 NUniq=   23 SFac= 1.00D+00 NAtFMM=   60 NAOKFM=F Big=F
 Integral buffers will be    131072 words long.
 Raffenetti 2 integral format.
 Two-electron integral symmetry is turned on.
 Leave Link  301 at Tue Jun  4 00:08:41 2024, MaxMem= 13421772800 cpu:               1.5 elap:               0.1
 (Enter /tmpu/scunam/7/gaussian-2016.03/g1/g16/l302.exe)
 NPDir=0 NMtPBC=     1 NCelOv=     1 NCel=       1 NClECP=     1 NCelD=      1
         NCelK=      1 NCelE2=     1 NClLst=     1 CellRange=     0.0.
 One-electron integrals computed using PRISM.
 One-electron integral symmetry used in STVInt
   1 Symmetry operations used in ECPInt.
 ECPInt:  NShTT=   12090 NPrTT=   35220 LenC2=   11335 LenP2D=   25641.
 LDataN:  DoStor=T MaxTD1= 6 Len=  172
 NBasis=   363 RedAO= T EigKep=  7.36D-05  NBF=   363
 NBsUse=   363 1.00D-06 EigRej= -1.00D+00 NBFU=   363
 Precomputing XC quadrature grid using
 IXCGrd= 4 IRadAn=           5 IRanWt=          -1 IRanGd=           0 AccXCQ= 0.00D+00.
 Generated NRdTot=       0 NPtTot=           0 NUsed=           0 NTot=          32
 NSgBfM=   406   406   406   406   406 MxSgAt=    23 MxSgA2=    23.
 Leave Link  302 at Tue Jun  4 00:08:41 2024, MaxMem= 13421772800 cpu:              11.7 elap:               0.4
 (Enter /tmpu/scunam/7/gaussian-2016.03/g1/g16/l303.exe)
 DipDrv:  MaxL=1.
 Leave Link  303 at Tue Jun  4 00:08:42 2024, MaxMem= 13421772800 cpu:               4.4 elap:               0.2
 (Enter /tmpu/scunam/7/gaussian-2016.03/g1/g16/l401.exe)
 Initial guess from the checkpoint file:  "S36.chk"
 B after Tr=    -0.000000   -0.000000   -0.000000
         Rot=    0.999151   -0.041026    0.000905   -0.003543 Ang=  -4.72 deg.
 Guess basis will be translated and rotated to current coordinates.
 JPrj=2 DoOrth=T DoCkMO=T.
 Generating alternative initial guess.
 ExpMin= 9.52D-02 ExpMax= 2.70D+04 ExpMxC= 9.22D+02 IAcc=2 IRadAn=         4 AccDes= 0.00D+00
 Harris functional with IExCor=  402 and IRadAn=       4 diagonalized for initial guess.
 HarFok:  IExCor=  402 AccDes= 0.00D+00 IRadAn=         4 IDoV= 1 UseB2=F ITyADJ=14
 ICtDFT=  3500011 ScaDFX=  1.000000  1.000000  1.000000  1.000000
 FoFCou: FMM=F IPFlag=           0 FMFlag=      100000 FMFlg1=           0
         NFxFlg=           0 DoJE=T BraDBF=F KetDBF=T FulRan=T
         wScrn=  0.000000 ICntrl=       500 IOpCl=  0 I1Cent=   200000004 NGrid=           0
         NMat0=    1 NMatS0=      1 NMatT0=    0 NMatD0=    1 NMtDS0=    0 NMtDT0=    0
 Petite list used in FoFCou.
 Harris En= -388.761740135628    
 Leave Link  401 at Tue Jun  4 00:08:43 2024, MaxMem= 13421772800 cpu:              30.2 elap:               1.0
 (Enter /tmpu/scunam/7/gaussian-2016.03/g1/g16/l502.exe)
 Integral symmetry usage will be decided dynamically.
 Closed shell SCF:
 Using DIIS extrapolation, IDIIS=  1040.
 NGot= 13421772800 LenX= 13421422965 LenY= 13421256060
 Requested convergence on RMS density matrix=1.00D-08 within 128 cycles.
 Requested convergence on MAX density matrix=1.00D-06.
 Requested convergence on             energy=1.00D-06.
 No special actions if energy rises.
 Fock matrices will be formed incrementally for  20 cycles.
 Integral accuracy reduced to 1.0D-05 until final iterations.

 Cycle   1  Pass 0  IDiag  1:
 FoFJK:  IHMeth= 1 ICntrl=       0 DoSepK=F KAlg= 0 I1Cent=           0 FoldK=F
 IRaf= 890000000 NMat=       1 IRICut=       1 DoRegI=T DoRafI=F ISym2E= 0 IDoP0=0 IntGTp=1.
 FoFCou: FMM=F IPFlag=           0 FMFlag=      100000 FMFlg1=           0
         NFxFlg=           0 DoJE=F BraDBF=F KetDBF=F FulRan=T
         wScrn=  0.000000 ICntrl=         0 IOpCl=  0 I1Cent=           0 NGrid=           0
         NMat0=    1 NMatS0=      1 NMatT0=    0 NMatD0=    1 NMtDS0=    0 NMtDT0=    0
 Symmetry not used in FoFCou.
 E= -388.643285075406    
 DIIS: error= 3.07D-03 at cycle   1 NSaved=   1.
 NSaved= 1 IEnMin= 1 EnMin= -388.643285075406     IErMin= 1 ErrMin= 3.07D-03
 ErrMax= 3.07D-03  0.00D+00 EMaxC= 1.00D-01 BMatC= 5.58D-03 BMatP= 5.58D-03
 IDIUse=3 WtCom= 9.69D-01 WtEn= 3.07D-02
 Coeff-Com:  0.100D+01
 Coeff-En:   0.100D+01
 Coeff:      0.100D+01
 Gap=     0.602 Goal=   None    Shift=    0.000
 GapD=    0.602 DampG=2.000 DampE=1.000 DampFc=2.0000 IDamp=-1.
 RMSDP=3.04D-04 MaxDP=1.04D-02              OVMax= 1.96D-02

 Cycle   2  Pass 0  IDiag  1:
 RMSU=  3.04D-04    CP:  9.98D-01
 E= -388.650601150481     Delta-E=       -0.007316075076 Rises=F Damp=F
 DIIS: error= 3.14D-04 at cycle   2 NSaved=   2.
 NSaved= 2 IEnMin= 2 EnMin= -388.650601150481     IErMin= 2 ErrMin= 3.14D-04
 ErrMax= 3.14D-04  0.00D+00 EMaxC= 1.00D-01 BMatC= 6.68D-05 BMatP= 5.58D-03
 IDIUse=3 WtCom= 9.97D-01 WtEn= 3.14D-03
 Coeff-Com: -0.542D-01 0.105D+01
 Coeff-En:   0.000D+00 0.100D+01
 Coeff:     -0.540D-01 0.105D+01
 Gap=     0.216 Goal=   None    Shift=    0.000
 RMSDP=4.19D-05 MaxDP=1.40D-03 DE=-7.32D-03 OVMax= 2.82D-03

 Cycle   3  Pass 0  IDiag  1:
 RMSU=  3.97D-05    CP:  9.98D-01  1.04D+00
 E= -388.650695426907     Delta-E=       -0.000094276426 Rises=F Damp=F
 DIIS: error= 1.53D-04 at cycle   3 NSaved=   3.
 NSaved= 3 IEnMin= 3 EnMin= -388.650695426907     IErMin= 3 ErrMin= 1.53D-04
 ErrMax= 1.53D-04  0.00D+00 EMaxC= 1.00D-01 BMatC= 1.43D-05 BMatP= 6.68D-05
 IDIUse=3 WtCom= 9.98D-01 WtEn= 1.53D-03
 Coeff-Com: -0.210D-01 0.331D+00 0.690D+00
 Coeff-En:   0.000D+00 0.000D+00 0.100D+01
 Coeff:     -0.210D-01 0.331D+00 0.690D+00
 Gap=     0.216 Goal=   None    Shift=    0.000
 RMSDP=2.21D-05 MaxDP=2.39D-03 DE=-9.43D-05 OVMax= 1.46D-03

 Cycle   4  Pass 0  IDiag  1:
 RMSU=  1.74D-05    CP:  9.97D-01  1.06D+00  6.85D-01
 E= -388.650701098721     Delta-E=       -0.000005671814 Rises=F Damp=F
 DIIS: error= 1.74D-04 at cycle   4 NSaved=   4.
 NSaved= 4 IEnMin= 4 EnMin= -388.650701098721     IErMin= 3 ErrMin= 1.53D-04
 ErrMax= 1.74D-04  0.00D+00 EMaxC= 1.00D-01 BMatC= 9.12D-06 BMatP= 1.43D-05
 IDIUse=3 WtCom= 9.98D-01 WtEn= 1.74D-03
 Coeff-Com: -0.889D-02 0.126D+00 0.453D+00 0.431D+00
 Coeff-En:   0.000D+00 0.000D+00 0.348D+00 0.652D+00
 Coeff:     -0.888D-02 0.125D+00 0.452D+00 0.431D+00
 Gap=     0.216 Goal=   None    Shift=    0.000
 RMSDP=1.16D-05 MaxDP=1.32D-03 DE=-5.67D-06 OVMax= 1.05D-03

 Cycle   5  Pass 0  IDiag  1:
 RMSU=  4.82D-06    CP:  9.98D-01  1.05D+00  7.93D-01  4.58D-01
 E= -388.650707724388     Delta-E=       -0.000006625667 Rises=F Damp=F
 DIIS: error= 4.59D-05 at cycle   5 NSaved=   5.
 NSaved= 5 IEnMin= 5 EnMin= -388.650707724388     IErMin= 5 ErrMin= 4.59D-05
 ErrMax= 4.59D-05  0.00D+00 EMaxC= 1.00D-01 BMatC= 6.59D-07 BMatP= 9.12D-06
 IDIUse=1 WtCom= 1.00D+00 WtEn= 0.00D+00
 Coeff-Com: -0.577D-03-0.266D-02 0.116D+00 0.241D+00 0.646D+00
 Coeff:     -0.577D-03-0.266D-02 0.116D+00 0.241D+00 0.646D+00
 Gap=     0.216 Goal=   None    Shift=    0.000
 RMSDP=2.26D-06 MaxDP=1.58D-04 DE=-6.63D-06 OVMax= 2.29D-04

 Initial convergence to 1.0D-05 achieved.  Increase integral accuracy.
 Cycle   6  Pass 1  IDiag  1:
 E= -388.650730486413     Delta-E=       -0.000022762026 Rises=F Damp=F
 DIIS: error= 9.31D-05 at cycle   1 NSaved=   1.
 NSaved= 1 IEnMin= 1 EnMin= -388.650730486413     IErMin= 1 ErrMin= 9.31D-05
 ErrMax= 9.31D-05  0.00D+00 EMaxC= 1.00D-01 BMatC= 1.88D-06 BMatP= 1.88D-06
 IDIUse=1 WtCom= 1.00D+00 WtEn= 0.00D+00
 Coeff-Com:  0.100D+01
 Coeff:      0.100D+01
 Gap=     0.216 Goal=   None    Shift=    0.000
 RMSDP=2.26D-06 MaxDP=1.58D-04 DE=-2.28D-05 OVMax= 2.43D-04

 Cycle   7  Pass 1  IDiag  1:
 RMSU=  9.70D-05    CP:  1.00D+00
 E= -388.650731492333     Delta-E=       -0.000001005920 Rises=F Damp=F
 DIIS: error= 1.69D-05 at cycle   2 NSaved=   2.
 NSaved= 2 IEnMin= 2 EnMin= -388.650731492333     IErMin= 2 ErrMin= 1.69D-05
 ErrMax= 1.69D-05  0.00D+00 EMaxC= 1.00D-01 BMatC= 1.21D-07 BMatP= 1.88D-06
 IDIUse=1 WtCom= 1.00D+00 WtEn= 0.00D+00
 Coeff-Com:  0.898D-01 0.910D+00
 Coeff:      0.898D-01 0.910D+00
 Gap=     0.216 Goal=   None    Shift=    0.000
 RMSDP=2.40D-06 MaxDP=1.13D-04 DE=-1.01D-06 OVMax= 1.85D-04

 Cycle   8  Pass 1  IDiag  1:
 RMSU=  1.86D-06    CP:  1.00D+00  1.02D+00
 E= -388.650731394910     Delta-E=        0.000000097423 Rises=F Damp=F
 DIIS: error= 2.62D-05 at cycle   3 NSaved=   3.
 NSaved= 3 IEnMin= 2 EnMin= -388.650731492333     IErMin= 2 ErrMin= 1.69D-05
 ErrMax= 2.62D-05  0.00D+00 EMaxC= 1.00D-01 BMatC= 2.59D-07 BMatP= 1.21D-07
 IDIUse=1 WtCom= 1.00D+00 WtEn= 0.00D+00
 Coeff-Com:  0.261D-02 0.595D+00 0.402D+00
 Coeff:      0.261D-02 0.595D+00 0.402D+00
 Gap=     0.216 Goal=   None    Shift=    0.000
 RMSDP=1.45D-06 MaxDP=1.51D-04 DE= 9.74D-08 OVMax= 1.48D-04

 Cycle   9  Pass 1  IDiag  1:
 RMSU=  8.32D-07    CP:  1.00D+00  1.02D+00  3.89D-01
 E= -388.650731586786     Delta-E=       -0.000000191876 Rises=F Damp=F
 DIIS: error= 5.95D-06 at cycle   4 NSaved=   4.
 NSaved= 4 IEnMin= 4 EnMin= -388.650731586786     IErMin= 4 ErrMin= 5.95D-06
 ErrMax= 5.95D-06  0.00D+00 EMaxC= 1.00D-01 BMatC= 1.25D-08 BMatP= 1.21D-07
 IDIUse=1 WtCom= 1.00D+00 WtEn= 0.00D+00
 Coeff-Com: -0.230D-02 0.353D+00 0.265D+00 0.385D+00
 Coeff:     -0.230D-02 0.353D+00 0.265D+00 0.385D+00
 Gap=     0.216 Goal=   None    Shift=    0.000
 RMSDP=3.95D-07 MaxDP=4.30D-05 DE=-1.92D-07 OVMax= 2.87D-05

 Cycle  10  Pass 1  IDiag  1:
 RMSU=  1.75D-07    CP:  1.00D+00  1.02D+00  4.59D-01  6.13D-01
 E= -388.650731596668     Delta-E=       -0.000000009882 Rises=F Damp=F
 DIIS: error= 1.79D-07 at cycle   5 NSaved=   5.
 NSaved= 5 IEnMin= 5 EnMin= -388.650731596668     IErMin= 5 ErrMin= 1.79D-07
 ErrMax= 1.79D-07  0.00D+00 EMaxC= 1.00D-01 BMatC= 2.54D-11 BMatP= 1.25D-08
 IDIUse=1 WtCom= 1.00D+00 WtEn= 0.00D+00
 Coeff-Com: -0.827D-03 0.113D+00 0.845D-01 0.131D+00 0.673D+00
 Coeff:     -0.827D-03 0.113D+00 0.845D-01 0.131D+00 0.673D+00
 Gap=     0.216 Goal=   None    Shift=    0.000
 RMSDP=2.54D-08 MaxDP=8.90D-07 DE=-9.88D-09 OVMax= 1.70D-06

 Cycle  11  Pass 1  IDiag  1:
 RMSU=  2.18D-08    CP:  1.00D+00  1.02D+00  4.63D-01  6.09D-01  1.04D+00
 E= -388.650731596692     Delta-E=       -0.000000000025 Rises=F Damp=F
 DIIS: error= 9.14D-08 at cycle   6 NSaved=   6.
 NSaved= 6 IEnMin= 6 EnMin= -388.650731596692     IErMin= 6 ErrMin= 9.14D-08
 ErrMax= 9.14D-08  0.00D+00 EMaxC= 1.00D-01 BMatC= 5.16D-12 BMatP= 2.54D-11
 IDIUse=1 WtCom= 1.00D+00 WtEn= 0.00D+00
 Coeff-Com: -0.120D-03 0.112D-01 0.819D-02 0.151D-01 0.306D+00 0.659D+00
 Coeff:     -0.120D-03 0.112D-01 0.819D-02 0.151D-01 0.306D+00 0.659D+00
 Gap=     0.216 Goal=   None    Shift=    0.000
 RMSDP=1.31D-08 MaxDP=1.07D-06 DE=-2.46D-11 OVMax= 9.05D-07

 Cycle  12  Pass 1  IDiag  1:
 RMSU=  7.47D-09    CP:  1.00D+00  1.02D+00  4.61D-01  6.20D-01  1.05D+00
                    CP:  8.54D-01
 E= -388.650731596695     Delta-E=       -0.000000000003 Rises=F Damp=F
 DIIS: error= 3.15D-08 at cycle   7 NSaved=   7.
 NSaved= 7 IEnMin= 7 EnMin= -388.650731596695     IErMin= 7 ErrMin= 3.15D-08
 ErrMax= 3.15D-08  0.00D+00 EMaxC= 1.00D-01 BMatC= 5.26D-13 BMatP= 5.16D-12
 IDIUse=1 WtCom= 1.00D+00 WtEn= 0.00D+00
 Coeff-Com:  0.667D-04-0.109D-01-0.827D-02-0.120D-01 0.271D-01 0.269D+00
 Coeff-Com:  0.735D+00
 Coeff:      0.667D-04-0.109D-01-0.827D-02-0.120D-01 0.271D-01 0.269D+00
 Coeff:      0.735D+00
 Gap=     0.216 Goal=   None    Shift=    0.000
 RMSDP=3.39D-09 MaxDP=1.30D-07 DE=-2.50D-12 OVMax= 4.71D-07

 SCF Done:  E(RB3LYP) =  -388.650731597     A.U. after   12 cycles
            NFock= 12  Conv=0.34D-08     -V/T= 2.0053
 KE= 3.866144980619D+02 PE=-1.764097861721D+03 EE= 5.584237453941D+02
 Leave Link  502 at Tue Jun  4 00:09:10 2024, MaxMem= 13421772800 cpu:             883.2 elap:              27.7
 (Enter /tmpu/scunam/7/gaussian-2016.03/g1/g16/l508.exe)
 QCSCF skips out because SCF is already converged.
 Leave Link  508 at Tue Jun  4 00:09:10 2024, MaxMem= 13421772800 cpu:               1.1 elap:               0.1
 (Enter /tmpu/scunam/7/gaussian-2016.03/g1/g16/l701.exe)
 ... and contract with generalized density number  0.
 Compute integral first derivatives.
   1 Symmetry operations used in ECPInt.
 ECPInt:  NShTT=   12090 NPrTT=   35220 LenC2=   11335 LenP2D=   25641.
 LDataN:  DoStor=T MaxTD1= 7 Len=  274
 Leave Link  701 at Tue Jun  4 00:09:11 2024, MaxMem= 13421772800 cpu:               8.7 elap:               0.3
 (Enter /tmpu/scunam/7/gaussian-2016.03/g1/g16/l702.exe)
 L702 exits ... SP integral derivatives will be done elsewhere.
 Leave Link  702 at Tue Jun  4 00:09:11 2024, MaxMem= 13421772800 cpu:               0.7 elap:               0.0
 (Enter /tmpu/scunam/7/gaussian-2016.03/g1/g16/l703.exe)
 Integral derivatives from FoFJK, PRISM(SPDF).
 Compute integral first derivatives, UseDBF=F ICtDFT=           0.
 Calling FoFJK, ICntrl=      2127 FMM=F ISym2X=0 I1Cent= 0 IOpClX= 0 NMat=1 NMatS=1 NMatT=0.
 FoFJK:  IHMeth= 1 ICntrl=    2127 DoSepK=F KAlg= 0 I1Cent=           0 FoldK=F
 IRaf=         0 NMat=       1 IRICut=       1 DoRegI=T DoRafI=F ISym2E= 0 IDoP0=0 IntGTp=1.
 FoFCou: FMM=F IPFlag=           0 FMFlag=      100000 FMFlg1=         800
         NFxFlg=           0 DoJE=F BraDBF=F KetDBF=F FulRan=T
         wScrn=  0.000000 ICntrl=      2127 IOpCl=  0 I1Cent=           0 NGrid=           0
         NMat0=    1 NMatS0=      1 NMatT0=    0 NMatD0=    1 NMtDS0=    0 NMtDT0=    0
 Symmetry not used in FoFCou.
 Leave Link  703 at Tue Jun  4 00:09:21 2024, MaxMem= 13421772800 cpu:             335.3 elap:              10.5
 (Enter /tmpu/scunam/7/gaussian-2016.03/g1/g16/l716.exe)
 Dipole        =-3.31040788D-01-7.61163771D-01 7.26622424D-01
 ***** Axes restored to original set *****
 -------------------------------------------------------------------
 Center     Atomic                   Forces (Hartrees/Bohr)
 Number     Number              X              Y              Z
 -------------------------------------------------------------------
      1        8           0.002138210   -0.005435288   -0.004062029
      2        6           0.000794115    0.000179785    0.000479984
      3        6          -0.000336091   -0.002053188    0.003795938
      4        6          -0.000533528    0.000515837    0.000395133
      5        6          -0.000004389    0.000285069   -0.001441289
      6        6          -0.002992044    0.011599579    0.001842491
      7        6          -0.000778613    0.000731275   -0.000040376
      8        6          -0.001666334   -0.000358491    0.000279140
      9        6          -0.000279172   -0.002014114    0.002599393
     10        1          -0.000110265    0.000247597   -0.000469495
     11        1          -0.000355975   -0.000415133   -0.000471882
     12        1          -0.000223878   -0.000970026   -0.000659286
     13        1           0.000804914   -0.000235107   -0.001685000
     14        1           0.000093219   -0.000066812    0.000246325
     15        1           0.000423136   -0.000599826   -0.000095658
     16        1           0.000306573    0.000020606    0.000492580
     17        1          -0.000309026   -0.000159389    0.000294979
     18        1           0.000644290    0.000205278   -0.000300540
     19        1           0.000709095   -0.000103841    0.000521742
     20        1           0.000414924   -0.000439088   -0.000088315
     21        1           0.000748075   -0.000694565   -0.000221579
     22        1           0.000754803    0.000098332    0.000109829
     23        1          -0.000242039   -0.000338490   -0.001522084
 -------------------------------------------------------------------
 Cartesian Forces:  Max     0.011599579 RMS     0.001895282
 Leave Link  716 at Tue Jun  4 00:09:21 2024, MaxMem= 13421772800 cpu:               0.7 elap:               0.0
 (Enter /tmpu/scunam/7/gaussian-2016.03/g1/g16/l103.exe)

 GradGradGradGradGradGradGradGradGradGradGradGradGradGradGradGradGradGrad
 Berny optimization.
 Using GEDIIS/GDIIS optimizer.
 FormGI is forming the generalized inverse of G from B-inverse, IUseBI=4.
 Internal  Forces:  Max     0.006363133 RMS     0.000843157
 Search for a local minimum.
 Step number   4 out of a maximum of  138
 All quantities printed in internal units (Hartrees-Bohrs-Radians)
 RMS Force = .84316D-03 SwitMx=.10000D-02 MixMth= 2
 Mixed Optimization -- En-DIIS/RFO-DIIS
 Swapping is turned off.
 Update second derivatives using D2CorX and points    2    3    4
 DE=  7.97D-05 DEPred=-2.03D-04 R=-3.94D-01
 Trust test=-3.94D-01 RLast= 3.23D-01 DXMaxT set to 2.52D-01
 ITU= -1  1  1  0
     Eigenvalues ---    0.00151   0.00431   0.00517   0.00676   0.00695
     Eigenvalues ---    0.00734   0.01307   0.01589   0.02346   0.02914
     Eigenvalues ---    0.03862   0.04134   0.05468   0.05540   0.06887
     Eigenvalues ---    0.07037   0.07249   0.07274   0.07361   0.07619
     Eigenvalues ---    0.09379   0.09812   0.12854   0.13255   0.15961
     Eigenvalues ---    0.15999   0.16000   0.16000   0.16000   0.16000
     Eigenvalues ---    0.16000   0.16191   0.16307   0.17079   0.21721
     Eigenvalues ---    0.21974   0.22747   0.24988   0.25029   0.25076
     Eigenvalues ---    0.26052   0.29897   0.30600   0.31454   0.31872
     Eigenvalues ---    0.32164   0.32806   0.33998   0.34089   0.34181
     Eigenvalues ---    0.34187   0.34212   0.34246   0.34257   0.34277
     Eigenvalues ---    0.34367   0.34461   0.34500   0.34573   0.34823
     Eigenvalues ---    0.35182   0.56857   1.00520
 En-DIIS/RFO-DIIS/Sim-DIIS IScMMF=       -3 using points:     4    3    2
 RFO step:  Lambda=-6.42200666D-04.
 NNeg= 0 NGDIIS= 3 SimSw=  2.50D-03 Rises=T DC=  7.97D-05 SmlDif=  1.00D-05
 NRisDI= 1 DoIntr=F SqrtH=F CThrHd= 10.0 CDAdj=  3.0
 RMS Error=  0.2323633583D-01 NUsed= 3 OKEnD=T EnDIS=T
 InvSVX:  RCond= 2.50D-03 Info=           0 Equed=N FErr=  3.00D-14 BErr=  3.07D-17
 EnCoef did     6 forward-backward iterations
 IWarn =    0
 DidBck=T Rises=T En-DIIS coefs:    0.48552    0.26489    0.24959
 Iteration  1 RMS(Cart)=  0.06669748 RMS(Int)=  0.00109692
 Iteration  2 RMS(Cart)=  0.00190388 RMS(Int)=  0.00013155
 Iteration  3 RMS(Cart)=  0.00000080 RMS(Int)=  0.00013155
 ITry= 1 IFail=0 DXMaxC= 1.87D-01 DCOld= 1.00D+10 DXMaxT= 2.52D-01 DXLimC= 3.00D+00 Rises=F
 Variable       Old X    -DE/DX   Delta X   Delta X   Delta X     New X
                                 (Linear)    (Quad)   (Total)
    R1        2.27756   0.00636   0.00537  -0.00518   0.00019   2.27776
    R2        2.89326   0.00035   0.00174  -0.00294  -0.00120   2.89206
    R3        2.83475   0.00075   0.00633  -0.01156  -0.00523   2.82953
    R4        2.05727   0.00053   0.00112  -0.00075   0.00037   2.05765
    R5        2.06506   0.00035  -0.00069   0.00228   0.00159   2.06665
    R6        2.87056   0.00051   0.00121  -0.00138  -0.00017   2.87039
    R7        2.07455  -0.00021  -0.00218   0.00387   0.00169   2.07624
    R8        2.07303  -0.00071  -0.00214   0.00327   0.00113   2.07416
    R9        2.52449   0.00007  -0.00086   0.00240   0.00154   2.52602
   R10        2.05602   0.00022  -0.00054   0.00159   0.00105   2.05707
   R11        2.84245   0.00063   0.00196  -0.00268  -0.00072   2.84174
   R12        2.84532  -0.00078  -0.00115   0.00048  -0.00067   2.84465
   R13        2.86551  -0.00024  -0.00207   0.00329   0.00121   2.86673
   R14        2.06968  -0.00010  -0.00045   0.00071   0.00026   2.06994
   R15        2.06932   0.00014  -0.00035   0.00107   0.00071   2.07003
   R16        2.05896   0.00030   0.00067  -0.00048   0.00019   2.05915
   R17        2.05351   0.00073   0.00192  -0.00212  -0.00020   2.05331
   R18        2.06925  -0.00010  -0.00074   0.00133   0.00060   2.06985
   R19        2.06971  -0.00012  -0.00073   0.00134   0.00061   2.07032
   R20        2.06605   0.00010  -0.00065   0.00131   0.00067   2.06672
   R21        2.05353   0.00062   0.00136  -0.00121   0.00015   2.05368
   R22        2.06651  -0.00044  -0.00093   0.00129   0.00036   2.06687
    A1        1.96068  -0.00004   0.00251  -0.00542  -0.00292   1.95776
    A2        1.90141   0.00019   0.00230  -0.00224   0.00006   1.90147
    A3        1.88514   0.00030   0.00250  -0.00233   0.00016   1.88530
    A4        1.95359  -0.00010  -0.00225   0.00327   0.00104   1.95462
    A5        1.91321  -0.00023  -0.00340   0.00450   0.00111   1.91432
    A6        1.84505  -0.00012  -0.00179   0.00251   0.00074   1.84579
    A7        1.99604   0.00082   0.00116  -0.00251  -0.00134   1.99470
    A8        1.93628  -0.00085  -0.00383   0.00564   0.00181   1.93808
    A9        1.93506  -0.00013  -0.00369   0.00489   0.00121   1.93626
   A10        1.88164   0.00024  -0.00157   0.00438   0.00282   1.88446
   A11        1.89330  -0.00100  -0.00441   0.00322  -0.00118   1.89213
   A12        1.81152   0.00094   0.01350  -0.01701  -0.00353   1.80799
   A13        2.23874   0.00011  -0.00516   0.01014   0.00498   2.24372
   A14        2.00318  -0.00014   0.00364  -0.00800  -0.00436   1.99882
   A15        2.04110   0.00003   0.00156  -0.00216  -0.00059   2.04051
   A16        2.11087  -0.00008   0.00130  -0.00279  -0.00149   2.10938
   A17        2.17602  -0.00014  -0.00294   0.00539   0.00245   2.17847
   A18        1.99626   0.00022   0.00164  -0.00257  -0.00093   1.99533
   A19        2.13339  -0.00034  -0.00221   0.00580   0.00282   2.13621
   A20        2.12241  -0.00048  -0.00103   0.00221   0.00042   2.12282
   A21        2.02526   0.00096   0.00430  -0.00484  -0.00130   2.02396
   A22        1.93951  -0.00050  -0.00169   0.00091  -0.00078   1.93873
   A23        1.93732  -0.00001   0.00075  -0.00127  -0.00051   1.93680
   A24        1.95071   0.00042  -0.00018   0.00181   0.00163   1.95235
   A25        1.84991   0.00063   0.00598  -0.00715  -0.00117   1.84873
   A26        1.89126  -0.00022  -0.00267   0.00319   0.00053   1.89179
   A27        1.89143  -0.00031  -0.00201   0.00220   0.00020   1.89162
   A28        1.97959   0.00006  -0.00205   0.00336   0.00133   1.98092
   A29        1.93123  -0.00060  -0.00198   0.00123  -0.00074   1.93049
   A30        1.92801  -0.00007   0.00182  -0.00339  -0.00156   1.92645
   A31        1.88768  -0.00007  -0.00275   0.00340   0.00068   1.88836
   A32        1.88509  -0.00006  -0.00144   0.00264   0.00120   1.88629
   A33        1.84670   0.00080   0.00690  -0.00789  -0.00099   1.84571
   A34        1.92840   0.00035  -0.00121   0.00260   0.00139   1.92979
   A35        1.91803   0.00059   0.00040   0.00040   0.00081   1.91884
   A36        1.92906  -0.00159  -0.00202  -0.00079  -0.00281   1.92626
   A37        1.91911  -0.00060  -0.00424   0.00560   0.00137   1.92048
   A38        1.85061   0.00125   0.01100  -0.01327  -0.00226   1.84835
   A39        1.91769  -0.00000  -0.00377   0.00518   0.00142   1.91911
    D1        3.07850   0.00034   0.02056  -0.03257  -0.01201   3.06649
    D2        0.94578   0.00008   0.02473  -0.04089  -0.01615   0.92963
    D3       -1.05746  -0.00048   0.01270  -0.02632  -0.01363  -1.07108
    D4       -1.02985   0.00033   0.02113  -0.03380  -0.01267  -1.04252
    D5        3.12061   0.00007   0.02531  -0.04212  -0.01681   3.10381
    D6        1.11738  -0.00049   0.01328  -0.02755  -0.01428   1.10309
    D7        0.96634   0.00045   0.02154  -0.03322  -0.01168   0.95466
    D8       -1.16638   0.00019   0.02571  -0.04154  -0.01582  -1.18220
    D9        3.11356  -0.00038   0.01368  -0.02698  -0.01330   3.10027
   D10        1.84093   0.00031  -0.06637   0.14315   0.07679   1.91771
   D11       -1.28085   0.00019  -0.06966   0.14476   0.07510  -1.20575
   D12       -0.30483   0.00016  -0.06957   0.14768   0.07810  -0.22673
   D13        2.85658   0.00003  -0.07286   0.14929   0.07642   2.93299
   D14       -2.34630   0.00051  -0.06392   0.13975   0.07585  -2.27045
   D15        0.81511   0.00039  -0.06721   0.14136   0.07416   0.88928
   D16        0.01842  -0.00105  -0.02200  -0.02117  -0.04323  -0.02481
   D17        3.09100   0.00110   0.01629   0.03027   0.04661   3.13761
   D18        2.18068  -0.00140  -0.02735  -0.01226  -0.03966   2.14102
   D19       -1.02992   0.00075   0.01094   0.03919   0.05017  -0.97974
   D20       -2.15122  -0.00068  -0.01462  -0.02828  -0.04294  -2.19416
   D21        0.92137   0.00146   0.02367   0.02317   0.04689   0.96826
   D22       -3.13583   0.00007   0.00122  -0.00046   0.00076  -3.13507
   D23        0.01499   0.00002   0.00165  -0.00455  -0.00290   0.01209
   D24       -0.01442   0.00020   0.00458  -0.00214   0.00244  -0.01198
   D25        3.13639   0.00015   0.00501  -0.00623  -0.00122   3.13518
   D26       -2.11796   0.00027   0.00378  -0.00410  -0.00031  -2.11827
   D27        2.11115  -0.00019  -0.00308   0.00505   0.00197   2.11313
   D28       -0.00274  -0.00007  -0.00092   0.00188   0.00096  -0.00179
   D29        1.01531   0.00031   0.00337  -0.00036   0.00301   1.01831
   D30       -1.03876  -0.00014  -0.00349   0.00878   0.00529  -1.03347
   D31        3.13052  -0.00002  -0.00133   0.00561   0.00427   3.13480
   D32       -0.02023  -0.00009  -0.02030   0.03920   0.01889  -0.00134
   D33       -2.14513   0.00040  -0.01386   0.03146   0.01762  -2.12752
   D34        2.09891  -0.00017  -0.02226   0.04249   0.02023   2.11915
   D35        3.13004  -0.00014  -0.01989   0.03535   0.01545  -3.13769
   D36        1.00514   0.00035  -0.01345   0.02762   0.01417   1.01931
   D37       -1.03399  -0.00022  -0.02186   0.03864   0.01679  -1.01721
   D38       -2.16567   0.00132   0.02572   0.01324   0.03891  -2.12675
   D39       -0.04483   0.00119   0.01991   0.02222   0.04207  -0.00276
   D40        2.07466   0.00054   0.01416   0.02845   0.04255   2.11721
   D41        1.04446  -0.00081  -0.01231  -0.03802  -0.05028   0.99419
   D42       -3.11789  -0.00095  -0.01813  -0.02904  -0.04711   3.11818
   D43       -0.99840  -0.00160  -0.02388  -0.02280  -0.04663  -1.04503
         Item               Value     Threshold  Converged?
 Maximum Force            0.006363     0.000450     NO 
 RMS     Force            0.000843     0.000300     NO 
 Maximum Displacement     0.186656     0.001800     NO 
 RMS     Displacement     0.066526     0.001200     NO 
 Predicted change in Energy=-3.405937D-04
 GradGradGradGradGradGradGradGradGradGradGradGradGradGradGradGradGradGrad

 Leave Link  103 at Tue Jun  4 00:09:21 2024, MaxMem= 13421772800 cpu:               5.0 elap:               0.2
 (Enter /tmpu/scunam/7/gaussian-2016.03/g1/g16/l202.exe)
                          Input orientation:                          
 ---------------------------------------------------------------------
 Center     Atomic      Atomic             Coordinates (Angstroms)
 Number     Number       Type             X           Y           Z
 ---------------------------------------------------------------------
      1          8           0        2.779128   -0.467307   -1.031448
      2          6           0        0.047789   -0.576564   -0.339617
      3          6           0        1.087229    0.088639    0.565498
      4          6           0       -1.309662   -0.613755    0.291186
      5          6           0       -2.404311    0.075240   -0.046206
      6          6           0        2.503207    0.060445    0.016494
      7          6           0       -3.687665   -0.092327    0.719486
      8          6           0       -2.486118    1.054207   -1.186787
      9          6           0        3.564016    0.714671    0.881354
     10          1           0        0.036882   -0.065058   -1.300792
     11          1           0        0.384536   -1.595693   -0.549369
     12          1           0        1.100036   -0.377394    1.560382
     13          1           0        0.816543    1.131926    0.772867
     14          1           0       -1.393008   -1.284063    1.144820
     15          1           0       -4.498344   -0.424232    0.061867
     16          1           0       -4.017513    0.861506    1.145316
     17          1           0       -3.585376   -0.813425    1.529983
     18          1           0       -1.553008    1.162015   -1.732961
     19          1           0       -2.786933    2.043343   -0.825063
     20          1           0       -3.262317    0.748521   -1.896953
     21          1           0        3.582699    0.260415    1.876038
     22          1           0        4.538260    0.618087    0.409579
     23          1           0        3.328529    1.771103    1.038727
 ---------------------------------------------------------------------
                    Distance matrix (angstroms):
                    1          2          3          4          5
     1  O    0.000000
     2  C    2.819713   0.000000
     3  C    2.392036   1.530414   0.000000
     4  C    4.299885   1.497321   2.512706   0.000000
     5  C    5.304064   2.554160   3.544744   1.336713   0.000000
     6  C    1.205337   2.561577   1.518945   3.881749   4.907941
     7  C    6.710126   3.912774   4.780803   2.471887   1.503782
     8  C    5.482878   3.130143   4.095318   2.520029   1.505322
     9  C    2.381583   3.939786   2.574132   5.085838   6.073727
    10  H    2.784649   1.088859   2.147066   2.156071   2.748288
    11  H    2.690674   1.093626   2.138617   2.130972   3.289811
    12  H    3.089502   2.181030   1.098701   2.733746   3.881552
    13  H    3.108833   2.178886   1.097597   2.792878   3.487315
    14  H    4.775977   2.186322   2.893355   1.088554   2.070985
    15  H    7.359266   4.566369   5.631635   3.202530   2.155488
    16  H    7.259365   4.560674   5.195373   3.199748   2.154149
    17  H    6.869326   4.092847   4.855635   2.598723   2.160789
    18  H    4.681262   2.743468   3.661407   2.703654   2.179665
    19  H    6.109582   3.890401   4.556716   3.238597   2.150918
    20  H    6.223054   3.890751   5.041593   3.233668   2.148196
    21  H    3.103028   4.255026   2.823896   5.216428   6.290754
    22  H    2.519758   4.706678   3.494887   5.977427   6.978661
    23  H    3.098056   4.263171   2.842192   5.268698   6.076058
                    6          7          8          9         10
     6  C    0.000000
     7  C    6.232530   0.000000
     8  C    5.227696   2.528267   0.000000
     9  C    1.517007   7.298241   6.402860   0.000000
    10  H    2.798884   4.237276   2.762476   4.220239   0.000000
    11  H    2.748047   4.522491   3.958399   4.182565   1.740214
    12  H    2.131709   4.869337   4.738873   2.779367   3.068251
    13  H    2.136587   4.667927   3.841074   2.781093   2.518075
    14  H    4.273326   2.620419   3.478331   5.351302   3.084084
    15  H    7.018454   1.095365   2.791769   8.183539   4.749118
    16  H    6.666013   1.095412   2.796606   7.587544   4.824943
    17  H    6.334441   1.089656   3.475235   7.339591   4.657691
    18  H    4.552683   3.484915   1.086565   5.763566   2.054319
    19  H    5.711890   2.785325   1.095319   6.709082   3.556065
    20  H    6.113591   2.780952   1.095566   7.370140   3.449932
    21  H    2.159443   7.370226   6.844087   1.093660   4.771897
    22  H    2.146373   8.262358   7.216679   1.086762   4.863585
    23  H    2.156958   7.266448   6.267134   1.093741   4.436189
                   11         12         13         14         15
    11  H    0.000000
    12  H    2.539142   0.000000
    13  H    3.061837   1.725861   0.000000
    14  H    2.475288   2.685146   3.295068   0.000000
    15  H    5.058503   5.795654   5.583474   3.399295   0.000000
    16  H    5.318629   5.281710   4.855919   3.389910   1.748765
    17  H    4.549269   4.705755   4.871808   2.275155   1.772102
    18  H    3.572103   4.500503   3.448891   3.780280   3.796393
    19  H    4.834957   5.163220   4.045875   4.110364   3.131214
    20  H    4.539918   5.678994   4.889993   4.108296   2.596168
    21  H    4.422215   2.582645   3.102923   5.260965   8.310428
    22  H    4.803522   3.759882   3.774544   6.272056   9.103161
    23  H    4.745994   3.139163   2.605628   5.624785   8.187411
                   16         17         18         19         20
    16  H    0.000000
    17  H    1.772034   0.000000
    18  H    3.801127   4.322000   0.000000
    19  H    2.606426   3.787463   1.767368   0.000000
    20  H    3.136635   3.779938   1.766241   1.746854   0.000000
    21  H    7.658882   7.256320   6.341391   7.144717   7.831216
    22  H    8.590798   8.324541   6.479959   7.564003   8.135484
    23  H    7.402909   7.397513   5.646472   6.398961   7.287190
                   21         22         23
    21  H    0.000000
    22  H    1.786485   0.000000
    23  H    1.745815   1.785700   0.000000
 Stoichiometry    C8H14O
 Framework group  C1[X(C8H14O)]
 Deg. of freedom    63
 Full point group                 C1      NOp   1
 RotChk:  IX=0 Diff= 5.58D-02
 Largest Abelian subgroup         C1      NOp   1
 Largest concise Abelian subgroup C1      NOp   1
                         Standard orientation:                         
 ---------------------------------------------------------------------
 Center     Atomic      Atomic             Coordinates (Angstroms)
 Number     Number       Type             X           Y           Z
 ---------------------------------------------------------------------
      1          8           0        2.762800    1.023825   -0.704244
      2          6           0        0.055214    0.236705   -0.690007
      3          6           0        1.121479   -0.512899    0.112078
      4          6           0       -1.281305   -0.434573   -0.618802
      5          6           0       -2.387777   -0.023409    0.008467
      6          6           0        2.519260    0.068839   -0.010322
      7          6           0       -3.645625   -0.846771   -0.026932
      8          6           0       -2.508258    1.259615    0.786496
      9          6           0        3.605623   -0.642207    0.774243
     10          1           0        0.012418    1.268146   -0.343724
     11          1           0        0.387467    0.286399   -1.730755
     12          1           0        1.167144   -1.570023   -0.183807
     13          1           0        0.855120   -0.554158    1.176066
     14          1           0       -1.335779   -1.389153   -1.139148
     15          1           0       -4.476119   -0.278977   -0.460193
     16          1           0       -3.963929   -1.120014    0.984971
     17          1           0       -3.515818   -1.761270   -0.605026
     18          1           0       -1.593323    1.845560    0.800135
     19          1           0       -2.799674    1.056309    1.822578
     20          1           0       -3.306029    1.884629    0.370342
     21          1           0        3.657127   -1.697006    0.489923
     22          1           0        4.564523   -0.161952    0.598410
     23          1           0        3.372817   -0.630892    1.842860
 ---------------------------------------------------------------------
 Rotational constants (GHZ):           4.0048944           0.5872881           0.5677759
 Leave Link  202 at Tue Jun  4 00:09:22 2024, MaxMem= 13421772800 cpu:               2.7 elap:               0.1
 (Enter /tmpu/scunam/7/gaussian-2016.03/g1/g16/l301.exe)
 Standard basis: def2TZVP (5D, 7F)
 Ernie: Thresh=  0.10000D-02 Tol=  0.10000D-05 Strict=F.
 There are   408 symmetry adapted cartesian basis functions of A   symmetry.
 There are   363 symmetry adapted basis functions of A   symmetry.
   363 basis functions,   571 primitive gaussians,   408 cartesian basis functions
    35 alpha electrons       35 beta electrons
       nuclear repulsion energy       429.8538333555 Hartrees.
 IExCor=  402 DFT=T Ex+Corr=B3LYP ExCW=0 ScaHFX=  0.200000
 ScaDFX=  0.800000  0.720000  1.000000  0.810000 ScalE2=  1.000000  1.000000
 IRadAn=      5 IRanWt=     -1 IRanGd=            0 ICorTp=0 IEmpDi=  4
 NAtoms=   23 NActive=   23 NUniq=   23 SFac= 1.00D+00 NAtFMM=   60 NAOKFM=F Big=F
 Integral buffers will be    131072 words long.
 Raffenetti 2 integral format.
 Two-electron integral symmetry is turned on.
 Leave Link  301 at Tue Jun  4 00:09:22 2024, MaxMem= 13421772800 cpu:               1.5 elap:               0.1
 (Enter /tmpu/scunam/7/gaussian-2016.03/g1/g16/l302.exe)
 NPDir=0 NMtPBC=     1 NCelOv=     1 NCel=       1 NClECP=     1 NCelD=      1
         NCelK=      1 NCelE2=     1 NClLst=     1 CellRange=     0.0.
 One-electron integrals computed using PRISM.
 One-electron integral symmetry used in STVInt
   1 Symmetry operations used in ECPInt.
 ECPInt:  NShTT=   12090 NPrTT=   35220 LenC2=   11323 LenP2D=   25591.
 LDataN:  DoStor=T MaxTD1= 6 Len=  172
 NBasis=   363 RedAO= T EigKep=  7.48D-05  NBF=   363
 NBsUse=   363 1.00D-06 EigRej= -1.00D+00 NBFU=   363
 Precomputing XC quadrature grid using
 IXCGrd= 4 IRadAn=           5 IRanWt=          -1 IRanGd=           0 AccXCQ= 0.00D+00.
 Generated NRdTot=       0 NPtTot=           0 NUsed=           0 NTot=          32
 NSgBfM=   405   405   405   405   405 MxSgAt=    23 MxSgA2=    23.
 Leave Link  302 at Tue Jun  4 00:09:22 2024, MaxMem= 13421772800 cpu:              12.0 elap:               0.4
 (Enter /tmpu/scunam/7/gaussian-2016.03/g1/g16/l303.exe)
 DipDrv:  MaxL=1.
 Leave Link  303 at Tue Jun  4 00:09:22 2024, MaxMem= 13421772800 cpu:               2.5 elap:               0.1
 (Enter /tmpu/scunam/7/gaussian-2016.03/g1/g16/l401.exe)
 Initial guess from the checkpoint file:  "S36.chk"
 B after Tr=     0.000000    0.000000    0.000000
         Rot=    0.999790   -0.020246    0.000812   -0.002940 Ang=  -2.35 deg.
 Guess basis will be translated and rotated to current coordinates.
 JPrj=2 DoOrth=T DoCkMO=T.
 Generating alternative initial guess.
 ExpMin= 9.52D-02 ExpMax= 2.70D+04 ExpMxC= 9.22D+02 IAcc=2 IRadAn=         4 AccDes= 0.00D+00
 Harris functional with IExCor=  402 and IRadAn=       4 diagonalized for initial guess.
 HarFok:  IExCor=  402 AccDes= 0.00D+00 IRadAn=         4 IDoV= 1 UseB2=F ITyADJ=14
 ICtDFT=  3500011 ScaDFX=  1.000000  1.000000  1.000000  1.000000
 FoFCou: FMM=F IPFlag=           0 FMFlag=      100000 FMFlg1=           0
         NFxFlg=           0 DoJE=T BraDBF=F KetDBF=T FulRan=T
         wScrn=  0.000000 ICntrl=       500 IOpCl=  0 I1Cent=   200000004 NGrid=           0
         NMat0=    1 NMatS0=      1 NMatT0=    0 NMatD0=    1 NMtDS0=    0 NMtDT0=    0
 Petite list used in FoFCou.
 Harris En= -388.761626670715    
 Leave Link  401 at Tue Jun  4 00:09:23 2024, MaxMem= 13421772800 cpu:              27.1 elap:               0.9
 (Enter /tmpu/scunam/7/gaussian-2016.03/g1/g16/l502.exe)
 Integral symmetry usage will be decided dynamically.
 Closed shell SCF:
 Using DIIS extrapolation, IDIIS=  1040.
 NGot= 13421772800 LenX= 13421422965 LenY= 13421256060
 Requested convergence on RMS density matrix=1.00D-08 within 128 cycles.
 Requested convergence on MAX density matrix=1.00D-06.
 Requested convergence on             energy=1.00D-06.
 No special actions if energy rises.
 Fock matrices will be formed incrementally for  20 cycles.
 Integral accuracy reduced to 1.0D-05 until final iterations.

 Cycle   1  Pass 0  IDiag  1:
 FoFJK:  IHMeth= 1 ICntrl=       0 DoSepK=F KAlg= 0 I1Cent=           0 FoldK=F
 IRaf= 890000000 NMat=       1 IRICut=       1 DoRegI=T DoRafI=F ISym2E= 0 IDoP0=0 IntGTp=1.
 FoFCou: FMM=F IPFlag=           0 FMFlag=      100000 FMFlg1=           0
         NFxFlg=           0 DoJE=F BraDBF=F KetDBF=F FulRan=T
         wScrn=  0.000000 ICntrl=         0 IOpCl=  0 I1Cent=           0 NGrid=           0
         NMat0=    1 NMatS0=      1 NMatT0=    0 NMatD0=    1 NMtDS0=    0 NMtDT0=    0
 Symmetry not used in FoFCou.
 E= -388.646322561499    
 DIIS: error= 2.18D-03 at cycle   1 NSaved=   1.
 NSaved= 1 IEnMin= 1 EnMin= -388.646322561499     IErMin= 1 ErrMin= 2.18D-03
 ErrMax= 2.18D-03  0.00D+00 EMaxC= 1.00D-01 BMatC= 3.44D-03 BMatP= 3.44D-03
 IDIUse=3 WtCom= 9.78D-01 WtEn= 2.18D-02
 Coeff-Com:  0.100D+01
 Coeff-En:   0.100D+01
 Coeff:      0.100D+01
 Gap=     0.604 Goal=   None    Shift=    0.000
 GapD=    0.604 DampG=2.000 DampE=1.000 DampFc=2.0000 IDamp=-1.
 RMSDP=2.44D-04 MaxDP=7.48D-03              OVMax= 1.59D-02

 Cycle   2  Pass 0  IDiag  1:
 RMSU=  2.43D-04    CP:  9.99D-01
 E= -388.650921180392     Delta-E=       -0.004598618893 Rises=F Damp=F
 DIIS: error= 2.33D-04 at cycle   2 NSaved=   2.
 NSaved= 2 IEnMin= 2 EnMin= -388.650921180392     IErMin= 2 ErrMin= 2.33D-04
 ErrMax= 2.33D-04  0.00D+00 EMaxC= 1.00D-01 BMatC= 3.16D-05 BMatP= 3.44D-03
 IDIUse=3 WtCom= 9.98D-01 WtEn= 2.33D-03
 Coeff-Com: -0.512D-01 0.105D+01
 Coeff-En:   0.000D+00 0.100D+01
 Coeff:     -0.511D-01 0.105D+01
 Gap=     0.216 Goal=   None    Shift=    0.000
 RMSDP=3.49D-05 MaxDP=1.01D-03 DE=-4.60D-03 OVMax= 3.45D-03

 Cycle   3  Pass 0  IDiag  1:
 RMSU=  3.07D-05    CP:  9.99D-01  1.07D+00
 E= -388.650981233736     Delta-E=       -0.000060053344 Rises=F Damp=F
 DIIS: error= 1.15D-04 at cycle   3 NSaved=   3.
 NSaved= 3 IEnMin= 3 EnMin= -388.650981233736     IErMin= 3 ErrMin= 1.15D-04
 ErrMax= 1.15D-04  0.00D+00 EMaxC= 1.00D-01 BMatC= 7.12D-06 BMatP= 3.16D-05
 IDIUse=3 WtCom= 9.99D-01 WtEn= 1.15D-03
 Coeff-Com: -0.211D-01 0.336D+00 0.685D+00
 Coeff-En:   0.000D+00 0.000D+00 0.100D+01
 Coeff:     -0.211D-01 0.335D+00 0.686D+00
 Gap=     0.216 Goal=   None    Shift=    0.000
 RMSDP=1.31D-05 MaxDP=1.13D-03 DE=-6.01D-05 OVMax= 9.92D-04

 Cycle   4  Pass 0  IDiag  1:
 RMSU=  1.13D-05    CP:  9.98D-01  1.07D+00  7.94D-01
 E= -388.650985401004     Delta-E=       -0.000004167269 Rises=F Damp=F
 DIIS: error= 1.09D-04 at cycle   4 NSaved=   4.
 NSaved= 4 IEnMin= 4 EnMin= -388.650985401004     IErMin= 4 ErrMin= 1.09D-04
 ErrMax= 1.09D-04  0.00D+00 EMaxC= 1.00D-01 BMatC= 4.32D-06 BMatP= 7.12D-06
 IDIUse=3 WtCom= 9.99D-01 WtEn= 1.09D-03
 Coeff-Com: -0.811D-02 0.105D+00 0.440D+00 0.463D+00
 Coeff-En:   0.000D+00 0.000D+00 0.287D+00 0.713D+00
 Coeff:     -0.810D-02 0.105D+00 0.440D+00 0.463D+00
 Gap=     0.216 Goal=   None    Shift=    0.000
 RMSDP=7.23D-06 MaxDP=7.65D-04 DE=-4.17D-06 OVMax= 6.92D-04

 Initial convergence to 1.0D-05 achieved.  Increase integral accuracy.
 Cycle   5  Pass 1  IDiag  1:
 E= -388.650993963624     Delta-E=       -0.000008562620 Rises=F Damp=F
 DIIS: error= 9.27D-05 at cycle   1 NSaved=   1.
 NSaved= 1 IEnMin= 1 EnMin= -388.650993963624     IErMin= 1 ErrMin= 9.27D-05
 ErrMax= 9.27D-05  0.00D+00 EMaxC= 1.00D-01 BMatC= 2.50D-06 BMatP= 2.50D-06
 IDIUse=1 WtCom= 1.00D+00 WtEn= 0.00D+00
 Coeff-Com:  0.100D+01
 Coeff:      0.100D+01
 Gap=     0.216 Goal=   None    Shift=    0.000
 RMSDP=7.23D-06 MaxDP=7.65D-04 DE=-8.56D-06 OVMax= 5.73D-04

 Cycle   6  Pass 1  IDiag  1:
 RMSU=  1.02D-04    CP:  1.00D+00
 E= -388.650994060945     Delta-E=       -0.000000097321 Rises=F Damp=F
 DIIS: error= 8.08D-05 at cycle   2 NSaved=   2.
 NSaved= 2 IEnMin= 2 EnMin= -388.650994060945     IErMin= 2 ErrMin= 8.08D-05
 ErrMax= 8.08D-05  0.00D+00 EMaxC= 1.00D-01 BMatC= 2.01D-06 BMatP= 2.50D-06
 IDIUse=1 WtCom= 1.00D+00 WtEn= 0.00D+00
 Coeff-Com:  0.461D+00 0.539D+00
 Coeff:      0.461D+00 0.539D+00
 Gap=     0.216 Goal=   None    Shift=    0.000
 RMSDP=7.41D-06 MaxDP=7.89D-04 DE=-9.73D-08 OVMax= 6.86D-04

 Cycle   7  Pass 1  IDiag  1:
 RMSU=  7.23D-06    CP:  1.00D+00  1.01D+00
 E= -388.650994746431     Delta-E=       -0.000000685486 Rises=F Damp=F
 DIIS: error= 6.17D-05 at cycle   3 NSaved=   3.
 NSaved= 3 IEnMin= 3 EnMin= -388.650994746431     IErMin= 3 ErrMin= 6.17D-05
 ErrMax= 6.17D-05  0.00D+00 EMaxC= 1.00D-01 BMatC= 1.12D-06 BMatP= 2.01D-06
 IDIUse=1 WtCom= 1.00D+00 WtEn= 0.00D+00
 Coeff-Com:  0.103D-01 0.425D+00 0.565D+00
 Coeff:      0.103D-01 0.425D+00 0.565D+00
 Gap=     0.216 Goal=   None    Shift=    0.000
 RMSDP=3.22D-06 MaxDP=3.48D-04 DE=-6.85D-07 OVMax= 2.99D-04

 Cycle   8  Pass 1  IDiag  1:
 RMSU=  8.72D-07    CP:  1.00D+00  1.02D+00  5.96D-01
 E= -388.650995557498     Delta-E=       -0.000000811067 Rises=F Damp=F
 DIIS: error= 4.86D-06 at cycle   4 NSaved=   4.
 NSaved= 4 IEnMin= 4 EnMin= -388.650995557498     IErMin= 4 ErrMin= 4.86D-06
 ErrMax= 4.86D-06  0.00D+00 EMaxC= 1.00D-01 BMatC= 8.20D-09 BMatP= 1.12D-06
 IDIUse=1 WtCom= 1.00D+00 WtEn= 0.00D+00
 Coeff-Com: -0.186D-02 0.197D+00 0.272D+00 0.533D+00
 Coeff:     -0.186D-02 0.197D+00 0.272D+00 0.533D+00
 Gap=     0.216 Goal=   None    Shift=    0.000
 RMSDP=3.25D-07 MaxDP=1.68D-05 DE=-8.11D-07 OVMax= 3.01D-05

 Cycle   9  Pass 1  IDiag  1:
 RMSU=  2.30D-07    CP:  1.00D+00  1.02D+00  6.02D-01  7.43D-01
 E= -388.650995565161     Delta-E=       -0.000000007664 Rises=F Damp=F
 DIIS: error= 1.38D-06 at cycle   5 NSaved=   5.
 NSaved= 5 IEnMin= 5 EnMin= -388.650995565161     IErMin= 5 ErrMin= 1.38D-06
 ErrMax= 1.38D-06  0.00D+00 EMaxC= 1.00D-01 BMatC= 6.89D-10 BMatP= 8.20D-09
 IDIUse=1 WtCom= 1.00D+00 WtEn= 0.00D+00
 Coeff-Com: -0.153D-02 0.989D-01 0.137D+00 0.312D+00 0.453D+00
 Coeff:     -0.153D-02 0.989D-01 0.137D+00 0.312D+00 0.453D+00
 Gap=     0.216 Goal=   None    Shift=    0.000
 RMSDP=6.88D-08 MaxDP=3.57D-06 DE=-7.66D-09 OVMax= 1.44D-05

 Cycle  10  Pass 1  IDiag  1:
 RMSU=  6.47D-08    CP:  1.00D+00  1.02D+00  6.01D-01  7.50D-01  9.09D-01
 E= -388.650995565854     Delta-E=       -0.000000000692 Rises=F Damp=F
 DIIS: error= 4.41D-07 at cycle   6 NSaved=   6.
 NSaved= 6 IEnMin= 6 EnMin= -388.650995565854     IErMin= 6 ErrMin= 4.41D-07
 ErrMax= 4.41D-07  0.00D+00 EMaxC= 1.00D-01 BMatC= 5.32D-11 BMatP= 6.89D-10
 IDIUse=1 WtCom= 1.00D+00 WtEn= 0.00D+00
 Coeff-Com: -0.369D-03 0.675D-02 0.980D-02 0.370D-01 0.202D+00 0.745D+00
 Coeff:     -0.369D-03 0.675D-02 0.980D-02 0.370D-01 0.202D+00 0.745D+00
 Gap=     0.216 Goal=   None    Shift=    0.000
 RMSDP=3.13D-08 MaxDP=1.10D-06 DE=-6.92D-10 OVMax= 5.38D-06

 Cycle  11  Pass 1  IDiag  1:
 RMSU=  2.82D-08    CP:  1.00D+00  1.02D+00  6.02D-01  7.59D-01  9.41D-01
                    CP:  1.00D+00
 E= -388.650995565920     Delta-E=       -0.000000000066 Rises=F Damp=F
 DIIS: error= 1.94D-07 at cycle   7 NSaved=   7.
 NSaved= 7 IEnMin= 7 EnMin= -388.650995565920     IErMin= 7 ErrMin= 1.94D-07
 ErrMax= 1.94D-07  0.00D+00 EMaxC= 1.00D-01 BMatC= 1.42D-11 BMatP= 5.32D-11
 IDIUse=1 WtCom= 1.00D+00 WtEn= 0.00D+00
 Coeff-Com:  0.168D-03-0.193D-01-0.265D-01-0.536D-01 0.282D-02 0.408D+00
 Coeff-Com:  0.688D+00
 Coeff:      0.168D-03-0.193D-01-0.265D-01-0.536D-01 0.282D-02 0.408D+00
 Coeff:      0.688D+00
 Gap=     0.216 Goal=   None    Shift=    0.000
 RMSDP=1.60D-08 MaxDP=5.56D-07 DE=-6.63D-11 OVMax= 2.89D-06

 Cycle  12  Pass 1  IDiag  1:
 RMSU=  1.30D-08    CP:  1.00D+00  1.02D+00  6.01D-01  7.65D-01  9.65D-01
                    CP:  1.07D+00  1.01D+00
 E= -388.650995565936     Delta-E=       -0.000000000016 Rises=F Damp=F
 DIIS: error= 5.23D-08 at cycle   8 NSaved=   8.
 NSaved= 8 IEnMin= 8 EnMin= -388.650995565936     IErMin= 8 ErrMin= 5.23D-08
 ErrMax= 5.23D-08  0.00D+00 EMaxC= 1.00D-01 BMatC= 8.38D-13 BMatP= 1.42D-11
 IDIUse=1 WtCom= 1.00D+00 WtEn= 0.00D+00
 Coeff-Com:  0.974D-04-0.923D-02-0.128D-01-0.268D-01-0.891D-02 0.150D+00
 Coeff-Com:  0.326D+00 0.582D+00
 Coeff:      0.974D-04-0.923D-02-0.128D-01-0.268D-01-0.891D-02 0.150D+00
 Coeff:      0.326D+00 0.582D+00
 Gap=     0.216 Goal=   None    Shift=    0.000
 RMSDP=3.79D-09 MaxDP=1.72D-07 DE=-1.63D-11 OVMax= 3.50D-07

 SCF Done:  E(RB3LYP) =  -388.650995566     A.U. after   12 cycles
            NFock= 12  Conv=0.38D-08     -V/T= 2.0053
 KE= 3.866100470916D+02 PE=-1.762982362902D+03 EE= 5.578674868888D+02
 Leave Link  502 at Tue Jun  4 00:09:52 2024, MaxMem= 13421772800 cpu:             922.4 elap:              28.9
 (Enter /tmpu/scunam/7/gaussian-2016.03/g1/g16/l508.exe)
 QCSCF skips out because SCF is already converged.
 Leave Link  508 at Tue Jun  4 00:09:52 2024, MaxMem= 13421772800 cpu:               0.1 elap:               0.0
 (Enter /tmpu/scunam/7/gaussian-2016.03/g1/g16/l701.exe)
 ... and contract with generalized density number  0.
 Compute integral first derivatives.
   1 Symmetry operations used in ECPInt.
 ECPInt:  NShTT=   12090 NPrTT=   35220 LenC2=   11323 LenP2D=   25591.
 LDataN:  DoStor=T MaxTD1= 7 Len=  274
 Leave Link  701 at Tue Jun  4 00:09:52 2024, MaxMem= 13421772800 cpu:               9.7 elap:               0.3
 (Enter /tmpu/scunam/7/gaussian-2016.03/g1/g16/l702.exe)
 L702 exits ... SP integral derivatives will be done elsewhere.
 Leave Link  702 at Tue Jun  4 00:09:52 2024, MaxMem= 13421772800 cpu:               1.7 elap:               0.1
 (Enter /tmpu/scunam/7/gaussian-2016.03/g1/g16/l703.exe)
 Integral derivatives from FoFJK, PRISM(SPDF).
 Compute integral first derivatives, UseDBF=F ICtDFT=           0.
 Calling FoFJK, ICntrl=      2127 FMM=F ISym2X=0 I1Cent= 0 IOpClX= 0 NMat=1 NMatS=1 NMatT=0.
 FoFJK:  IHMeth= 1 ICntrl=    2127 DoSepK=F KAlg= 0 I1Cent=           0 FoldK=F
 IRaf=         0 NMat=       1 IRICut=       1 DoRegI=T DoRafI=F ISym2E= 0 IDoP0=0 IntGTp=1.
 FoFCou: FMM=F IPFlag=           0 FMFlag=      100000 FMFlg1=         800
         NFxFlg=           0 DoJE=F BraDBF=F KetDBF=F FulRan=T
         wScrn=  0.000000 ICntrl=      2127 IOpCl=  0 I1Cent=           0 NGrid=           0
         NMat0=    1 NMatS0=      1 NMatT0=    0 NMatD0=    1 NMtDS0=    0 NMtDT0=    0
 Symmetry not used in FoFCou.
 Leave Link  703 at Tue Jun  4 00:10:03 2024, MaxMem= 13421772800 cpu:             330.5 elap:              10.4
 (Enter /tmpu/scunam/7/gaussian-2016.03/g1/g16/l716.exe)
 Dipole        =-3.22715721D-01-7.98471677D-01 6.83237814D-01
 ***** Axes restored to original set *****
 -------------------------------------------------------------------
 Center     Atomic                   Forces (Hartrees/Bohr)
 Number     Number              X              Y              Z
 -------------------------------------------------------------------
      1        8           0.000964833   -0.001769946   -0.005599840
      2        6           0.001337202    0.000278691   -0.000140801
      3        6          -0.000847591    0.001519880    0.002102319
      4        6          -0.002168334    0.000606802    0.000697116
      5        6           0.001042007   -0.000152562   -0.000848131
      6        6          -0.000001708    0.001169873    0.008252406
      7        6          -0.001259120    0.000931359   -0.000055938
      8        6          -0.002025646   -0.000313616    0.000272731
      9        6          -0.001423086    0.001334647    0.000721376
     10        1          -0.000115096    0.000069129   -0.000393569
     11        1          -0.000317134   -0.000075418   -0.000326942
     12        1           0.000580112   -0.001079945   -0.001648401
     13        1           0.000196802   -0.000398371   -0.001713185
     14        1          -0.000139749   -0.000008651    0.000032320
     15        1           0.000456704   -0.000654499    0.000028230
     16        1           0.000399848   -0.000138240    0.000476308
     17        1          -0.000244854   -0.000109047    0.000199079
     18        1           0.000628999    0.000183590   -0.000342644
     19        1           0.000806575   -0.000168969    0.000430176
     20        1           0.000722494   -0.000374322   -0.000088004
     21        1           0.000323047   -0.001103871   -0.000942637
     22        1           0.000653899    0.000216483    0.000132795
     23        1           0.000429795    0.000037001   -0.001244763
 -------------------------------------------------------------------
 Cartesian Forces:  Max     0.008252406 RMS     0.001465069
 Leave Link  716 at Tue Jun  4 00:10:03 2024, MaxMem= 13421772800 cpu:               1.6 elap:               0.1
 (Enter /tmpu/scunam/7/gaussian-2016.03/g1/g16/l103.exe)

 GradGradGradGradGradGradGradGradGradGradGradGradGradGradGradGradGradGrad
 Berny optimization.
 Using GEDIIS/GDIIS optimizer.
 FormGI is forming the generalized inverse of G from B-inverse, IUseBI=4.
 Internal  Forces:  Max     0.005864130 RMS     0.000776524
 Search for a local minimum.
 Step number   5 out of a maximum of  138
 All quantities printed in internal units (Hartrees-Bohrs-Radians)
 RMS Force = .77652D-03 SwitMx=.10000D-02 MixMth= 2
 Mixed Optimization -- En-DIIS/RFO-DIIS
 Swapping is turned off.
 Update second derivatives using D2CorX and points    3    4    5
 DE= -2.64D-04 DEPred=-3.41D-04 R= 7.75D-01
 TightC=F SS=  1.41D+00  RLast= 2.51D-01 DXNew= 4.2426D-01 7.5164D-01
 Trust test= 7.75D-01 RLast= 2.51D-01 DXMaxT set to 4.24D-01
 ITU=  1 -1  1  1  0
     Eigenvalues ---    0.00154   0.00423   0.00516   0.00676   0.00695
     Eigenvalues ---    0.00735   0.01311   0.01594   0.02861   0.02912
     Eigenvalues ---    0.03946   0.04152   0.05527   0.05592   0.06877
     Eigenvalues ---    0.07026   0.07271   0.07288   0.07375   0.08014
     Eigenvalues ---    0.09362   0.09869   0.12835   0.13274   0.15992
     Eigenvalues ---    0.15999   0.16000   0.16000   0.16000   0.16000
     Eigenvalues ---    0.16029   0.16196   0.16440   0.16917   0.21662
     Eigenvalues ---    0.21936   0.22984   0.24999   0.25060   0.25100
     Eigenvalues ---    0.26567   0.29916   0.30590   0.31722   0.31863
     Eigenvalues ---    0.32214   0.33334   0.33987   0.34130   0.34181
     Eigenvalues ---    0.34209   0.34240   0.34246   0.34261   0.34272
     Eigenvalues ---    0.34430   0.34464   0.34529   0.34619   0.34911
     Eigenvalues ---    0.36840   0.57337   1.01586
 En-DIIS/RFO-DIIS/Sim-DIIS IScMMF=       -3 using points:     5    4    3    2
 RFO step:  Lambda=-1.83760135D-04.
 NNeg= 0 NGDIIS= 4 SimSw=  2.50D-03 Rises=F DC= -2.64D-04 SmlDif=  1.00D-05
 NRisDI= 0 DoIntr=F SqrtH=F CThrHd= 10.0 CDAdj=  3.0
 RMS Error=  0.9215578357D-02 NUsed= 4 OKEnD=T EnDIS=F
 InvSVX:  RCond= 5.05D-05 Info=           0 Equed=N FErr=  8.01D-13 BErr=  7.49D-17
 DidBck=F Rises=F RFO-DIIS coefs:    1.14068    0.16761   -0.48201    0.17373
 Iteration  1 RMS(Cart)=  0.02592659 RMS(Int)=  0.00019202
 Iteration  2 RMS(Cart)=  0.00028570 RMS(Int)=  0.00002767
 Iteration  3 RMS(Cart)=  0.00000003 RMS(Int)=  0.00002767
 ITry= 1 IFail=0 DXMaxC= 8.27D-02 DCOld= 1.00D+10 DXMaxT= 4.24D-01 DXLimC= 3.00D+00 Rises=F
 Variable       Old X    -DE/DX   Delta X   Delta X   Delta X     New X
                                 (Linear)    (Quad)   (Total)
    R1        2.27776   0.00586  -0.00060   0.00424   0.00364   2.28140
    R2        2.89206   0.00060  -0.00027   0.00087   0.00060   2.89266
    R3        2.82953   0.00196  -0.00217   0.00485   0.00268   2.83221
    R4        2.05765   0.00038   0.00004   0.00041   0.00045   2.05810
    R5        2.06665   0.00004   0.00046   0.00003   0.00048   2.06714
    R6        2.87039   0.00041  -0.00003   0.00047   0.00044   2.87083
    R7        2.07624  -0.00103   0.00063  -0.00212  -0.00149   2.07475
    R8        2.07416  -0.00075   0.00059  -0.00175  -0.00115   2.07300
    R9        2.52602  -0.00086   0.00026  -0.00071  -0.00045   2.52557
   R10        2.05707   0.00004   0.00038  -0.00012   0.00027   2.05733
   R11        2.84174   0.00088  -0.00030   0.00167   0.00137   2.84311
   R12        2.84465  -0.00065  -0.00029  -0.00062  -0.00091   2.84373
   R13        2.86673  -0.00056   0.00079  -0.00186  -0.00107   2.86566
   R14        2.06994  -0.00016   0.00010  -0.00027  -0.00017   2.06977
   R15        2.07003  -0.00006   0.00034  -0.00048  -0.00015   2.06988
   R16        2.05915   0.00020  -0.00007   0.00042   0.00035   2.05950
   R17        2.05331   0.00073  -0.00017   0.00109   0.00092   2.05423
   R18        2.06985  -0.00023   0.00022  -0.00046  -0.00024   2.06961
   R19        2.07032  -0.00035   0.00030  -0.00095  -0.00065   2.06967
   R20        2.06672  -0.00039   0.00017  -0.00067  -0.00050   2.06621
   R21        2.05368   0.00051  -0.00009   0.00085   0.00075   2.05443
   R22        2.06687  -0.00024   0.00030  -0.00073  -0.00043   2.06644
    A1        1.95776   0.00034  -0.00071   0.00079   0.00008   1.95784
    A2        1.90147   0.00012  -0.00024   0.00123   0.00099   1.90247
    A3        1.88530   0.00009  -0.00049   0.00128   0.00079   1.88609
    A4        1.95462  -0.00023   0.00049  -0.00080  -0.00031   1.95431
    A5        1.91432  -0.00024   0.00057  -0.00099  -0.00041   1.91391
    A6        1.84579  -0.00009   0.00040  -0.00158  -0.00117   1.84462
    A7        1.99470   0.00137   0.00000   0.00139   0.00139   1.99608
    A8        1.93808  -0.00061   0.00108  -0.00331  -0.00223   1.93585
    A9        1.93626  -0.00079   0.00052  -0.00284  -0.00232   1.93394
   A10        1.88446  -0.00070   0.00010  -0.00238  -0.00228   1.88218
   A11        1.89213  -0.00050   0.00071  -0.00357  -0.00285   1.88927
   A12        1.80799   0.00121  -0.00268   0.01167   0.00898   1.81697
   A13        2.24372  -0.00024   0.00179  -0.00050   0.00129   2.24501
   A14        1.99882   0.00026  -0.00139   0.00082  -0.00058   1.99825
   A15        2.04051  -0.00001  -0.00041  -0.00022  -0.00063   2.03988
   A16        2.10938   0.00013  -0.00027  -0.00030  -0.00057   2.10881
   A17        2.17847  -0.00045   0.00054  -0.00014   0.00040   2.17887
   A18        1.99533   0.00032  -0.00026   0.00043   0.00017   1.99549
   A19        2.13621  -0.00090   0.00066  -0.00257  -0.00175   2.13446
   A20        2.12282  -0.00037  -0.00007  -0.00076  -0.00066   2.12216
   A21        2.02396   0.00128  -0.00093   0.00337   0.00260   2.02656
   A22        1.93873  -0.00036  -0.00025  -0.00033  -0.00058   1.93815
   A23        1.93680   0.00002   0.00009   0.00003   0.00012   1.93692
   A24        1.95235   0.00025   0.00058  -0.00051   0.00007   1.95242
   A25        1.84873   0.00064  -0.00115   0.00495   0.00379   1.85253
   A26        1.89179  -0.00025   0.00037  -0.00212  -0.00175   1.89004
   A27        1.89162  -0.00030   0.00028  -0.00181  -0.00154   1.89009
   A28        1.98092  -0.00003   0.00053  -0.00120  -0.00066   1.98025
   A29        1.93049  -0.00054  -0.00031  -0.00097  -0.00128   1.92922
   A30        1.92645   0.00009  -0.00050   0.00111   0.00061   1.92705
   A31        1.88836  -0.00009   0.00057  -0.00218  -0.00160   1.88676
   A32        1.88629  -0.00018   0.00063  -0.00187  -0.00123   1.88505
   A33        1.84571   0.00081  -0.00101   0.00551   0.00450   1.85021
   A34        1.92979  -0.00091  -0.00028  -0.00144  -0.00172   1.92807
   A35        1.91884   0.00058   0.00047   0.00002   0.00049   1.91933
   A36        1.92626  -0.00026   0.00009  -0.00117  -0.00108   1.92518
   A37        1.92048  -0.00030   0.00095  -0.00335  -0.00240   1.91808
   A38        1.84835   0.00138  -0.00204   0.00939   0.00734   1.85569
   A39        1.91911  -0.00049   0.00074  -0.00324  -0.00250   1.91661
    D1        3.06649  -0.00003  -0.00825   0.00836   0.00011   3.06661
    D2        0.92963   0.00036  -0.00923   0.01306   0.00384   0.93347
    D3       -1.07108  -0.00029  -0.00689   0.00243  -0.00446  -1.07555
    D4       -1.04252  -0.00001  -0.00829   0.00878   0.00050  -1.04202
    D5        3.10381   0.00038  -0.00926   0.01348   0.00422   3.10803
    D6        1.10309  -0.00027  -0.00693   0.00285  -0.00408   1.09901
    D7        0.95466  -0.00000  -0.00819   0.00823   0.00004   0.95470
    D8       -1.18220   0.00039  -0.00917   0.01294   0.00377  -1.17844
    D9        3.10027  -0.00026  -0.00683   0.00230  -0.00453   3.09574
   D10        1.91771   0.00028   0.03431   0.00873   0.04304   1.96075
   D11       -1.20575   0.00013   0.03437   0.00202   0.03639  -1.16936
   D12       -0.22673   0.00005   0.03478   0.00712   0.04190  -0.18483
   D13        2.93299  -0.00010   0.03485   0.00041   0.03526   2.96825
   D14       -2.27045   0.00045   0.03361   0.01020   0.04381  -2.22664
   D15        0.88928   0.00030   0.03368   0.00348   0.03716   0.92644
   D16       -0.02481   0.00029   0.00835  -0.00116   0.00719  -0.01762
   D17        3.13761  -0.00040  -0.00814  -0.00346  -0.01160   3.12601
   D18        2.14102  -0.00009   0.00983  -0.00632   0.00352   2.14454
   D19       -0.97974  -0.00078  -0.00666  -0.00861  -0.01527  -0.99502
   D20       -2.19416   0.00073   0.00711   0.00432   0.01144  -2.18272
   D21        0.96826   0.00004  -0.00938   0.00203  -0.00735   0.96091
   D22       -3.13507   0.00002   0.00167  -0.00534  -0.00367  -3.13874
   D23        0.01209   0.00002   0.00004  -0.00286  -0.00281   0.00927
   D24       -0.01198   0.00018   0.00160   0.00151   0.00311  -0.00886
   D25        3.13518   0.00018  -0.00003   0.00400   0.00397   3.13914
   D26       -2.11827   0.00035  -0.00044   0.00584   0.00540  -2.11287
   D27        2.11313  -0.00024   0.00109  -0.00013   0.00097   2.11409
   D28       -0.00179  -0.00004   0.00027   0.00253   0.00280   0.00102
   D29        1.01831   0.00036   0.00104   0.00359   0.00463   1.02294
   D30       -1.03347  -0.00023   0.00257  -0.00237   0.00020  -1.03328
   D31        3.13480  -0.00004   0.00175   0.00029   0.00203   3.13683
   D32       -0.00134  -0.00013   0.00911  -0.00588   0.00323   0.00189
   D33       -2.12752   0.00041   0.00819  -0.00146   0.00673  -2.12079
   D34        2.11915  -0.00031   0.00993  -0.00832   0.00161   2.12076
   D35       -3.13769  -0.00013   0.00757  -0.00353   0.00404  -3.13366
   D36        1.01931   0.00040   0.00666   0.00088   0.00754   1.02685
   D37       -1.01721  -0.00032   0.00840  -0.00598   0.00242  -1.01479
   D38       -2.12675   0.00020  -0.00994   0.00357  -0.00637  -2.13312
   D39       -0.00276  -0.00039  -0.00861  -0.00157  -0.01018  -0.01294
   D40        2.11721  -0.00079  -0.00731  -0.00638  -0.01369   2.10353
   D41        0.99419   0.00087   0.00645   0.00582   0.01226   1.00645
   D42        3.11818   0.00029   0.00778   0.00068   0.00845   3.12663
   D43       -1.04503  -0.00012   0.00908  -0.00413   0.00495  -1.04009
         Item               Value     Threshold  Converged?
 Maximum Force            0.005864     0.000450     NO 
 RMS     Force            0.000777     0.000300     NO 
 Maximum Displacement     0.082716     0.001800     NO 
 RMS     Displacement     0.025880     0.001200     NO 
 Predicted change in Energy=-9.237014D-05
 Lowest energy point so far.  Saving SCF results.
 GradGradGradGradGradGradGradGradGradGradGradGradGradGradGradGradGradGrad

 Leave Link  103 at Tue Jun  4 00:10:03 2024, MaxMem= 13421772800 cpu:               1.7 elap:               0.1
 (Enter /tmpu/scunam/7/gaussian-2016.03/g1/g16/l202.exe)
                          Input orientation:                          
 ---------------------------------------------------------------------
 Center     Atomic      Atomic             Coordinates (Angstroms)
 Number     Number       Type             X           Y           Z
 ---------------------------------------------------------------------
      1          8           0        2.777924   -0.443589   -1.040871
      2          6           0        0.048199   -0.551510   -0.338415
      3          6           0        1.096301    0.086818    0.576543
      4          6           0       -1.308716   -0.590574    0.296780
      5          6           0       -2.411649    0.080117   -0.049454
      6          6           0        2.511042    0.059401    0.023677
      7          6           0       -3.692195   -0.091459    0.721461
      8          6           0       -2.507277    1.039483   -1.204882
      9          6           0        3.578450    0.700525    0.889237
     10          1           0        0.037752   -0.021286   -1.289673
     11          1           0        0.375278   -1.569199   -0.570596
     12          1           0        1.109524   -0.403148    1.558974
     13          1           0        0.835274    1.128434    0.800780
     14          1           0       -1.384551   -1.250863    1.159058
     15          1           0       -4.498050   -0.448288    0.071154
     16          1           0       -4.033485    0.864688    1.132628
     17          1           0       -3.579085   -0.796886    1.544461
     18          1           0       -1.576729    1.146748   -1.756476
     19          1           0       -2.812447    2.031780   -0.856079
     20          1           0       -3.281973    0.714924   -1.907744
     21          1           0        3.606803    0.227476    1.874595
     22          1           0        4.549323    0.611821    0.408141
     23          1           0        3.344890    1.754888    1.061100
 ---------------------------------------------------------------------
                    Distance matrix (angstroms):
                    1          2          3          4          5
     1  O    0.000000
     2  C    2.820725   0.000000
     3  C    2.392742   1.530729   0.000000
     4  C    4.302504   1.498739   2.514207   0.000000
     5  C    5.309317   2.556033   3.563374   1.336476   0.000000
     6  C    1.207264   2.563185   1.519178   3.884276   4.923278
     7  C    6.715076   3.914784   4.794005   2.471931   1.504509
     8  C    5.491790   3.132487   4.131201   2.519647   1.504838
     9  C    2.382258   3.941750   2.575942   5.089434   6.094861
    10  H    2.783664   1.089099   2.148249   2.157290   2.747361
    11  H    2.694599   1.093883   2.139671   2.132108   3.280060
    12  H    3.089399   2.179107   1.097912   2.734254   3.901185
    13  H    3.104323   2.177031   1.096987   2.793868   3.516302
    14  H    4.776775   2.187303   2.878080   1.088695   2.070494
    15  H    7.360463   4.565827   5.642563   3.200469   2.155650
    16  H    7.268492   4.563960   5.218143   3.200124   2.154813
    17  H    6.871705   4.094218   4.855619   2.598816   2.161622
    18  H    4.690870   2.745062   3.702906   2.702958   2.179155
    19  H    6.116685   3.889043   4.594953   3.235279   2.149481
    20  H    6.230247   3.893159   5.073015   3.233882   2.147948
    21  H    3.104402   4.262382   2.829725   5.226953   6.320241
    22  H    2.520195   4.708589   3.496763   5.981202   6.996231
    23  H    3.094031   4.259845   2.841373   5.267013   6.097207
                    6          7          8          9         10
     6  C    0.000000
     7  C    6.244182   0.000000
     8  C    5.258654   2.528608   0.000000
     9  C    1.516441   7.315577   6.444866   0.000000
    10  H    2.801528   4.238171   2.758549   4.219621   0.000000
    11  H    2.750815   4.516355   3.939119   4.188444   1.739836
    12  H    2.129633   4.884167   4.775074   2.786079   3.067458
    13  H    2.134225   4.689606   3.899133   2.777759   2.515530
    14  H    4.263980   2.619338   3.477702   5.339672   3.087247
    15  H    7.027615   1.095275   2.793726   8.198712   4.754754
    16  H    6.686485   1.095333   2.797108   7.617594   4.819488
    17  H    6.335271   1.089840   3.475616   7.341789   4.659977
    18  H    4.589241   3.485474   1.087052   5.811607   2.046645
    19  H    5.744891   2.787604   1.095192   6.757361   3.539310
    20  H    6.141589   2.780513   1.095220   7.408691   3.456095
    21  H    2.157508   7.396406   6.893802   1.093394   4.776254
    22  H    2.146526   8.277403   7.251231   1.087160   4.861859
    23  H    2.155510   7.283194   6.316196   1.093512   4.429231
                   11         12         13         14         15
    11  H    0.000000
    12  H    2.536505   0.000000
    13  H    3.060962   1.730842   0.000000
    14  H    2.487979   2.664388   3.273689   0.000000
    15  H    5.041588   5.801769   5.609166   3.394339   0.000000
    16  H    5.316199   5.314106   4.887177   3.390149   1.751129
    17  H    4.550486   4.705135   4.873036   2.273898   1.771059
    18  H    3.548663   4.539861   3.515345   3.779658   3.797168
    19  H    4.817690   5.209914   4.106955   4.107969   3.138751
    20  H    4.514495   5.705564   4.945585   4.107287   2.597680
    21  H    4.432804   2.594939   3.105830   5.254626   8.330528
    22  H    4.810138   3.766536   3.770307   6.264530   9.115501
    23  H    4.746638   3.146721   2.599689   5.604618   8.206441
                   16         17         18         19         20
    16  H    0.000000
    17  H    1.771134   0.000000
    18  H    3.802910   4.322422   0.000000
    19  H    2.609213   3.788361   1.766633   0.000000
    20  H    3.135452   3.780418   1.765563   1.749446   0.000000
    21  H    7.702633   7.266037   6.395212   7.205474   7.873940
    22  H    8.617042   8.327467   6.519220   7.603301   8.167200
    23  H    7.432226   7.395040   5.703586   6.454846   7.335589
                   21         22         23
    21  H    0.000000
    22  H    1.785092   0.000000
    23  H    1.750245   1.784269   0.000000
 Stoichiometry    C8H14O
 Framework group  C1[X(C8H14O)]
 Deg. of freedom    63
 Full point group                 C1      NOp   1
 RotChk:  IX=0 Diff= 4.28D-03
 Largest Abelian subgroup         C1      NOp   1
 Largest concise Abelian subgroup C1      NOp   1
                         Standard orientation:                         
 ---------------------------------------------------------------------
 Center     Atomic      Atomic             Coordinates (Angstroms)
 Number     Number       Type             X           Y           Z
 ---------------------------------------------------------------------
      1          8           0        2.758868    1.043895   -0.685037
      2          6           0        0.055020    0.240511   -0.668541
      3          6           0        1.132254   -0.522117    0.106764
      4          6           0       -1.279288   -0.438504   -0.599430
      5          6           0       -2.395021   -0.025615    0.009528
      6          6           0        2.527328    0.066872   -0.014736
      7          6           0       -3.648047   -0.857413   -0.030275
      8          6           0       -2.532397    1.266541    0.768475
      9          6           0        3.622160   -0.645930    0.755231
     10          1           0        0.010786    1.264434   -0.300080
     11          1           0        0.376414    0.315071   -1.711482
     12          1           0        1.180232   -1.570135   -0.216914
     13          1           0        0.876544   -0.582697    1.171810
     14          1           0       -1.324014   -1.398787   -1.110421
     15          1           0       -4.474804   -0.301696   -0.485556
     16          1           0       -3.977376   -1.118965    0.981104
     17          1           0       -3.505174   -1.779860   -0.592795
     18          1           0       -1.621510    1.859663    0.781616
     19          1           0       -2.827845    1.073599    1.805262
     20          1           0       -3.329887    1.880394    0.336385
     21          1           0        3.685320   -1.693567    0.448673
     22          1           0        4.576230   -0.152829    0.586353
     23          1           0        3.392081   -0.651854    1.824247
 ---------------------------------------------------------------------
 Rotational constants (GHZ):           4.0237660           0.5854648           0.5637634
 Leave Link  202 at Tue Jun  4 00:10:03 2024, MaxMem= 13421772800 cpu:               2.7 elap:               0.1
 (Enter /tmpu/scunam/7/gaussian-2016.03/g1/g16/l301.exe)
 Standard basis: def2TZVP (5D, 7F)
 Ernie: Thresh=  0.10000D-02 Tol=  0.10000D-05 Strict=F.
 There are   408 symmetry adapted cartesian basis functions of A   symmetry.
 There are   363 symmetry adapted basis functions of A   symmetry.
   363 basis functions,   571 primitive gaussians,   408 cartesian basis functions
    35 alpha electrons       35 beta electrons
       nuclear repulsion energy       429.4861975993 Hartrees.
 IExCor=  402 DFT=T Ex+Corr=B3LYP ExCW=0 ScaHFX=  0.200000
 ScaDFX=  0.800000  0.720000  1.000000  0.810000 ScalE2=  1.000000  1.000000
 IRadAn=      5 IRanWt=     -1 IRanGd=            0 ICorTp=0 IEmpDi=  4
 NAtoms=   23 NActive=   23 NUniq=   23 SFac= 1.00D+00 NAtFMM=   60 NAOKFM=F Big=F
 Integral buffers will be    131072 words long.
 Raffenetti 2 integral format.
 Two-electron integral symmetry is turned on.
 Leave Link  301 at Tue Jun  4 00:10:03 2024, MaxMem= 13421772800 cpu:               2.5 elap:               0.1
 (Enter /tmpu/scunam/7/gaussian-2016.03/g1/g16/l302.exe)
 NPDir=0 NMtPBC=     1 NCelOv=     1 NCel=       1 NClECP=     1 NCelD=      1
         NCelK=      1 NCelE2=     1 NClLst=     1 CellRange=     0.0.
 One-electron integrals computed using PRISM.
 One-electron integral symmetry used in STVInt
   1 Symmetry operations used in ECPInt.
 ECPInt:  NShTT=   12090 NPrTT=   35220 LenC2=   11321 LenP2D=   25569.
 LDataN:  DoStor=T MaxTD1= 6 Len=  172
 NBasis=   363 RedAO= T EigKep=  7.58D-05  NBF=   363
 NBsUse=   363 1.00D-06 EigRej= -1.00D+00 NBFU=   363
 Precomputing XC quadrature grid using
 IXCGrd= 4 IRadAn=           5 IRanWt=          -1 IRanGd=           0 AccXCQ= 0.00D+00.
 Generated NRdTot=       0 NPtTot=           0 NUsed=           0 NTot=          32
 NSgBfM=   405   405   405   405   405 MxSgAt=    23 MxSgA2=    23.
 Leave Link  302 at Tue Jun  4 00:10:04 2024, MaxMem= 13421772800 cpu:              11.6 elap:               0.4
 (Enter /tmpu/scunam/7/gaussian-2016.03/g1/g16/l303.exe)
 DipDrv:  MaxL=1.
 Leave Link  303 at Tue Jun  4 00:10:04 2024, MaxMem= 13421772800 cpu:               1.6 elap:               0.1
 (Enter /tmpu/scunam/7/gaussian-2016.03/g1/g16/l401.exe)
 Initial guess from the checkpoint file:  "S36.chk"
 B after Tr=     0.000000   -0.000000   -0.000000
         Rot=    0.999998   -0.001712    0.000066   -0.001063 Ang=  -0.23 deg.
 Guess basis will be translated and rotated to current coordinates.
 JPrj=2 DoOrth=T DoCkMO=T.
 Generating alternative initial guess.
 ExpMin= 9.52D-02 ExpMax= 2.70D+04 ExpMxC= 9.22D+02 IAcc=2 IRadAn=         4 AccDes= 0.00D+00
 Harris functional with IExCor=  402 and IRadAn=       4 diagonalized for initial guess.
 HarFok:  IExCor=  402 AccDes= 0.00D+00 IRadAn=         4 IDoV= 1 UseB2=F ITyADJ=14
 ICtDFT=  3500011 ScaDFX=  1.000000  1.000000  1.000000  1.000000
 FoFCou: FMM=F IPFlag=           0 FMFlag=      100000 FMFlg1=           0
         NFxFlg=           0 DoJE=T BraDBF=F KetDBF=T FulRan=T
         wScrn=  0.000000 ICntrl=       500 IOpCl=  0 I1Cent=   200000004 NGrid=           0
         NMat0=    1 NMatS0=      1 NMatT0=    0 NMatD0=    1 NMtDS0=    0 NMtDT0=    0
 Petite list used in FoFCou.
 Harris En= -388.761636929654    
 Leave Link  401 at Tue Jun  4 00:10:05 2024, MaxMem= 13421772800 cpu:              27.9 elap:               0.9
 (Enter /tmpu/scunam/7/gaussian-2016.03/g1/g16/l502.exe)
 Integral symmetry usage will be decided dynamically.
 Closed shell SCF:
 Using DIIS extrapolation, IDIIS=  1040.
 NGot= 13421772800 LenX= 13421422965 LenY= 13421256060
 Requested convergence on RMS density matrix=1.00D-08 within 128 cycles.
 Requested convergence on MAX density matrix=1.00D-06.
 Requested convergence on             energy=1.00D-06.
 No special actions if energy rises.
 Fock matrices will be formed incrementally for  20 cycles.
 Integral accuracy reduced to 1.0D-05 until final iterations.

 Cycle   1  Pass 0  IDiag  1:
 FoFJK:  IHMeth= 1 ICntrl=       0 DoSepK=F KAlg= 0 I1Cent=           0 FoldK=F
 IRaf= 890000000 NMat=       1 IRICut=       1 DoRegI=T DoRafI=F ISym2E= 0 IDoP0=0 IntGTp=1.
 FoFCou: FMM=F IPFlag=           0 FMFlag=      100000 FMFlg1=           0
         NFxFlg=           0 DoJE=F BraDBF=F KetDBF=F FulRan=T
         wScrn=  0.000000 ICntrl=         0 IOpCl=  0 I1Cent=           0 NGrid=           0
         NMat0=    1 NMatS0=      1 NMatT0=    0 NMatD0=    1 NMtDS0=    0 NMtDT0=    0
 Symmetry not used in FoFCou.
 E= -388.649997494554    
 DIIS: error= 1.24D-03 at cycle   1 NSaved=   1.
 NSaved= 1 IEnMin= 1 EnMin= -388.649997494554     IErMin= 1 ErrMin= 1.24D-03
 ErrMax= 1.24D-03  0.00D+00 EMaxC= 1.00D-01 BMatC= 8.37D-04 BMatP= 8.37D-04
 IDIUse=3 WtCom= 9.88D-01 WtEn= 1.24D-02
 Coeff-Com:  0.100D+01
 Coeff-En:   0.100D+01
 Coeff:      0.100D+01
 Gap=     0.605 Goal=   None    Shift=    0.000
 GapD=    0.605 DampG=2.000 DampE=1.000 DampFc=2.0000 IDamp=-1.
 RMSDP=1.42D-04 MaxDP=4.16D-03              OVMax= 7.80D-03

 Cycle   2  Pass 0  IDiag  1:
 RMSU=  1.42D-04    CP:  1.00D+00
 E= -388.651121430039     Delta-E=       -0.001123935485 Rises=F Damp=F
 DIIS: error= 1.16D-04 at cycle   2 NSaved=   2.
 NSaved= 2 IEnMin= 2 EnMin= -388.651121430039     IErMin= 2 ErrMin= 1.16D-04
 ErrMax= 1.16D-04  0.00D+00 EMaxC= 1.00D-01 BMatC= 1.22D-05 BMatP= 8.37D-04
 IDIUse=3 WtCom= 9.99D-01 WtEn= 1.16D-03
 Coeff-Com: -0.520D-01 0.105D+01
 Coeff-En:   0.000D+00 0.100D+01
 Coeff:     -0.520D-01 0.105D+01
 Gap=     0.216 Goal=   None    Shift=    0.000
 RMSDP=2.25D-05 MaxDP=1.78D-03 DE=-1.12D-03 OVMax= 1.38D-03

 Cycle   3  Pass 0  IDiag  1:
 RMSU=  2.09D-05    CP:  9.99D-01  1.05D+00
 E= -388.651130628492     Delta-E=       -0.000009198454 Rises=F Damp=F
 DIIS: error= 2.09D-04 at cycle   3 NSaved=   3.
 NSaved= 3 IEnMin= 3 EnMin= -388.651130628492     IErMin= 2 ErrMin= 1.16D-04
 ErrMax= 2.09D-04  0.00D+00 EMaxC= 1.00D-01 BMatC= 1.18D-05 BMatP= 1.22D-05
 IDIUse=3 WtCom= 9.98D-01 WtEn= 2.09D-03
 Coeff-Com: -0.343D-01 0.555D+00 0.479D+00
 Coeff-En:   0.000D+00 0.995D-01 0.900D+00
 Coeff:     -0.342D-01 0.554D+00 0.480D+00
 Gap=     0.216 Goal=   None    Shift=    0.000
 RMSDP=1.65D-05 MaxDP=1.80D-03 DE=-9.20D-06 OVMax= 1.41D-03

 Cycle   4  Pass 0  IDiag  1:
 RMSU=  1.03D-05    CP:  1.00D+00  1.06D+00  4.02D-01
 E= -388.651137464858     Delta-E=       -0.000006836365 Rises=F Damp=F
 DIIS: error= 1.03D-04 at cycle   4 NSaved=   4.
 NSaved= 4 IEnMin= 4 EnMin= -388.651137464858     IErMin= 4 ErrMin= 1.03D-04
 ErrMax= 1.03D-04  0.00D+00 EMaxC= 1.00D-01 BMatC= 3.13D-06 BMatP= 1.18D-05
 IDIUse=3 WtCom= 9.99D-01 WtEn= 1.03D-03
 Coeff-Com: -0.107D-01 0.152D+00 0.337D+00 0.522D+00
 Coeff-En:   0.000D+00 0.000D+00 0.230D+00 0.770D+00
 Coeff:     -0.107D-01 0.152D+00 0.337D+00 0.522D+00
 Gap=     0.216 Goal=   None    Shift=    0.000
 RMSDP=5.66D-06 MaxDP=6.40D-04 DE=-6.84D-06 OVMax= 5.24D-04

 Initial convergence to 1.0D-05 achieved.  Increase integral accuracy.
 Cycle   5  Pass 1  IDiag  1:
 E= -388.651141461360     Delta-E=       -0.000003996503 Rises=F Damp=F
 DIIS: error= 9.17D-05 at cycle   1 NSaved=   1.
 NSaved= 1 IEnMin= 1 EnMin= -388.651141461360     IErMin= 1 ErrMin= 9.17D-05
 ErrMax= 9.17D-05  0.00D+00 EMaxC= 1.00D-01 BMatC= 2.05D-06 BMatP= 2.05D-06
 IDIUse=1 WtCom= 1.00D+00 WtEn= 0.00D+00
 Coeff-Com:  0.100D+01
 Coeff:      0.100D+01
 Gap=     0.216 Goal=   None    Shift=    0.000
 RMSDP=5.66D-06 MaxDP=6.40D-04 DE=-4.00D-06 OVMax= 2.65D-04

 Cycle   6  Pass 1  IDiag  1:
 RMSU=  1.02D-04    CP:  1.00D+00
 E= -388.651142520552     Delta-E=       -0.000001059192 Rises=F Damp=F
 DIIS: error= 2.20D-05 at cycle   2 NSaved=   2.
 NSaved= 2 IEnMin= 2 EnMin= -388.651142520552     IErMin= 2 ErrMin= 2.20D-05
 ErrMax= 2.20D-05  0.00D+00 EMaxC= 1.00D-01 BMatC= 1.73D-07 BMatP= 2.05D-06
 IDIUse=1 WtCom= 1.00D+00 WtEn= 0.00D+00
 Coeff-Com:  0.110D+00 0.890D+00
 Coeff:      0.110D+00 0.890D+00
 Gap=     0.216 Goal=   None    Shift=    0.000
 RMSDP=2.68D-06 MaxDP=1.79D-04 DE=-1.06D-06 OVMax= 2.45D-04

 Cycle   7  Pass 1  IDiag  1:
 RMSU=  2.15D-06    CP:  1.00D+00  1.02D+00
 E= -388.651142318266     Delta-E=        0.000000202286 Rises=F Damp=F
 DIIS: error= 3.46D-05 at cycle   3 NSaved=   3.
 NSaved= 3 IEnMin= 2 EnMin= -388.651142520552     IErMin= 2 ErrMin= 2.20D-05
 ErrMax= 3.46D-05  0.00D+00 EMaxC= 1.00D-01 BMatC= 4.44D-07 BMatP= 1.73D-07
 IDIUse=1 WtCom= 1.00D+00 WtEn= 0.00D+00
 Coeff-Com:  0.380D-02 0.617D+00 0.379D+00
 Coeff:      0.380D-02 0.617D+00 0.379D+00
 Gap=     0.216 Goal=   None    Shift=    0.000
 RMSDP=1.73D-06 MaxDP=1.85D-04 DE= 2.02D-07 OVMax= 1.83D-04

 Cycle   8  Pass 1  IDiag  1:
 RMSU=  8.70D-07    CP:  1.00D+00  1.02D+00  3.28D-01
 E= -388.651142655110     Delta-E=       -0.000000336844 Rises=F Damp=F
 DIIS: error= 5.64D-06 at cycle   4 NSaved=   4.
 NSaved= 4 IEnMin= 4 EnMin= -388.651142655110     IErMin= 4 ErrMin= 5.64D-06
 ErrMax= 5.64D-06  0.00D+00 EMaxC= 1.00D-01 BMatC= 1.17D-08 BMatP= 1.73D-07
 IDIUse=1 WtCom= 1.00D+00 WtEn= 0.00D+00
 Coeff-Com: -0.213D-02 0.345D+00 0.234D+00 0.424D+00
 Coeff:     -0.213D-02 0.345D+00 0.234D+00 0.424D+00
 Gap=     0.216 Goal=   None    Shift=    0.000
 RMSDP=4.21D-07 MaxDP=4.10D-05 DE=-3.37D-07 OVMax= 2.60D-05

 Cycle   9  Pass 1  IDiag  1:
 RMSU=  1.97D-07    CP:  1.00D+00  1.02D+00  4.09D-01  6.31D-01
 E= -388.651142664662     Delta-E=       -0.000000009552 Rises=F Damp=F
 DIIS: error= 4.16D-07 at cycle   5 NSaved=   5.
 NSaved= 5 IEnMin= 5 EnMin= -388.651142664662     IErMin= 5 ErrMin= 4.16D-07
 ErrMax= 4.16D-07  0.00D+00 EMaxC= 1.00D-01 BMatC= 8.74D-11 BMatP= 1.17D-08
 IDIUse=1 WtCom= 1.00D+00 WtEn= 0.00D+00
 Coeff-Com: -0.110D-02 0.155D+00 0.106D+00 0.204D+00 0.536D+00
 Coeff:     -0.110D-02 0.155D+00 0.106D+00 0.204D+00 0.536D+00
 Gap=     0.216 Goal=   None    Shift=    0.000
 RMSDP=3.99D-08 MaxDP=2.45D-06 DE=-9.55D-09 OVMax= 4.72D-06

 Cycle  10  Pass 1  IDiag  1:
 RMSU=  3.32D-08    CP:  1.00D+00  1.02D+00  4.05D-01  6.49D-01  9.48D-01
 E= -388.651142664739     Delta-E=       -0.000000000077 Rises=F Damp=F
 DIIS: error= 2.46D-07 at cycle   6 NSaved=   6.
 NSaved= 6 IEnMin= 6 EnMin= -388.651142664739     IErMin= 6 ErrMin= 2.46D-07
 ErrMax= 2.46D-07  0.00D+00 EMaxC= 1.00D-01 BMatC= 1.62D-11 BMatP= 8.74D-11
 IDIUse=1 WtCom= 1.00D+00 WtEn= 0.00D+00
 Coeff-Com: -0.384D-03 0.477D-01 0.325D-01 0.664D-01 0.312D+00 0.542D+00
 Coeff:     -0.384D-03 0.477D-01 0.325D-01 0.664D-01 0.312D+00 0.542D+00
 Gap=     0.216 Goal=   None    Shift=    0.000
 RMSDP=1.22D-08 MaxDP=5.51D-07 DE=-7.74D-11 OVMax= 2.35D-06

 Cycle  11  Pass 1  IDiag  1:
 RMSU=  1.00D-08    CP:  1.00D+00  1.02D+00  4.05D-01  6.52D-01  9.70D-01
                    CP:  9.11D-01
 E= -388.651142664752     Delta-E=       -0.000000000013 Rises=F Damp=F
 DIIS: error= 7.96D-08 at cycle   7 NSaved=   7.
 NSaved= 7 IEnMin= 7 EnMin= -388.651142664752     IErMin= 7 ErrMin= 7.96D-08
 ErrMax= 7.96D-08  0.00D+00 EMaxC= 1.00D-01 BMatC= 1.88D-12 BMatP= 1.62D-11
 IDIUse=1 WtCom= 1.00D+00 WtEn= 0.00D+00
 Coeff-Com:  0.259D-04-0.673D-02-0.451D-02-0.737D-02 0.433D-01 0.276D+00
 Coeff-Com:  0.699D+00
 Coeff:      0.259D-04-0.673D-02-0.451D-02-0.737D-02 0.433D-01 0.276D+00
 Coeff:      0.699D+00
 Gap=     0.216 Goal=   None    Shift=    0.000
 RMSDP=5.70D-09 MaxDP=2.05D-07 DE=-1.32D-11 OVMax= 6.98D-07

 SCF Done:  E(RB3LYP) =  -388.651142665     A.U. after   11 cycles
            NFock= 11  Conv=0.57D-08     -V/T= 2.0053
 KE= 3.866012503977D+02 PE=-1.762244476718D+03 EE= 5.575058860559D+02
 Leave Link  502 at Tue Jun  4 00:10:31 2024, MaxMem= 13421772800 cpu:             830.0 elap:              26.0
 (Enter /tmpu/scunam/7/gaussian-2016.03/g1/g16/l508.exe)
 QCSCF skips out because SCF is already converged.
 Leave Link  508 at Tue Jun  4 00:10:31 2024, MaxMem= 13421772800 cpu:               1.1 elap:               0.1
 (Enter /tmpu/scunam/7/gaussian-2016.03/g1/g16/l701.exe)
 ... and contract with generalized density number  0.
 Compute integral first derivatives.
   1 Symmetry operations used in ECPInt.
 ECPInt:  NShTT=   12090 NPrTT=   35220 LenC2=   11321 LenP2D=   25569.
 LDataN:  DoStor=T MaxTD1= 7 Len=  274
 Leave Link  701 at Tue Jun  4 00:10:31 2024, MaxMem= 13421772800 cpu:               8.6 elap:               0.3
 (Enter /tmpu/scunam/7/gaussian-2016.03/g1/g16/l702.exe)
 L702 exits ... SP integral derivatives will be done elsewhere.
 Leave Link  702 at Tue Jun  4 00:10:31 2024, MaxMem= 13421772800 cpu:               0.6 elap:               0.0
 (Enter /tmpu/scunam/7/gaussian-2016.03/g1/g16/l703.exe)
 Integral derivatives from FoFJK, PRISM(SPDF).
 Compute integral first derivatives, UseDBF=F ICtDFT=           0.
 Calling FoFJK, ICntrl=      2127 FMM=F ISym2X=0 I1Cent= 0 IOpClX= 0 NMat=1 NMatS=1 NMatT=0.
 FoFJK:  IHMeth= 1 ICntrl=    2127 DoSepK=F KAlg= 0 I1Cent=           0 FoldK=F
 IRaf=         0 NMat=       1 IRICut=       1 DoRegI=T DoRafI=F ISym2E= 0 IDoP0=0 IntGTp=1.
 FoFCou: FMM=F IPFlag=           0 FMFlag=      100000 FMFlg1=         800
         NFxFlg=           0 DoJE=F BraDBF=F KetDBF=F FulRan=T
         wScrn=  0.000000 ICntrl=      2127 IOpCl=  0 I1Cent=           0 NGrid=           0
         NMat0=    1 NMatS0=      1 NMatT0=    0 NMatD0=    1 NMtDS0=    0 NMtDT0=    0
 Symmetry not used in FoFCou.
 Leave Link  703 at Tue Jun  4 00:10:41 2024, MaxMem= 13421772800 cpu:             329.1 elap:              10.3
 (Enter /tmpu/scunam/7/gaussian-2016.03/g1/g16/l716.exe)
 Dipole        =-3.13062458D-01-8.12545558D-01 6.62567123D-01
 ***** Axes restored to original set *****
 -------------------------------------------------------------------
 Center     Atomic                   Forces (Hartrees/Bohr)
 Number     Number              X              Y              Z
 -------------------------------------------------------------------
      1        8           0.000538959   -0.001185470   -0.002769932
      2        6           0.000868890    0.000177119   -0.000189342
      3        6          -0.000447872    0.000572423    0.001514900
      4        6          -0.001303670    0.000292871    0.000425199
      5        6           0.000758082   -0.000294268   -0.000603401
      6        6          -0.000023679    0.001593350    0.003884937
      7        6          -0.000836717    0.000639942    0.000016978
      8        6          -0.001215168   -0.000081075    0.000202896
      9        6          -0.000940134    0.000365203    0.000591740
     10        1          -0.000081188    0.000048390   -0.000150751
     11        1          -0.000279091   -0.000053745   -0.000173384
     12        1           0.000262479   -0.000612229   -0.000952030
     13        1           0.000158140   -0.000263291   -0.000996667
     14        1          -0.000024593    0.000062939    0.000033604
     15        1           0.000330340   -0.000356818    0.000034019
     16        1           0.000224798   -0.000108008    0.000250311
     17        1          -0.000120192   -0.000075708    0.000125294
     18        1           0.000382148    0.000113750   -0.000196352
     19        1           0.000449437   -0.000116632    0.000211487
     20        1           0.000449608   -0.000211648   -0.000045471
     21        1           0.000256000   -0.000562289   -0.000520556
     22        1           0.000367860    0.000095175    0.000065259
     23        1           0.000225564   -0.000039982   -0.000758738
 -------------------------------------------------------------------
 Cartesian Forces:  Max     0.003884937 RMS     0.000787213
 Leave Link  716 at Tue Jun  4 00:10:42 2024, MaxMem= 13421772800 cpu:               1.7 elap:               0.1
 (Enter /tmpu/scunam/7/gaussian-2016.03/g1/g16/l103.exe)

 GradGradGradGradGradGradGradGradGradGradGradGradGradGradGradGradGradGrad
 Berny optimization.
 Using GEDIIS/GDIIS optimizer.
 FormGI is forming the generalized inverse of G from B-inverse, IUseBI=4.
 Internal  Forces:  Max     0.003055131 RMS     0.000414921
 Search for a local minimum.
 Step number   6 out of a maximum of  138
 All quantities printed in internal units (Hartrees-Bohrs-Radians)
 RMS Force = .41492D-03 SwitMx=.10000D-02 MixMth= 2
 Mixed Optimization -- En-DIIS/RFO-DIIS
 Swapping is turned off.
 Update second derivatives using D2CorX and points    3    4    5    6
 DE= -1.47D-04 DEPred=-9.24D-05 R= 1.59D+00
 TightC=F SS=  1.41D+00  RLast= 1.06D-01 DXNew= 7.1352D-01 3.1882D-01
 Trust test= 1.59D+00 RLast= 1.06D-01 DXMaxT set to 4.24D-01
 ITU=  1  1 -1  1  1  0
     Eigenvalues ---    0.00123   0.00409   0.00516   0.00676   0.00694
     Eigenvalues ---    0.00729   0.01312   0.01586   0.02909   0.02949
     Eigenvalues ---    0.03971   0.04149   0.04906   0.05548   0.06888
     Eigenvalues ---    0.06923   0.07037   0.07274   0.07308   0.07374
     Eigenvalues ---    0.09253   0.09753   0.12839   0.13277   0.15898
     Eigenvalues ---    0.15995   0.16000   0.16000   0.16000   0.16000
     Eigenvalues ---    0.16018   0.16126   0.16219   0.16469   0.21782
     Eigenvalues ---    0.21806   0.22723   0.24929   0.25009   0.25089
     Eigenvalues ---    0.25932   0.29900   0.30581   0.31277   0.31850
     Eigenvalues ---    0.32229   0.32760   0.33912   0.34037   0.34132
     Eigenvalues ---    0.34190   0.34213   0.34247   0.34256   0.34279
     Eigenvalues ---    0.34355   0.34465   0.34505   0.34530   0.34664
     Eigenvalues ---    0.34936   0.56931   0.89771
 En-DIIS/RFO-DIIS/Sim-DIIS IScMMF=       -3 using points:     6    5    4    3    2
 RFO step:  Lambda=-1.47157900D-04.
 NNeg= 0 NGDIIS= 5 SimSw=  2.50D-03 Rises=F DC= -1.47D-04 SmlDif=  1.00D-05
 NRisDI= 0 DoIntr=F SqrtH=F CThrHd= 10.0 CDAdj=  3.0
 RMS Error=  0.1966845264D-01 NUsed= 5 OKEnD=T EnDIS=F
 InvSVX:  RCond= 2.23D-05 Info=           0 Equed=N FErr=  1.75D-12 BErr=  6.62D-17
 DidBck=F Rises=F RFO-DIIS coefs:    2.76567   -1.42147   -0.35793   -0.17418    0.18791
 Iteration  1 RMS(Cart)=  0.05720091 RMS(Int)=  0.00087847
 Iteration  2 RMS(Cart)=  0.00132196 RMS(Int)=  0.00005940
 Iteration  3 RMS(Cart)=  0.00000054 RMS(Int)=  0.00005940
 ITry= 1 IFail=0 DXMaxC= 1.80D-01 DCOld= 1.00D+10 DXMaxT= 4.24D-01 DXLimC= 3.00D+00 Rises=F
 Variable       Old X    -DE/DX   Delta X   Delta X   Delta X     New X
                                 (Linear)    (Quad)   (Total)
    R1        2.28140   0.00306   0.00809  -0.00379   0.00431   2.28570
    R2        2.89266   0.00029   0.00121  -0.00096   0.00025   2.89291
    R3        2.83221   0.00102   0.00442  -0.00195   0.00247   2.83468
    R4        2.05810   0.00016   0.00133  -0.00117   0.00016   2.05826
    R5        2.06714   0.00000   0.00129  -0.00044   0.00085   2.06799
    R6        2.87083   0.00021   0.00116  -0.00090   0.00025   2.87108
    R7        2.07475  -0.00058  -0.00262   0.00045  -0.00217   2.07258
    R8        2.07300  -0.00049  -0.00218   0.00040  -0.00177   2.07123
    R9        2.52557  -0.00059  -0.00055  -0.00047  -0.00102   2.52455
   R10        2.05733  -0.00001   0.00077  -0.00042   0.00035   2.05768
   R11        2.84311   0.00055   0.00278  -0.00051   0.00227   2.84538
   R12        2.84373  -0.00033  -0.00237   0.00138  -0.00099   2.84274
   R13        2.86566  -0.00048  -0.00188  -0.00074  -0.00262   2.86304
   R14        2.06977  -0.00015  -0.00034  -0.00025  -0.00059   2.06918
   R15        2.06988  -0.00007  -0.00001  -0.00043  -0.00044   2.06944
   R16        2.05950   0.00013   0.00087  -0.00028   0.00059   2.06009
   R17        2.05423   0.00044   0.00217  -0.00084   0.00134   2.05557
   R18        2.06961  -0.00016  -0.00041  -0.00006  -0.00047   2.06915
   R19        2.06967  -0.00023  -0.00109  -0.00005  -0.00113   2.06853
   R20        2.06621  -0.00022  -0.00085   0.00000  -0.00085   2.06537
   R21        2.05443   0.00029   0.00181  -0.00080   0.00101   2.05544
   R22        2.06644  -0.00021  -0.00084  -0.00001  -0.00086   2.06558
    A1        1.95784   0.00016  -0.00013  -0.00085  -0.00097   1.95687
    A2        1.90247   0.00008   0.00247  -0.00096   0.00151   1.90398
    A3        1.88609   0.00012   0.00208   0.00010   0.00217   1.88826
    A4        1.95431  -0.00014  -0.00081  -0.00002  -0.00083   1.95349
    A5        1.91391  -0.00018  -0.00134   0.00036  -0.00098   1.91293
    A6        1.84462  -0.00004  -0.00230   0.00153  -0.00077   1.84385
    A7        1.99608   0.00067   0.00252  -0.00181   0.00070   1.99678
    A8        1.93585  -0.00037  -0.00424   0.00123  -0.00301   1.93284
    A9        1.93394  -0.00038  -0.00482   0.00189  -0.00294   1.93100
   A10        1.88218  -0.00029  -0.00379   0.00108  -0.00271   1.87947
   A11        1.88927  -0.00030  -0.00655   0.00277  -0.00379   1.88548
   A12        1.81697   0.00068   0.01832  -0.00548   0.01284   1.82982
   A13        2.24501  -0.00028   0.00273  -0.00104   0.00167   2.24669
   A14        1.99825   0.00018  -0.00164   0.00014  -0.00152   1.99673
   A15        2.03988   0.00010  -0.00094   0.00085  -0.00011   2.03977
   A16        2.10881   0.00012  -0.00108   0.00030  -0.00078   2.10803
   A17        2.17887  -0.00026   0.00059   0.00063   0.00121   2.18008
   A18        1.99549   0.00014   0.00050  -0.00091  -0.00042   1.99507
   A19        2.13446  -0.00049  -0.00277   0.00087  -0.00225   2.13221
   A20        2.12216  -0.00022  -0.00147   0.00089  -0.00092   2.12124
   A21        2.02656   0.00071   0.00529  -0.00176   0.00318   2.02974
   A22        1.93815  -0.00025  -0.00197   0.00048  -0.00150   1.93665
   A23        1.93692   0.00005   0.00040   0.00021   0.00061   1.93753
   A24        1.95242   0.00013   0.00082  -0.00090  -0.00008   1.95234
   A25        1.85253   0.00037   0.00790  -0.00258   0.00532   1.85785
   A26        1.89004  -0.00012  -0.00371   0.00140  -0.00231   1.88773
   A27        1.89009  -0.00016  -0.00324   0.00137  -0.00187   1.88822
   A28        1.98025  -0.00003  -0.00126   0.00022  -0.00104   1.97921
   A29        1.92922  -0.00027  -0.00334   0.00218  -0.00115   1.92806
   A30        1.92705   0.00005   0.00104  -0.00042   0.00062   1.92767
   A31        1.88676  -0.00006  -0.00332   0.00116  -0.00216   1.88459
   A32        1.88505  -0.00011  -0.00203   0.00004  -0.00199   1.88306
   A33        1.85021   0.00045   0.00961  -0.00346   0.00616   1.85637
   A34        1.92807  -0.00035  -0.00326   0.00194  -0.00132   1.92676
   A35        1.91933   0.00028   0.00149  -0.00169  -0.00020   1.91912
   A36        1.92518  -0.00023  -0.00333   0.00197  -0.00135   1.92382
   A37        1.91808  -0.00021  -0.00488   0.00138  -0.00350   1.91458
   A38        1.85569   0.00077   0.01521  -0.00498   0.01023   1.86592
   A39        1.91661  -0.00025  -0.00499   0.00133  -0.00367   1.91294
    D1        3.06661   0.00003  -0.00016   0.00599   0.00583   3.07243
    D2        0.93347   0.00021   0.00628   0.00494   0.01122   0.94469
    D3       -1.07555  -0.00018  -0.01075   0.00979  -0.00096  -1.07650
    D4       -1.04202   0.00002   0.00053   0.00466   0.00519  -1.03683
    D5        3.10803   0.00020   0.00698   0.00361   0.01058   3.11861
    D6        1.09901  -0.00019  -0.01006   0.00846  -0.00160   1.09742
    D7        0.95470   0.00008   0.00019   0.00601   0.00621   0.96091
    D8       -1.17844   0.00025   0.00664   0.00496   0.01160  -1.16684
    D9        3.09574  -0.00013  -0.01039   0.00981  -0.00058   3.09516
   D10        1.96075   0.00016   0.09153  -0.00035   0.09118   2.05193
   D11       -1.16936   0.00009   0.07819   0.00474   0.08293  -1.08642
   D12       -0.18483   0.00005   0.08898   0.00156   0.09054  -0.09429
   D13        2.96825  -0.00003   0.07565   0.00665   0.08229   3.05055
   D14       -2.22664   0.00029   0.09314  -0.00054   0.09261  -2.13403
   D15        0.92644   0.00022   0.07981   0.00455   0.08436   1.01080
   D16       -0.01762   0.00003  -0.00208  -0.00018  -0.00227  -0.01989
   D17        3.12601  -0.00007  -0.00677   0.00086  -0.00591   3.12010
   D18        2.14454  -0.00021  -0.00872   0.00098  -0.00775   2.13679
   D19       -0.99502  -0.00031  -0.01342   0.00202  -0.01139  -1.00640
   D20       -2.18272   0.00029   0.00749  -0.00350   0.00397  -2.17875
   D21        0.96091   0.00019   0.00279  -0.00246   0.00033   0.96125
   D22       -3.13874   0.00003  -0.00490   0.00136  -0.00354   3.14091
   D23        0.00927  -0.00000  -0.00512  -0.00211  -0.00723   0.00204
   D24       -0.00886   0.00010   0.00870  -0.00383   0.00487  -0.00399
   D25        3.13914   0.00007   0.00848  -0.00730   0.00118   3.14033
   D26       -2.11287   0.00020   0.01057  -0.00184   0.00873  -2.10414
   D27        2.11409  -0.00013   0.00172   0.00093   0.00266   2.11675
   D28        0.00102  -0.00004   0.00502  -0.00034   0.00468   0.00569
   D29        1.02294   0.00023   0.01077   0.00129   0.01206   1.03500
   D30       -1.03328  -0.00011   0.00193   0.00406   0.00599  -1.02729
   D31        3.13683  -0.00002   0.00522   0.00279   0.00801  -3.13835
   D32        0.00189  -0.00007   0.00846  -0.00297   0.00549   0.00738
   D33       -2.12079   0.00023   0.01613  -0.00625   0.00988  -2.11090
   D34        2.12076  -0.00019   0.00571  -0.00308   0.00263   2.12339
   D35       -3.13366  -0.00010   0.00826  -0.00625   0.00201  -3.13164
   D36        1.02685   0.00020   0.01593  -0.00952   0.00640   1.03326
   D37       -1.01479  -0.00022   0.00551  -0.00635  -0.00084  -1.01563
   D38       -2.13312   0.00025   0.00284  -0.00242   0.00041  -2.13271
   D39       -0.01294  -0.00006  -0.00442  -0.00053  -0.00496  -0.01789
   D40        2.10353  -0.00034  -0.01184   0.00130  -0.01054   2.09298
   D41        1.00645   0.00035   0.00747  -0.00345   0.00402   1.01047
   D42        3.12663   0.00003   0.00021  -0.00156  -0.00135   3.12529
   D43       -1.04009  -0.00024  -0.00721   0.00027  -0.00693  -1.04702
         Item               Value     Threshold  Converged?
 Maximum Force            0.003055     0.000450     NO 
 RMS     Force            0.000415     0.000300     NO 
 Maximum Displacement     0.179763     0.001800     NO 
 RMS     Displacement     0.057067     0.001200     NO 
 Predicted change in Energy=-7.672712D-05
 Lowest energy point so far.  Saving SCF results.
 GradGradGradGradGradGradGradGradGradGradGradGradGradGradGradGradGradGrad

 Leave Link  103 at Tue Jun  4 00:10:42 2024, MaxMem= 13421772800 cpu:               6.5 elap:               0.3
 (Enter /tmpu/scunam/7/gaussian-2016.03/g1/g16/l202.exe)
                          Input orientation:                          
 ---------------------------------------------------------------------
 Center     Atomic      Atomic             Coordinates (Angstroms)
 Number     Number       Type             X           Y           Z
 ---------------------------------------------------------------------
      1          8           0        2.773382   -0.388254   -1.061034
      2          6           0        0.049531   -0.495740   -0.337598
      3          6           0        1.113256    0.088023    0.595810
      4          6           0       -1.304116   -0.541327    0.307153
      5          6           0       -2.425098    0.087299   -0.057473
      6          6           0        2.522973    0.071159    0.029483
      7          6           0       -3.697794   -0.089299    0.727528
      8          6           0       -2.551219    1.003963   -1.243552
      9          6           0        3.605820    0.665633    0.906657
     10          1           0        0.038889    0.073841   -1.265925
     11          1           0        0.357850   -1.508146   -0.616051
     12          1           0        1.131132   -0.451972    1.550261
     13          1           0        0.867312    1.122183    0.862913
     14          1           0       -1.360326   -1.174740    1.191055
     15          1           0       -4.493500   -0.498971    0.096682
     16          1           0       -4.063950    0.871926    1.103314
     17          1           0       -3.560710   -0.757251    1.578103
     18          1           0       -1.626240    1.113174   -1.805429
     19          1           0       -2.872609    2.000888   -0.924560
     20          1           0       -3.320547    0.637023   -1.930344
     21          1           0        3.642196    0.149529    1.869383
     22          1           0        4.570721    0.585514    0.411051
     23          1           0        3.387649    1.715846    1.116973
 ---------------------------------------------------------------------
                    Distance matrix (angstroms):
                    1          2          3          4          5
     1  O    0.000000
     2  C    2.820333   0.000000
     3  C    2.393322   1.530863   0.000000
     4  C    4.303645   1.500048   2.514576   0.000000
     5  C    5.315777   2.557772   3.598157   1.335936   0.000000
     6  C    1.209542   2.563988   1.519313   3.885724   4.948861
     7  C    6.720450   3.916903   4.816118   2.471990   1.505711
     8  C    5.506629   3.135884   4.201259   2.519499   1.504315
     9  C    2.382318   3.942607   2.577428   5.091525   6.134818
    10  H    2.780821   1.089186   2.149540   2.157931   2.744407
    11  H    2.699438   1.094331   2.141728   2.132879   3.256110
    12  H    3.085435   2.176187   1.096764   2.735642   3.939847
    13  H    3.100983   2.174321   1.096048   2.791279   3.571843
    14  H    4.772632   2.187583   2.840334   1.088878   2.070098
    15  H    7.359358   4.563742   5.659453   3.196602   2.155403
    16  H    7.281591   4.568092   5.260753   3.201225   2.156131
    17  H    6.871821   4.095380   4.850293   2.598875   2.162865
    18  H    4.707981   2.747970   3.784405   2.702617   2.178519
    19  H    6.132197   3.888004   4.675222   3.231121   2.148005
    20  H    6.240422   3.895821   5.132394   3.234331   2.147480
    21  H    3.103449   4.265487   2.832191   5.232957   6.366216
    22  H    2.519064   4.708582   3.497956   5.982831   7.029169
    23  H    3.090028   4.260272   2.845045   5.269089   6.149758
                    6          7          8          9         10
     6  C    0.000000
     7  C    6.261864   0.000000
     8  C    5.313960   2.528836   0.000000
     9  C    1.515055   7.344711   6.530467   0.000000
    10  H    2.801564   4.238309   2.752143   4.218214   0.000000
    11  H    2.756569   4.501841   3.894500   4.194433   1.739756
    12  H    2.126888   4.911918   4.846117   2.790582   3.066003
    13  H    2.130838   4.725062   4.017154   2.776648   2.513416
    14  H    4.240463   2.618548   3.477397   5.303816   3.090875
    15  H    7.039919   1.094964   2.797766   8.222612   4.767322
    16  H    6.721748   1.095098   2.795275   7.675063   4.804531
    17  H    6.332115   1.090151   3.476015   7.337206   4.662223
    18  H    4.654961   3.486136   1.087759   5.910174   2.035665
    19  H    5.809161   2.789122   1.094945   6.863403   3.508114
    20  H    6.189334   2.781033   1.094620   7.484915   3.470510
    21  H    2.155002   7.432114   6.984183   1.092945   4.776997
    22  H    2.145560   8.302039   7.323581   1.087694   4.859172
    23  H    2.152974   7.322138   6.430320   1.093059   4.425898
                   11         12         13         14         15
    11  H    0.000000
    12  H    2.531082   0.000000
    13  H    3.060313   1.737818   0.000000
    14  H    2.515735   2.618928   3.216505   0.000000
    15  H    5.006198   5.809611   5.652748   3.386901   0.000000
    16  H    5.307850   5.379716   4.943457   3.392068   1.754189
    17  H    4.553379   4.701846   4.863245   2.272838   1.769580
    18  H    3.496076   4.616648   3.652114   3.779442   3.799765
    19  H    4.779577   5.307655   4.237239   4.104563   3.149526
    20  H    4.456424   5.754821   5.057256   4.107078   2.602910
    21  H    4.439842   2.601746   3.107896   5.219103   8.351800
    22  H    4.815250   3.768945   3.769274   6.235721   9.134278
    23  H    4.751545   3.158962   2.601745   5.559158   8.249783
                   16         17         18         19         20
    16  H    0.000000
    17  H    1.769998   0.000000
    18  H    3.802816   4.323072   0.000000
    19  H    2.608853   3.787364   1.765617   0.000000
    20  H    3.132237   3.782972   1.764369   1.752820   0.000000
    21  H    7.777750   7.265600   6.495327   7.326413   7.947035
    22  H    8.667110   8.323773   6.602540   7.693523   8.231457
    23  H    7.499247   7.389759   5.834615   6.590898   7.446468
                   21         22         23
    21  H    0.000000
    22  H    1.782967   0.000000
    23  H    1.756207   1.782032   0.000000
 Stoichiometry    C8H14O
 Framework group  C1[X(C8H14O)]
 Deg. of freedom    63
 Full point group                 C1      NOp   1
 RotChk:  IX=0 Diff= 9.21D-03
 Largest Abelian subgroup         C1      NOp   1
 Largest concise Abelian subgroup C1      NOp   1
                         Standard orientation:                         
 ---------------------------------------------------------------------
 Center     Atomic      Atomic             Coordinates (Angstroms)
 Number     Number       Type             X           Y           Z
 ---------------------------------------------------------------------
      1          8           0        2.748623    1.085110   -0.641038
      2          6           0        0.055033    0.249362   -0.621587
      3          6           0        1.152915   -0.538355    0.097926
      4          6           0       -1.272551   -0.446167   -0.559119
      5          6           0       -2.408064   -0.030236    0.008627
      6          6           0        2.539687    0.072084   -0.014048
      7          6           0       -3.649067   -0.881733   -0.036442
      8          6           0       -2.581835    1.280066    0.726872
      9          6           0        3.654478   -0.657718    0.707078
     10          1           0        0.007327    1.254937   -0.205812
     11          1           0        0.354373    0.375969   -1.666540
     12          1           0        1.208801   -1.564751   -0.284536
     13          1           0        0.915420   -0.647922    1.162310
     14          1           0       -1.293238   -1.420574   -1.044667
     15          1           0       -4.467770   -0.354704   -0.537353
     16          1           0       -4.002332   -1.114695    0.973594
     17          1           0       -3.477827   -1.821268   -0.562160
     18          1           0       -1.679516    1.887363    0.742097
     19          1           0       -2.892636    1.110509    1.762999
     20          1           0       -3.376430    1.870067    0.259206
     21          1           0        3.729123   -1.687790    0.349436
     22          1           0        4.599633   -0.144196    0.545659
     23          1           0        3.442505   -0.707647    1.778223
 ---------------------------------------------------------------------
 Rotational constants (GHZ):           4.0667243           0.5827554           0.5563120
 Leave Link  202 at Tue Jun  4 00:10:42 2024, MaxMem= 13421772800 cpu:               2.7 elap:               0.1
 (Enter /tmpu/scunam/7/gaussian-2016.03/g1/g16/l301.exe)
 Standard basis: def2TZVP (5D, 7F)
 Ernie: Thresh=  0.10000D-02 Tol=  0.10000D-05 Strict=F.
 There are   408 symmetry adapted cartesian basis functions of A   symmetry.
 There are   363 symmetry adapted basis functions of A   symmetry.
   363 basis functions,   571 primitive gaussians,   408 cartesian basis functions
    35 alpha electrons       35 beta electrons
       nuclear repulsion energy       428.9467490485 Hartrees.
 IExCor=  402 DFT=T Ex+Corr=B3LYP ExCW=0 ScaHFX=  0.200000
 ScaDFX=  0.800000  0.720000  1.000000  0.810000 ScalE2=  1.000000  1.000000
 IRadAn=      5 IRanWt=     -1 IRanGd=            0 ICorTp=0 IEmpDi=  4
 NAtoms=   23 NActive=   23 NUniq=   23 SFac= 1.00D+00 NAtFMM=   60 NAOKFM=F Big=F
 Integral buffers will be    131072 words long.
 Raffenetti 2 integral format.
 Two-electron integral symmetry is turned on.
 Leave Link  301 at Tue Jun  4 00:10:42 2024, MaxMem= 13421772800 cpu:               2.5 elap:               0.1
 (Enter /tmpu/scunam/7/gaussian-2016.03/g1/g16/l302.exe)
 NPDir=0 NMtPBC=     1 NCelOv=     1 NCel=       1 NClECP=     1 NCelD=      1
         NCelK=      1 NCelE2=     1 NClLst=     1 CellRange=     0.0.
 One-electron integrals computed using PRISM.
 One-electron integral symmetry used in STVInt
   1 Symmetry operations used in ECPInt.
 ECPInt:  NShTT=   12090 NPrTT=   35220 LenC2=   11304 LenP2D=   25534.
 LDataN:  DoStor=T MaxTD1= 6 Len=  172
 NBasis=   363 RedAO= T EigKep=  7.79D-05  NBF=   363
 NBsUse=   363 1.00D-06 EigRej= -1.00D+00 NBFU=   363
 Precomputing XC quadrature grid using
 IXCGrd= 4 IRadAn=           5 IRanWt=          -1 IRanGd=           0 AccXCQ= 0.00D+00.
 Generated NRdTot=       0 NPtTot=           0 NUsed=           0 NTot=          32
 NSgBfM=   405   405   405   405   405 MxSgAt=    23 MxSgA2=    23.
 Leave Link  302 at Tue Jun  4 00:10:42 2024, MaxMem= 13421772800 cpu:              11.7 elap:               0.4
 (Enter /tmpu/scunam/7/gaussian-2016.03/g1/g16/l303.exe)
 DipDrv:  MaxL=1.
 Leave Link  303 at Tue Jun  4 00:10:43 2024, MaxMem= 13421772800 cpu:               2.5 elap:               0.1
 (Enter /tmpu/scunam/7/gaussian-2016.03/g1/g16/l401.exe)
 Initial guess from the checkpoint file:  "S36.chk"
 B after Tr=     0.000000    0.000000   -0.000000
         Rot=    0.999989   -0.004092    0.000181   -0.002275 Ang=  -0.54 deg.
 Guess basis will be translated and rotated to current coordinates.
 JPrj=2 DoOrth=T DoCkMO=T.
 Generating alternative initial guess.
 ExpMin= 9.52D-02 ExpMax= 2.70D+04 ExpMxC= 9.22D+02 IAcc=2 IRadAn=         4 AccDes= 0.00D+00
 Harris functional with IExCor=  402 and IRadAn=       4 diagonalized for initial guess.
 HarFok:  IExCor=  402 AccDes= 0.00D+00 IRadAn=         4 IDoV= 1 UseB2=F ITyADJ=14
 ICtDFT=  3500011 ScaDFX=  1.000000  1.000000  1.000000  1.000000
 FoFCou: FMM=F IPFlag=           0 FMFlag=      100000 FMFlg1=           0
         NFxFlg=           0 DoJE=T BraDBF=F KetDBF=T FulRan=T
         wScrn=  0.000000 ICntrl=       500 IOpCl=  0 I1Cent=   200000004 NGrid=           0
         NMat0=    1 NMatS0=      1 NMatT0=    0 NMatD0=    1 NMtDS0=    0 NMtDT0=    0
 Petite list used in FoFCou.
 Harris En= -388.761713881681    
 Leave Link  401 at Tue Jun  4 00:10:44 2024, MaxMem= 13421772800 cpu:              27.0 elap:               0.9
 (Enter /tmpu/scunam/7/gaussian-2016.03/g1/g16/l502.exe)
 Integral symmetry usage will be decided dynamically.
 Closed shell SCF:
 Using DIIS extrapolation, IDIIS=  1040.
 NGot= 13421772800 LenX= 13421422965 LenY= 13421256060
 Requested convergence on RMS density matrix=1.00D-08 within 128 cycles.
 Requested convergence on MAX density matrix=1.00D-06.
 Requested convergence on             energy=1.00D-06.
 No special actions if energy rises.
 Fock matrices will be formed incrementally for  20 cycles.
 Integral accuracy reduced to 1.0D-05 until final iterations.

 Cycle   1  Pass 0  IDiag  1:
 FoFJK:  IHMeth= 1 ICntrl=       0 DoSepK=F KAlg= 0 I1Cent=           0 FoldK=F
 IRaf= 890000000 NMat=       1 IRICut=       1 DoRegI=T DoRafI=F ISym2E= 0 IDoP0=0 IntGTp=1.
 FoFCou: FMM=F IPFlag=           0 FMFlag=      100000 FMFlg1=           0
         NFxFlg=           0 DoJE=F BraDBF=F KetDBF=F FulRan=T
         wScrn=  0.000000 ICntrl=         0 IOpCl=  0 I1Cent=           0 NGrid=           0
         NMat0=    1 NMatS0=      1 NMatT0=    0 NMatD0=    1 NMtDS0=    0 NMtDT0=    0
 Symmetry not used in FoFCou.
 E= -388.646399794485    
 DIIS: error= 2.04D-03 at cycle   1 NSaved=   1.
 NSaved= 1 IEnMin= 1 EnMin= -388.646399794485     IErMin= 1 ErrMin= 2.04D-03
 ErrMax= 2.04D-03  0.00D+00 EMaxC= 1.00D-01 BMatC= 3.48D-03 BMatP= 3.48D-03
 IDIUse=3 WtCom= 9.80D-01 WtEn= 2.04D-02
 Coeff-Com:  0.100D+01
 Coeff-En:   0.100D+01
 Coeff:      0.100D+01
 Gap=     0.607 Goal=   None    Shift=    0.000
 GapD=    0.607 DampG=2.000 DampE=1.000 DampFc=2.0000 IDamp=-1.
 RMSDP=2.21D-04 MaxDP=6.67D-03              OVMax= 1.48D-02

 Cycle   2  Pass 0  IDiag  1:
 RMSU=  2.21D-04    CP:  9.99D-01
 E= -388.651159749451     Delta-E=       -0.004759954967 Rises=F Damp=F
 DIIS: error= 2.81D-04 at cycle   2 NSaved=   2.
 NSaved= 2 IEnMin= 2 EnMin= -388.651159749451     IErMin= 2 ErrMin= 2.81D-04
 ErrMax= 2.81D-04  0.00D+00 EMaxC= 1.00D-01 BMatC= 4.37D-05 BMatP= 3.48D-03
 IDIUse=3 WtCom= 9.97D-01 WtEn= 2.81D-03
 Coeff-Com: -0.539D-01 0.105D+01
 Coeff-En:   0.000D+00 0.100D+01
 Coeff:     -0.538D-01 0.105D+01
 Gap=     0.216 Goal=   None    Shift=    0.000
 RMSDP=3.99D-05 MaxDP=2.67D-03 DE=-4.76D-03 OVMax= 2.42D-03

 Cycle   3  Pass 0  IDiag  1:
 RMSU=  3.64D-05    CP:  9.99D-01  1.07D+00
 E= -388.651208240235     Delta-E=       -0.000048490784 Rises=F Damp=F
 DIIS: error= 3.19D-04 at cycle   3 NSaved=   3.
 NSaved= 3 IEnMin= 3 EnMin= -388.651208240235     IErMin= 2 ErrMin= 2.81D-04
 ErrMax= 3.19D-04  0.00D+00 EMaxC= 1.00D-01 BMatC= 2.97D-05 BMatP= 4.37D-05
 IDIUse=3 WtCom= 9.97D-01 WtEn= 3.19D-03
 Coeff-Com: -0.313D-01 0.506D+00 0.526D+00
 Coeff-En:   0.000D+00 0.000D+00 0.100D+01
 Coeff:     -0.312D-01 0.504D+00 0.527D+00
 Gap=     0.216 Goal=   None    Shift=    0.000
 RMSDP=2.75D-05 MaxDP=2.92D-03 DE=-4.85D-05 OVMax= 2.39D-03

 Cycle   4  Pass 0  IDiag  1:
 RMSU=  1.88D-05    CP:  9.99D-01  1.08D+00  4.67D-01
 E= -388.651222808542     Delta-E=       -0.000014568307 Rises=F Damp=F
 DIIS: error= 2.11D-04 at cycle   4 NSaved=   4.
 NSaved= 4 IEnMin= 4 EnMin= -388.651222808542     IErMin= 4 ErrMin= 2.11D-04
 ErrMax= 2.11D-04  0.00D+00 EMaxC= 1.00D-01 BMatC= 1.25D-05 BMatP= 2.97D-05
 IDIUse=3 WtCom= 9.98D-01 WtEn= 2.11D-03
 Coeff-Com: -0.103D-01 0.143D+00 0.383D+00 0.484D+00
 Coeff-En:   0.000D+00 0.000D+00 0.307D+00 0.693D+00
 Coeff:     -0.102D-01 0.142D+00 0.383D+00 0.485D+00
 Gap=     0.216 Goal=   None    Shift=    0.000
 RMSDP=1.18D-05 MaxDP=1.34D-03 DE=-1.46D-05 OVMax= 1.04D-03

 Cycle   5  Pass 0  IDiag  1:
 RMSU=  4.08D-06    CP:  9.99D-01  1.08D+00  6.36D-01  5.27D-01
 E= -388.651231432855     Delta-E=       -0.000008624312 Rises=F Damp=F
 DIIS: error= 1.98D-05 at cycle   5 NSaved=   5.
 NSaved= 5 IEnMin= 5 EnMin= -388.651231432855     IErMin= 5 ErrMin= 1.98D-05
 ErrMax= 1.98D-05  0.00D+00 EMaxC= 1.00D-01 BMatC= 2.49D-07 BMatP= 1.25D-05
 IDIUse=1 WtCom= 1.00D+00 WtEn= 0.00D+00
 Coeff-Com: -0.877D-03 0.126D-02 0.978D-01 0.186D+00 0.715D+00
 Coeff:     -0.877D-03 0.126D-02 0.978D-01 0.186D+00 0.715D+00
 Gap=     0.216 Goal=   None    Shift=    0.000
 RMSDP=1.72D-06 MaxDP=5.83D-05 DE=-8.62D-06 OVMax= 1.39D-04

 Initial convergence to 1.0D-05 achieved.  Increase integral accuracy.
 Cycle   6  Pass 1  IDiag  1:
 E= -388.651222293421     Delta-E=        0.000009139434 Rises=F Damp=F
 DIIS: error= 9.49D-05 at cycle   1 NSaved=   1.
 NSaved= 1 IEnMin= 1 EnMin= -388.651222293421     IErMin= 1 ErrMin= 9.49D-05
 ErrMax= 9.49D-05  0.00D+00 EMaxC= 1.00D-01 BMatC= 2.10D-06 BMatP= 2.10D-06
 IDIUse=1 WtCom= 1.00D+00 WtEn= 0.00D+00
 Coeff-Com:  0.100D+01
 Coeff:      0.100D+01
 Gap=     0.216 Goal=   None    Shift=    0.000
 RMSDP=1.72D-06 MaxDP=5.83D-05 DE= 9.14D-06 OVMax= 2.50D-04

 Cycle   7  Pass 1  IDiag  1:
 RMSU=  9.95D-05    CP:  1.00D+00
 E= -388.651223357364     Delta-E=       -0.000001063943 Rises=F Damp=F
 DIIS: error= 1.64D-05 at cycle   2 NSaved=   2.
 NSaved= 2 IEnMin= 2 EnMin= -388.651223357364     IErMin= 2 ErrMin= 1.64D-05
 ErrMax= 1.64D-05  0.00D+00 EMaxC= 1.00D-01 BMatC= 1.09D-07 BMatP= 2.10D-06
 IDIUse=1 WtCom= 1.00D+00 WtEn= 0.00D+00
 Coeff-Com:  0.716D-01 0.928D+00
 Coeff:      0.716D-01 0.928D+00
 Gap=     0.216 Goal=   None    Shift=    0.000
 RMSDP=2.38D-06 MaxDP=9.01D-05 DE=-1.06D-06 OVMax= 3.25D-04

 Cycle   8  Pass 1  IDiag  1:
 RMSU=  1.78D-06    CP:  1.00D+00  1.02D+00
 E= -388.651223205152     Delta-E=        0.000000152212 Rises=F Damp=F
 DIIS: error= 2.76D-05 at cycle   3 NSaved=   3.
 NSaved= 3 IEnMin= 2 EnMin= -388.651223357364     IErMin= 2 ErrMin= 1.64D-05
 ErrMax= 2.76D-05  0.00D+00 EMaxC= 1.00D-01 BMatC= 2.67D-07 BMatP= 1.09D-07
 IDIUse=1 WtCom= 1.00D+00 WtEn= 0.00D+00
 Coeff-Com: -0.314D-03 0.612D+00 0.388D+00
 Coeff:     -0.314D-03 0.612D+00 0.388D+00
 Gap=     0.216 Goal=   None    Shift=    0.000
 RMSDP=1.05D-06 MaxDP=5.89D-05 DE= 1.52D-07 OVMax= 2.26D-04

 Cycle   9  Pass 1  IDiag  1:
 RMSU=  5.27D-07    CP:  1.00D+00  1.02D+00  4.94D-01
 E= -388.651223457285     Delta-E=       -0.000000252133 Rises=F Damp=F
 DIIS: error= 2.77D-06 at cycle   4 NSaved=   4.
 NSaved= 4 IEnMin= 4 EnMin= -388.651223457285     IErMin= 4 ErrMin= 2.77D-06
 ErrMax= 2.77D-06  0.00D+00 EMaxC= 1.00D-01 BMatC= 5.66D-09 BMatP= 1.09D-07
 IDIUse=1 WtCom= 1.00D+00 WtEn= 0.00D+00
 Coeff-Com: -0.209D-02 0.354D+00 0.240D+00 0.408D+00
 Coeff:     -0.209D-02 0.354D+00 0.240D+00 0.408D+00
 Gap=     0.216 Goal=   None    Shift=    0.000
 RMSDP=2.59D-07 MaxDP=2.15D-05 DE=-2.52D-07 OVMax= 2.17D-05

 Cycle  10  Pass 1  IDiag  1:
 RMSU=  2.11D-07    CP:  1.00D+00  1.02D+00  5.00D-01  7.34D-01
 E= -388.651223462387     Delta-E=       -0.000000005101 Rises=F Damp=F
 DIIS: error= 5.14D-07 at cycle   5 NSaved=   5.
 NSaved= 5 IEnMin= 5 EnMin= -388.651223462387     IErMin= 5 ErrMin= 5.14D-07
 ErrMax= 5.14D-07  0.00D+00 EMaxC= 1.00D-01 BMatC= 9.12D-11 BMatP= 5.66D-09
 IDIUse=1 WtCom= 1.00D+00 WtEn= 0.00D+00
 Coeff-Com: -0.114D-02 0.179D+00 0.122D+00 0.222D+00 0.477D+00
 Coeff:     -0.114D-02 0.179D+00 0.122D+00 0.222D+00 0.477D+00
 Gap=     0.216 Goal=   None    Shift=    0.000
 RMSDP=3.98D-08 MaxDP=3.95D-06 DE=-5.10D-09 OVMax= 3.22D-06

 Cycle  11  Pass 1  IDiag  1:
 RMSU=  3.02D-08    CP:  1.00D+00  1.02D+00  5.04D-01  7.58D-01  9.06D-01
 E= -388.651223462450     Delta-E=       -0.000000000063 Rises=F Damp=F
 DIIS: error= 2.03D-07 at cycle   6 NSaved=   6.
 NSaved= 6 IEnMin= 6 EnMin= -388.651223462450     IErMin= 6 ErrMin= 2.03D-07
 ErrMax= 2.03D-07  0.00D+00 EMaxC= 1.00D-01 BMatC= 1.74D-11 BMatP= 9.12D-11
 IDIUse=1 WtCom= 1.00D+00 WtEn= 0.00D+00
 Coeff-Com: -0.331D-03 0.465D-01 0.319D-01 0.634D-01 0.306D+00 0.552D+00
 Coeff:     -0.331D-03 0.465D-01 0.319D-01 0.634D-01 0.306D+00 0.552D+00
 Gap=     0.216 Goal=   None    Shift=    0.000
 RMSDP=1.54D-08 MaxDP=1.44D-06 DE=-6.31D-11 OVMax= 1.23D-06

 Cycle  12  Pass 1  IDiag  1:
 RMSU=  9.54D-09    CP:  1.00D+00  1.02D+00  5.05D-01  7.58D-01  9.51D-01
                    CP:  8.37D-01
 E= -388.651223462460     Delta-E=       -0.000000000011 Rises=F Damp=F
 DIIS: error= 3.14D-08 at cycle   7 NSaved=   7.
 NSaved= 7 IEnMin= 7 EnMin= -388.651223462460     IErMin= 7 ErrMin= 3.14D-08
 ErrMax= 3.14D-08  0.00D+00 EMaxC= 1.00D-01 BMatC= 9.94D-13 BMatP= 1.74D-11
 IDIUse=1 WtCom= 1.00D+00 WtEn= 0.00D+00
 Coeff-Com:  0.411D-04-0.861D-02-0.589D-02-0.868D-02 0.496D-01 0.229D+00
 Coeff-Com:  0.744D+00
 Coeff:      0.411D-04-0.861D-02-0.589D-02-0.868D-02 0.496D-01 0.229D+00
 Coeff:      0.744D+00
 Gap=     0.216 Goal=   None    Shift=    0.000
 RMSDP=5.99D-09 MaxDP=2.91D-07 DE=-1.07D-11 OVMax= 6.14D-07

 SCF Done:  E(RB3LYP) =  -388.651223462     A.U. after   12 cycles
            NFock= 12  Conv=0.60D-08     -V/T= 2.0053
 KE= 3.865953414824D+02 PE=-1.761167711734D+03 EE= 5.569743977403D+02
 Leave Link  502 at Tue Jun  4 00:11:11 2024, MaxMem= 13421772800 cpu:             878.7 elap:              27.5
 (Enter /tmpu/scunam/7/gaussian-2016.03/g1/g16/l508.exe)
 QCSCF skips out because SCF is already converged.
 Leave Link  508 at Tue Jun  4 00:11:11 2024, MaxMem= 13421772800 cpu:               1.1 elap:               0.1
 (Enter /tmpu/scunam/7/gaussian-2016.03/g1/g16/l701.exe)
 ... and contract with generalized density number  0.
 Compute integral first derivatives.
   1 Symmetry operations used in ECPInt.
 ECPInt:  NShTT=   12090 NPrTT=   35220 LenC2=   11304 LenP2D=   25534.
 LDataN:  DoStor=T MaxTD1= 7 Len=  274
 Leave Link  701 at Tue Jun  4 00:11:11 2024, MaxMem= 13421772800 cpu:               8.7 elap:               0.3
 (Enter /tmpu/scunam/7/gaussian-2016.03/g1/g16/l702.exe)
 L702 exits ... SP integral derivatives will be done elsewhere.
 Leave Link  702 at Tue Jun  4 00:11:12 2024, MaxMem= 13421772800 cpu:               1.6 elap:               0.1
 (Enter /tmpu/scunam/7/gaussian-2016.03/g1/g16/l703.exe)
 Integral derivatives from FoFJK, PRISM(SPDF).
 Compute integral first derivatives, UseDBF=F ICtDFT=           0.
 Calling FoFJK, ICntrl=      2127 FMM=F ISym2X=0 I1Cent= 0 IOpClX= 0 NMat=1 NMatS=1 NMatT=0.
 FoFJK:  IHMeth= 1 ICntrl=    2127 DoSepK=F KAlg= 0 I1Cent=           0 FoldK=F
 IRaf=         0 NMat=       1 IRICut=       1 DoRegI=T DoRafI=F ISym2E= 0 IDoP0=0 IntGTp=1.
 FoFCou: FMM=F IPFlag=           0 FMFlag=      100000 FMFlg1=         800
         NFxFlg=           0 DoJE=F BraDBF=F KetDBF=F FulRan=T
         wScrn=  0.000000 ICntrl=      2127 IOpCl=  0 I1Cent=           0 NGrid=           0
         NMat0=    1 NMatS0=      1 NMatT0=    0 NMatD0=    1 NMtDS0=    0 NMtDT0=    0
 Symmetry not used in FoFCou.
 Leave Link  703 at Tue Jun  4 00:11:22 2024, MaxMem= 13421772800 cpu:             332.4 elap:              10.4
 (Enter /tmpu/scunam/7/gaussian-2016.03/g1/g16/l716.exe)
 Dipole        =-2.92075376D-01-8.40018104D-01 6.18025417D-01
 ***** Axes restored to original set *****
 -------------------------------------------------------------------
 Center     Atomic                   Forces (Hartrees/Bohr)
 Number     Number              X              Y              Z
 -------------------------------------------------------------------
      1        8          -0.000012466    0.000039292    0.000127076
      2        6           0.000195139    0.000011211   -0.000182872
      3        6          -0.000095080    0.000034920   -0.000033404
      4        6          -0.000210977   -0.000101885    0.000198950
      5        6           0.000119180    0.000070433    0.000107712
      6        6           0.000127374   -0.000010063   -0.000206163
      7        6          -0.000088276    0.000058878    0.000045039
      8        6           0.000034271    0.000033577   -0.000012060
      9        6          -0.000069205   -0.000055652   -0.000052416
     10        1           0.000013769    0.000003834    0.000018772
     11        1          -0.000038750    0.000017519    0.000016566
     12        1           0.000012708   -0.000023567    0.000002935
     13        1          -0.000045889   -0.000037111    0.000072329
     14        1          -0.000037829    0.000025837   -0.000038573
     15        1          -0.000001104   -0.000000361    0.000000284
     16        1           0.000013558   -0.000022130   -0.000044460
     17        1           0.000018919   -0.000017376   -0.000006306
     18        1           0.000022036    0.000005907   -0.000002061
     19        1          -0.000053231   -0.000068819    0.000002298
     20        1           0.000014530   -0.000011476   -0.000069861
     21        1           0.000019928    0.000052568    0.000029442
     22        1           0.000030249   -0.000001989   -0.000005698
     23        1           0.000031147   -0.000003547    0.000032474
 -------------------------------------------------------------------
 Cartesian Forces:  Max     0.000210977 RMS     0.000071289
 Leave Link  716 at Tue Jun  4 00:11:22 2024, MaxMem= 13421772800 cpu:               1.8 elap:               0.1
 (Enter /tmpu/scunam/7/gaussian-2016.03/g1/g16/l103.exe)

 GradGradGradGradGradGradGradGradGradGradGradGradGradGradGradGradGradGrad
 Berny optimization.
 Using GEDIIS/GDIIS optimizer.
 FormGI is forming the generalized inverse of G from B-inverse, IUseBI=4.
 Internal  Forces:  Max     0.000256769 RMS     0.000053615
 Search for a local minimum.
 Step number   7 out of a maximum of  138
 All quantities printed in internal units (Hartrees-Bohrs-Radians)
 RMS Force = .53615D-04 SwitMx=.10000D-02 MixMth= 2
 Mixed Optimization -- En-DIIS/RFO-DIIS
 Swapping is turned off.
 Update second derivatives using D2CorX and points    4    5    6    7
 DE= -8.08D-05 DEPred=-7.67D-05 R= 1.05D+00
 TightC=F SS=  1.41D+00  RLast= 2.19D-01 DXNew= 7.1352D-01 6.5668D-01
 Trust test= 1.05D+00 RLast= 2.19D-01 DXMaxT set to 6.57D-01
 ITU=  1  1  1 -1  1  1  0
     Eigenvalues ---    0.00127   0.00394   0.00515   0.00676   0.00692
     Eigenvalues ---    0.00716   0.01316   0.01578   0.02871   0.02916
     Eigenvalues ---    0.03986   0.04151   0.04942   0.05543   0.06907
     Eigenvalues ---    0.06926   0.07050   0.07268   0.07330   0.07368
     Eigenvalues ---    0.09244   0.09723   0.12835   0.13257   0.15905
     Eigenvalues ---    0.15996   0.16000   0.16000   0.16000   0.16007
     Eigenvalues ---    0.16025   0.16200   0.16256   0.16449   0.21719
     Eigenvalues ---    0.21960   0.22759   0.24932   0.25034   0.25096
     Eigenvalues ---    0.25845   0.29922   0.30542   0.31147   0.31851
     Eigenvalues ---    0.32221   0.32586   0.33938   0.34026   0.34130
     Eigenvalues ---    0.34190   0.34213   0.34250   0.34260   0.34281
     Eigenvalues ---    0.34344   0.34466   0.34499   0.34529   0.34667
     Eigenvalues ---    0.34947   0.56901   0.90834
 En-DIIS/RFO-DIIS/Sim-DIIS IScMMF=       -3 using points:     7    6    5    4    3    2
 RFO step:  Lambda=-5.08288057D-06.
 NNeg= 0 NGDIIS= 6 SimSw=  2.50D-01 Rises=F DC= -8.08D-05 SmlDif=  1.00D-05
 NRisDI= 0 DoIntr=F SqrtH=F CThrHd= 10.0 CDAdj=  3.0
 RMS Error=  0.2799637479D-02 NUsed= 6 OKEnD=T EnDIS=F
 InvSVX:  RCond= 3.79D-06 Info=           0 Equed=N FErr=  4.16D-12 BErr=  6.43D-17
 DidBck=F Rises=F RFO-DIIS coefs:    1.37550   -0.51276   -0.06093    0.03035    0.32392
                  RFO-DIIS coefs:   -0.15607
 Iteration  1 RMS(Cart)=  0.00684209 RMS(Int)=  0.00002147
 Iteration  2 RMS(Cart)=  0.00003117 RMS(Int)=  0.00000524
 Iteration  3 RMS(Cart)=  0.00000000 RMS(Int)=  0.00000524
 ITry= 1 IFail=0 DXMaxC= 2.42D-02 DCOld= 1.00D+10 DXMaxT= 6.57D-01 DXLimC= 3.00D+00 Rises=F
 Variable       Old X    -DE/DX   Delta X   Delta X   Delta X     New X
                                 (Linear)    (Quad)   (Total)
    R1        2.28570  -0.00013   0.00092  -0.00095  -0.00003   2.28568
    R2        2.89291  -0.00002   0.00013  -0.00020  -0.00007   2.89284
    R3        2.83468   0.00023   0.00193  -0.00102   0.00091   2.83559
    R4        2.05826  -0.00001  -0.00020   0.00017  -0.00002   2.05824
    R5        2.06799  -0.00003  -0.00016   0.00005  -0.00011   2.06788
    R6        2.87108   0.00014  -0.00007   0.00066   0.00059   2.87167
    R7        2.07258   0.00001  -0.00099   0.00096  -0.00002   2.07256
    R8        2.07123  -0.00001  -0.00081   0.00072  -0.00009   2.07114
    R9        2.52455  -0.00005  -0.00056   0.00041  -0.00015   2.52440
   R10        2.05768  -0.00004  -0.00023   0.00006  -0.00016   2.05752
   R11        2.84538   0.00004   0.00073  -0.00047   0.00026   2.84564
   R12        2.84274   0.00004   0.00016  -0.00006   0.00010   2.84284
   R13        2.86304   0.00001  -0.00129   0.00116  -0.00013   2.86291
   R14        2.06918   0.00000  -0.00024   0.00020  -0.00004   2.06914
   R15        2.06944  -0.00004  -0.00042   0.00026  -0.00016   2.06928
   R16        2.06009   0.00001   0.00013  -0.00006   0.00007   2.06016
   R17        2.05557   0.00002   0.00030  -0.00014   0.00016   2.05573
   R18        2.06915  -0.00005  -0.00028   0.00008  -0.00020   2.06895
   R19        2.06853   0.00004  -0.00053   0.00063   0.00010   2.06864
   R20        2.06537   0.00000  -0.00036   0.00033  -0.00003   2.06533
   R21        2.05544   0.00003   0.00018  -0.00001   0.00016   2.05560
   R22        2.06558  -0.00000  -0.00041   0.00036  -0.00005   2.06554
    A1        1.95687   0.00006   0.00014   0.00018   0.00032   1.95719
    A2        1.90398  -0.00002   0.00034  -0.00052  -0.00018   1.90380
    A3        1.88826  -0.00001   0.00076  -0.00035   0.00042   1.88868
    A4        1.95349  -0.00004  -0.00047  -0.00013  -0.00060   1.95288
    A5        1.91293  -0.00001  -0.00045   0.00042  -0.00004   1.91289
    A6        1.84385   0.00001  -0.00029   0.00040   0.00010   1.84395
    A7        1.99678  -0.00004   0.00007  -0.00030  -0.00024   1.99655
    A8        1.93284   0.00001  -0.00135   0.00117  -0.00019   1.93265
    A9        1.93100  -0.00000  -0.00086   0.00077  -0.00010   1.93091
   A10        1.87947   0.00001  -0.00087   0.00083  -0.00005   1.87943
   A11        1.88548   0.00004  -0.00094   0.00140   0.00046   1.88594
   A12        1.82982  -0.00002   0.00436  -0.00420   0.00016   1.82998
   A13        2.24669  -0.00026  -0.00075  -0.00087  -0.00162   2.24507
   A14        1.99673   0.00017   0.00053   0.00053   0.00105   1.99778
   A15        2.03977   0.00009   0.00022   0.00034   0.00057   2.04033
   A16        2.10803   0.00012  -0.00003   0.00064   0.00061   2.10864
   A17        2.18008  -0.00012   0.00011  -0.00077  -0.00066   2.17942
   A18        1.99507   0.00001  -0.00009   0.00013   0.00004   1.99512
   A19        2.13221  -0.00000  -0.00110   0.00103  -0.00004   2.13216
   A20        2.12124  -0.00004  -0.00013  -0.00012  -0.00023   2.12101
   A21        2.02974   0.00004   0.00115  -0.00091   0.00027   2.03001
   A22        1.93665   0.00000  -0.00004  -0.00014  -0.00018   1.93648
   A23        1.93753  -0.00002   0.00011  -0.00017  -0.00007   1.93747
   A24        1.95234  -0.00002  -0.00060   0.00048  -0.00013   1.95221
   A25        1.85785   0.00000   0.00176  -0.00159   0.00016   1.85801
   A26        1.88773   0.00001  -0.00065   0.00058  -0.00007   1.88767
   A27        1.88822   0.00003  -0.00048   0.00078   0.00030   1.88851
   A28        1.97921  -0.00001  -0.00059   0.00047  -0.00012   1.97909
   A29        1.92806  -0.00004   0.00026  -0.00056  -0.00030   1.92776
   A30        1.92767   0.00005   0.00046  -0.00009   0.00037   1.92804
   A31        1.88459   0.00004  -0.00077   0.00103   0.00026   1.88485
   A32        1.88306  -0.00003  -0.00099   0.00067  -0.00032   1.88274
   A33        1.85637  -0.00001   0.00175  -0.00162   0.00012   1.85649
   A34        1.92676   0.00007  -0.00005   0.00052   0.00047   1.92723
   A35        1.91912  -0.00001  -0.00061   0.00055  -0.00007   1.91906
   A36        1.92382   0.00005   0.00007   0.00025   0.00032   1.92414
   A37        1.91458  -0.00002  -0.00133   0.00108  -0.00025   1.91433
   A38        1.86592  -0.00006   0.00330  -0.00344  -0.00014   1.86578
   A39        1.91294  -0.00002  -0.00128   0.00095  -0.00034   1.91261
    D1        3.07243   0.00003   0.00703   0.00139   0.00841   3.08085
    D2        0.94469   0.00003   0.00918  -0.00038   0.00879   0.95348
    D3       -1.07650   0.00005   0.00516   0.00361   0.00877  -1.06774
    D4       -1.03683   0.00001   0.00676   0.00097   0.00773  -1.02910
    D5        3.11861   0.00001   0.00891  -0.00080   0.00811   3.12672
    D6        1.09742   0.00003   0.00489   0.00319   0.00809   1.10550
    D7        0.96091   0.00001   0.00700   0.00098   0.00798   0.96889
    D8       -1.16684   0.00001   0.00914  -0.00079   0.00835  -1.15848
    D9        3.09516   0.00003   0.00512   0.00321   0.00833   3.10349
   D10        2.05193   0.00002   0.00341   0.00072   0.00413   2.05606
   D11       -1.08642  -0.00001   0.00171   0.00027   0.00197  -1.08445
   D12       -0.09429   0.00003   0.00321   0.00136   0.00458  -0.08971
   D13        3.05055   0.00000   0.00151   0.00090   0.00242   3.05297
   D14       -2.13403   0.00004   0.00416   0.00068   0.00484  -2.12919
   D15        1.01080   0.00001   0.00246   0.00023   0.00268   1.01349
   D16       -0.01989  -0.00001  -0.00136  -0.00082  -0.00218  -0.02207
   D17        3.12010  -0.00000  -0.00092  -0.00089  -0.00181   3.11829
   D18        2.13679  -0.00001  -0.00373   0.00111  -0.00262   2.13417
   D19       -1.00640  -0.00001  -0.00329   0.00104  -0.00225  -1.00865
   D20       -2.17875  -0.00001   0.00044  -0.00267  -0.00224  -2.18099
   D21        0.96125  -0.00000   0.00088  -0.00275  -0.00187   0.95937
   D22        3.14091  -0.00003  -0.00226  -0.00006  -0.00232   3.13859
   D23        0.00204  -0.00000  -0.00227   0.00230   0.00003   0.00207
   D24       -0.00399  -0.00000  -0.00052   0.00041  -0.00012  -0.00411
   D25        3.14033   0.00003  -0.00053   0.00276   0.00223  -3.14063
   D26       -2.10414   0.00002   0.00246  -0.00014   0.00232  -2.10181
   D27        2.11675   0.00003   0.00023   0.00205   0.00227   2.11903
   D28        0.00569   0.00001   0.00119   0.00084   0.00203   0.00772
   D29        1.03500  -0.00001   0.00246  -0.00226   0.00021   1.03521
   D30       -1.02729  -0.00000   0.00023  -0.00007   0.00016  -1.02714
   D31       -3.13835  -0.00002   0.00119  -0.00128  -0.00009  -3.13844
   D32        0.00738  -0.00005  -0.00455  -0.00391  -0.00846  -0.00109
   D33       -2.11090  -0.00006  -0.00332  -0.00517  -0.00850  -2.11940
   D34        2.12339  -0.00006  -0.00591  -0.00278  -0.00869   2.11470
   D35       -3.13164  -0.00002  -0.00456  -0.00169  -0.00625  -3.13790
   D36        1.03326  -0.00003  -0.00333  -0.00296  -0.00629   1.02697
   D37       -1.01563  -0.00003  -0.00592  -0.00056  -0.00648  -1.02211
   D38       -2.13271  -0.00001   0.00171  -0.00285  -0.00115  -2.13386
   D39       -0.01789   0.00000  -0.00040  -0.00080  -0.00120  -0.01909
   D40        2.09298  -0.00000  -0.00236   0.00090  -0.00146   2.09153
   D41        1.01047  -0.00002   0.00126  -0.00278  -0.00152   1.00895
   D42        3.12529  -0.00001  -0.00084  -0.00073  -0.00157   3.12372
   D43       -1.04702  -0.00001  -0.00280   0.00098  -0.00182  -1.04884
         Item               Value     Threshold  Converged?
 Maximum Force            0.000257     0.000450     YES
 RMS     Force            0.000054     0.000300     YES
 Maximum Displacement     0.024206     0.001800     NO 
 RMS     Displacement     0.006837     0.001200     NO 
 Predicted change in Energy=-2.334368D-06
 Lowest energy point so far.  Saving SCF results.
 GradGradGradGradGradGradGradGradGradGradGradGradGradGradGradGradGradGrad

 Leave Link  103 at Tue Jun  4 00:11:22 2024, MaxMem= 13421772800 cpu:               1.5 elap:               0.1
 (Enter /tmpu/scunam/7/gaussian-2016.03/g1/g16/l202.exe)
                          Input orientation:                          
 ---------------------------------------------------------------------
 Center     Atomic      Atomic             Coordinates (Angstroms)
 Number     Number       Type             X           Y           Z
 ---------------------------------------------------------------------
      1          8           0        2.769330   -0.378185   -1.066614
      2          6           0        0.048475   -0.496786   -0.333898
      3          6           0        1.114108    0.083063    0.599709
      4          6           0       -1.305452   -0.540622    0.311512
      5          6           0       -2.425202    0.088502   -0.055733
      6          6           0        2.521816    0.074400    0.027398
      7          6           0       -3.700195   -0.086351    0.726183
      8          6           0       -2.548029    1.002296   -1.244437
      9          6           0        3.606427    0.667488    0.903214
     10          1           0        0.038135    0.074881   -1.260929
     11          1           0        0.354178   -1.509242   -0.614817
     12          1           0        1.137370   -0.464366    1.549785
     13          1           0        0.865956    1.114303    0.875722
     14          1           0       -1.363277   -1.173576    1.195532
     15          1           0       -4.493884   -0.497832    0.094013
     16          1           0       -4.067509    0.875721    1.098412
     17          1           0       -3.565318   -0.752334    1.578701
     18          1           0       -1.619759    1.115013   -1.800328
     19          1           0       -2.876538    1.997991   -0.929241
     20          1           0       -3.310727    0.630354   -1.936004
     21          1           0        3.648104    0.147330    1.863520
     22          1           0        4.569702    0.592007    0.403546
     23          1           0        3.386887    1.716248    1.119154
 ---------------------------------------------------------------------
                    Distance matrix (angstroms):
                    1          2          3          4          5
     1  O    0.000000
     2  C    2.820282   0.000000
     3  C    2.393562   1.530823   0.000000
     4  C    4.304586   1.500531   2.515216   0.000000
     5  C    5.312517   2.557150   3.599493   1.335854   0.000000
     6  C    1.209528   2.564021   1.519624   3.886766   4.947737
     7  C    6.719676   3.917239   4.818943   2.472471   1.505847
     8  C    5.496512   3.133394   4.202036   2.519041   1.504368
     9  C    2.382097   3.942715   2.577852   5.092759   6.134766
    10  H    2.775329   1.089173   2.149362   2.157925   2.742392
    11  H    2.704878   1.094274   2.141962   2.133233   3.254276
    12  H    3.084844   2.176007   1.096752   2.739802   3.946552
    13  H    3.102100   2.174182   1.096002   2.787853   3.570939
    14  H    4.777907   2.188663   2.841054   1.088791   2.070311
    15  H    7.356333   4.562470   5.660631   3.196128   2.155378
    16  H    7.280247   4.569094   5.265565   3.202218   2.156140
    17  H    6.874987   4.096687   4.853179   2.599536   2.162925
    18  H    4.693834   2.744325   3.781419   2.701812   2.178549
    19  H    6.127064   3.890251   4.682937   3.233007   2.147759
    20  H    6.224153   3.888628   5.129184   3.231662   2.147831
    21  H    3.103884   4.266246   2.832399   5.236384   6.369618
    22  H    2.518726   4.708586   3.498376   5.984041   7.028025
    23  H    3.089596   4.260736   2.846513   5.269135   6.149008
                    6          7          8          9         10
     6  C    0.000000
     7  C    6.263192   0.000000
     8  C    5.308661   2.529028   0.000000
     9  C    1.514987   7.347540   6.527007   0.000000
    10  H    2.797938   4.236712   2.747474   4.215140   0.000000
    11  H    2.760257   4.501204   3.889350   4.197582   1.739767
    12  H    2.127116   4.921713   4.851901   2.792023   3.065815
    13  H    2.131414   4.723735   4.020313   2.776793   2.516141
    14  H    4.244518   2.619834   3.477284   5.307818   3.091408
    15  H    7.039313   1.094942   2.797889   8.223613   4.764773
    16  H    6.723719   1.095015   2.795315   7.679242   4.802515
    17  H    6.335869   1.090189   3.476163   7.342078   4.661830
    18  H    4.645008   3.486367   1.087844   5.901054   2.030132
    19  H    5.810128   2.786274   1.094841   6.867093   3.507662
    20  H    6.179206   2.784348   1.094675   7.477269   3.461091
    21  H    2.155269   7.439465   6.984441   1.092927   4.774861
    22  H    2.145516   8.303943   7.317532   1.087779   4.855203
    23  H    2.153123   7.323286   6.428025   1.093035   4.424140
                   11         12         13         14         15
    11  H    0.000000
    12  H    2.527975   0.000000
    13  H    3.060492   1.737879   0.000000
    14  H    2.517874   2.623302   3.210320   0.000000
    15  H    5.002908   5.816478   5.651366   3.386838   0.000000
    16  H    5.307968   5.393546   4.944249   3.394396   1.754212
    17  H    4.554875   4.711586   4.859497   2.274478   1.769549
    18  H    3.491214   4.617300   3.652400   3.778704   3.801367
    19  H    4.778815   5.321676   4.247948   4.106514   3.145153
    20  H    4.444652   5.756275   5.058131   4.105270   2.606460
    21  H    4.442559   2.603149   3.106626   5.225413   8.356994
    22  H    4.819020   3.769707   3.770076   6.240574   9.134120
    23  H    4.754762   3.162411   2.603207   5.560663   8.249825
                   16         17         18         19         20
    16  H    0.000000
    17  H    1.770151   0.000000
    18  H    3.801505   4.323196   0.000000
    19  H    2.605625   3.785297   1.765769   0.000000
    20  H    3.136974   3.785471   1.764277   1.752861   0.000000
    21  H    7.787595   7.274886   6.489266   7.334536   7.943237
    22  H    8.669761   8.328673   6.590904   7.694128   8.220470
    23  H    7.501663   7.391768   5.826779   6.595892   7.441181
                   21         22         23
    21  H    0.000000
    22  H    1.782864   0.000000
    23  H    1.756080   1.781871   0.000000
 Stoichiometry    C8H14O
 Framework group  C1[X(C8H14O)]
 Deg. of freedom    63
 Full point group                 C1      NOp   1
 RotChk:  IX=0 Diff= 4.06D-03
 Largest Abelian subgroup         C1      NOp   1
 Largest concise Abelian subgroup C1      NOp   1
                         Standard orientation:                         
 ---------------------------------------------------------------------
 Center     Atomic      Atomic             Coordinates (Angstroms)
 Number     Number       Type             X           Y           Z
 ---------------------------------------------------------------------
      1          8           0        2.745191    1.088346   -0.637469
      2          6           0        0.054474    0.243452   -0.623869
      3          6           0        1.154159   -0.543688    0.093434
      4          6           0       -1.273754   -0.451480   -0.556986
      5          6           0       -2.407605   -0.030588    0.010235
      6          6           0        2.538995    0.072748   -0.013770
      7          6           0       -3.651558   -0.878223   -0.030630
      8          6           0       -2.577034    1.284050    0.721672
      9          6           0        3.655418   -0.654547    0.707222
     10          1           0        0.007928    1.249270   -0.208583
     11          1           0        0.350663    0.369318   -1.669749
     12          1           0        1.214463   -1.567847   -0.294285
     13          1           0        0.915264   -0.659512    1.156794
     14          1           0       -1.296879   -1.427316   -1.039351
     15          1           0       -4.468224   -0.350994   -0.534597
     16          1           0       -4.005755   -1.104581    0.980490
     17          1           0       -3.483277   -1.820993   -0.551569
     18          1           0       -1.670831    1.885627    0.739180
     19          1           0       -2.894681    1.120819    1.756628
     20          1           0       -3.365057    1.877391    0.247037
     21          1           0        3.734475   -1.683713    0.347975
     22          1           0        4.599014   -0.137353    0.547851
     23          1           0        3.442795   -0.707222    1.778082
 ---------------------------------------------------------------------
 Rotational constants (GHZ):           4.0660395           0.5830703           0.5563333
 Leave Link  202 at Tue Jun  4 00:11:22 2024, MaxMem= 13421772800 cpu:               2.4 elap:               0.1
 (Enter /tmpu/scunam/7/gaussian-2016.03/g1/g16/l301.exe)
 Standard basis: def2TZVP (5D, 7F)
 Ernie: Thresh=  0.10000D-02 Tol=  0.10000D-05 Strict=F.
 There are   408 symmetry adapted cartesian basis functions of A   symmetry.
 There are   363 symmetry adapted basis functions of A   symmetry.
   363 basis functions,   571 primitive gaussians,   408 cartesian basis functions
    35 alpha electrons       35 beta electrons
       nuclear repulsion energy       428.9522041618 Hartrees.
 IExCor=  402 DFT=T Ex+Corr=B3LYP ExCW=0 ScaHFX=  0.200000
 ScaDFX=  0.800000  0.720000  1.000000  0.810000 ScalE2=  1.000000  1.000000
 IRadAn=      5 IRanWt=     -1 IRanGd=            0 ICorTp=0 IEmpDi=  4
 NAtoms=   23 NActive=   23 NUniq=   23 SFac= 1.00D+00 NAtFMM=   60 NAOKFM=F Big=F
 Integral buffers will be    131072 words long.
 Raffenetti 2 integral format.
 Two-electron integral symmetry is turned on.
 Leave Link  301 at Tue Jun  4 00:11:22 2024, MaxMem= 13421772800 cpu:               2.9 elap:               0.1
 (Enter /tmpu/scunam/7/gaussian-2016.03/g1/g16/l302.exe)
 NPDir=0 NMtPBC=     1 NCelOv=     1 NCel=       1 NClECP=     1 NCelD=      1
         NCelK=      1 NCelE2=     1 NClLst=     1 CellRange=     0.0.
 One-electron integrals computed using PRISM.
 One-electron integral symmetry used in STVInt
   1 Symmetry operations used in ECPInt.
 ECPInt:  NShTT=   12090 NPrTT=   35220 LenC2=   11306 LenP2D=   25539.
 LDataN:  DoStor=T MaxTD1= 6 Len=  172
 NBasis=   363 RedAO= T EigKep=  7.81D-05  NBF=   363
 NBsUse=   363 1.00D-06 EigRej= -1.00D+00 NBFU=   363
 Precomputing XC quadrature grid using
 IXCGrd= 4 IRadAn=           5 IRanWt=          -1 IRanGd=           0 AccXCQ= 0.00D+00.
 Generated NRdTot=       0 NPtTot=           0 NUsed=           0 NTot=          32
 NSgBfM=   405   405   405   405   405 MxSgAt=    23 MxSgA2=    23.
 Leave Link  302 at Tue Jun  4 00:11:23 2024, MaxMem= 13421772800 cpu:              12.7 elap:               0.4
 (Enter /tmpu/scunam/7/gaussian-2016.03/g1/g16/l303.exe)
 DipDrv:  MaxL=1.
 Leave Link  303 at Tue Jun  4 00:11:23 2024, MaxMem= 13421772800 cpu:               1.5 elap:               0.1
 (Enter /tmpu/scunam/7/gaussian-2016.03/g1/g16/l401.exe)
 Initial guess from the checkpoint file:  "S36.chk"
 B after Tr=    -0.000000    0.000000    0.000000
         Rot=    0.999999    0.001107   -0.000131    0.000096 Ang=   0.13 deg.
 Guess basis will be translated and rotated to current coordinates.
 JPrj=2 DoOrth=T DoCkMO=T.
 Generating alternative initial guess.
 ExpMin= 9.52D-02 ExpMax= 2.70D+04 ExpMxC= 9.22D+02 IAcc=2 IRadAn=         4 AccDes= 0.00D+00
 Harris functional with IExCor=  402 and IRadAn=       4 diagonalized for initial guess.
 HarFok:  IExCor=  402 AccDes= 0.00D+00 IRadAn=         4 IDoV= 1 UseB2=F ITyADJ=14
 ICtDFT=  3500011 ScaDFX=  1.000000  1.000000  1.000000  1.000000
 FoFCou: FMM=F IPFlag=           0 FMFlag=      100000 FMFlg1=           0
         NFxFlg=           0 DoJE=T BraDBF=F KetDBF=T FulRan=T
         wScrn=  0.000000 ICntrl=       500 IOpCl=  0 I1Cent=   200000004 NGrid=           0
         NMat0=    1 NMatS0=      1 NMatT0=    0 NMatD0=    1 NMtDS0=    0 NMtDT0=    0
 Petite list used in FoFCou.
 Harris En= -388.761707695915    
 Leave Link  401 at Tue Jun  4 00:11:24 2024, MaxMem= 13421772800 cpu:              26.9 elap:               0.9
 (Enter /tmpu/scunam/7/gaussian-2016.03/g1/g16/l502.exe)
 Integral symmetry usage will be decided dynamically.
 Closed shell SCF:
 Using DIIS extrapolation, IDIIS=  1040.
 NGot= 13421772800 LenX= 13421422965 LenY= 13421256060
 Requested convergence on RMS density matrix=1.00D-08 within 128 cycles.
 Requested convergence on MAX density matrix=1.00D-06.
 Requested convergence on             energy=1.00D-06.
 No special actions if energy rises.
 Fock matrices will be formed incrementally for  20 cycles.
 Integral accuracy reduced to 1.0D-05 until final iterations.

 Cycle   1  Pass 0  IDiag  1:
 FoFJK:  IHMeth= 1 ICntrl=       0 DoSepK=F KAlg= 0 I1Cent=           0 FoldK=F
 IRaf= 890000000 NMat=       1 IRICut=       1 DoRegI=T DoRafI=F ISym2E= 0 IDoP0=0 IntGTp=1.
 FoFCou: FMM=F IPFlag=           0 FMFlag=      100000 FMFlg1=           0
         NFxFlg=           0 DoJE=F BraDBF=F KetDBF=F FulRan=T
         wScrn=  0.000000 ICntrl=         0 IOpCl=  0 I1Cent=           0 NGrid=           0
         NMat0=    1 NMatS0=      1 NMatT0=    0 NMatD0=    1 NMtDS0=    0 NMtDT0=    0
 Symmetry not used in FoFCou.
 E= -388.651146535150    
 DIIS: error= 3.25D-04 at cycle   1 NSaved=   1.
 NSaved= 1 IEnMin= 1 EnMin= -388.651146535150     IErMin= 1 ErrMin= 3.25D-04
 ErrMax= 3.25D-04  0.00D+00 EMaxC= 1.00D-01 BMatC= 6.57D-05 BMatP= 6.57D-05
 IDIUse=3 WtCom= 9.97D-01 WtEn= 3.25D-03
 Coeff-Com:  0.100D+01
 Coeff-En:   0.100D+01
 Coeff:      0.100D+01
 Gap=     0.607 Goal=   None    Shift=    0.000
 RMSDP=1.03D-04 MaxDP=4.61D-03              OVMax= 2.13D-03

 Cycle   2  Pass 0  IDiag  1:
 RMSU=  1.03D-04    CP:  1.00D+00
 E= -388.651231804333     Delta-E=       -0.000085269183 Rises=F Damp=F
 DIIS: error= 3.61D-05 at cycle   2 NSaved=   2.
 NSaved= 2 IEnMin= 2 EnMin= -388.651231804333     IErMin= 2 ErrMin= 3.61D-05
 ErrMax= 3.61D-05  0.00D+00 EMaxC= 1.00D-01 BMatC= 7.14D-07 BMatP= 6.57D-05
 IDIUse=1 WtCom= 1.00D+00 WtEn= 0.00D+00
 Coeff-Com: -0.555D-01 0.106D+01
 Coeff:     -0.555D-01 0.106D+01
 Gap=     0.216 Goal=   None    Shift=    0.000
 RMSDP=6.17D-06 MaxDP=1.70D-04 DE=-8.53D-05 OVMax= 3.09D-04

 Initial convergence to 1.0D-05 achieved.  Increase integral accuracy.
 Cycle   3  Pass 1  IDiag  1:
 E= -388.651226262835     Delta-E=        0.000005541497 Rises=F Damp=F
 DIIS: error= 9.47D-05 at cycle   1 NSaved=   1.
 NSaved= 1 IEnMin= 1 EnMin= -388.651226262835     IErMin= 1 ErrMin= 9.47D-05
 ErrMax= 9.47D-05  0.00D+00 EMaxC= 1.00D-01 BMatC= 2.19D-06 BMatP= 2.19D-06
 IDIUse=1 WtCom= 1.00D+00 WtEn= 0.00D+00
 Coeff-Com:  0.100D+01
 Coeff:      0.100D+01
 Gap=     0.216 Goal=   None    Shift=    0.000
 RMSDP=6.17D-06 MaxDP=1.70D-04 DE= 5.54D-06 OVMax= 2.74D-04

 Cycle   4  Pass 1  IDiag  1:
 RMSU=  9.95D-05    CP:  1.00D+00
 E= -388.651227254456     Delta-E=       -0.000000991621 Rises=F Damp=F
 DIIS: error= 2.77D-05 at cycle   2 NSaved=   2.
 NSaved= 2 IEnMin= 2 EnMin= -388.651227254456     IErMin= 2 ErrMin= 2.77D-05
 ErrMax= 2.77D-05  0.00D+00 EMaxC= 1.00D-01 BMatC= 3.27D-07 BMatP= 2.19D-06
 IDIUse=1 WtCom= 1.00D+00 WtEn= 0.00D+00
 Coeff-Com:  0.175D+00 0.825D+00
 Coeff:      0.175D+00 0.825D+00
 Gap=     0.216 Goal=   None    Shift=    0.000
 RMSDP=4.69D-06 MaxDP=4.75D-04 DE=-9.92D-07 OVMax= 3.60D-04

 Cycle   5  Pass 1  IDiag  1:
 RMSU=  4.43D-06    CP:  1.00D+00  1.01D+00
 E= -388.651226944082     Delta-E=        0.000000310375 Rises=F Damp=F
 DIIS: error= 4.86D-05 at cycle   3 NSaved=   3.
 NSaved= 3 IEnMin= 2 EnMin= -388.651227254456     IErMin= 2 ErrMin= 2.77D-05
 ErrMax= 4.86D-05  0.00D+00 EMaxC= 1.00D-01 BMatC= 7.64D-07 BMatP= 3.27D-07
 IDIUse=1 WtCom= 1.00D+00 WtEn= 0.00D+00
 Coeff-Com:  0.107D-01 0.602D+00 0.387D+00
 Coeff:      0.107D-01 0.602D+00 0.387D+00
 Gap=     0.216 Goal=   None    Shift=    0.000
 RMSDP=2.72D-06 MaxDP=3.04D-04 DE= 3.10D-07 OVMax= 2.43D-04

 Cycle   6  Pass 1  IDiag  1:
 RMSU=  7.89D-07    CP:  1.00D+00  1.02D+00  4.28D-01
 E= -388.651227510718     Delta-E=       -0.000000566636 Rises=F Damp=F
 DIIS: error= 4.37D-06 at cycle   4 NSaved=   4.
 NSaved= 4 IEnMin= 4 EnMin= -388.651227510718     IErMin= 4 ErrMin= 4.37D-06
 ErrMax= 4.37D-06  0.00D+00 EMaxC= 1.00D-01 BMatC= 1.08D-08 BMatP= 3.27D-07
 IDIUse=1 WtCom= 1.00D+00 WtEn= 0.00D+00
 Coeff-Com: -0.760D-03 0.295D+00 0.209D+00 0.497D+00
 Coeff:     -0.760D-03 0.295D+00 0.209D+00 0.497D+00
 Gap=     0.216 Goal=   None    Shift=    0.000
 RMSDP=3.43D-07 MaxDP=2.00D-05 DE=-5.67D-07 OVMax= 2.31D-05

 Cycle   7  Pass 1  IDiag  1:
 RMSU=  2.25D-07    CP:  1.00D+00  1.02D+00  4.45D-01  6.99D-01
 E= -388.651227520089     Delta-E=       -0.000000009371 Rises=F Damp=F
 DIIS: error= 9.39D-07 at cycle   5 NSaved=   5.
 NSaved= 5 IEnMin= 5 EnMin= -388.651227520089     IErMin= 5 ErrMin= 9.39D-07
 ErrMax= 9.39D-07  0.00D+00 EMaxC= 1.00D-01 BMatC= 5.35D-10 BMatP= 1.08D-08
 IDIUse=1 WtCom= 1.00D+00 WtEn= 0.00D+00
 Coeff-Com: -0.875D-03 0.134D+00 0.964D-01 0.272D+00 0.499D+00
 Coeff:     -0.875D-03 0.134D+00 0.964D-01 0.272D+00 0.499D+00
 Gap=     0.216 Goal=   None    Shift=    0.000
 RMSDP=5.97D-08 MaxDP=3.29D-06 DE=-9.37D-09 OVMax= 1.17D-05

 Cycle   8  Pass 1  IDiag  1:
 RMSU=  5.01D-08    CP:  1.00D+00  1.02D+00  4.41D-01  7.13D-01  9.07D-01
 E= -388.651227520532     Delta-E=       -0.000000000443 Rises=F Damp=F
 DIIS: error= 4.36D-07 at cycle   6 NSaved=   6.
 NSaved= 6 IEnMin= 6 EnMin= -388.651227520532     IErMin= 6 ErrMin= 4.36D-07
 ErrMax= 4.36D-07  0.00D+00 EMaxC= 1.00D-01 BMatC= 5.93D-11 BMatP= 5.35D-10
 IDIUse=1 WtCom= 1.00D+00 WtEn= 0.00D+00
 Coeff-Com: -0.450D-03 0.556D-01 0.405D-01 0.122D+00 0.302D+00 0.480D+00
 Coeff:     -0.450D-03 0.556D-01 0.405D-01 0.122D+00 0.302D+00 0.480D+00
 Gap=     0.216 Goal=   None    Shift=    0.000
 RMSDP=2.15D-08 MaxDP=9.00D-07 DE=-4.43D-10 OVMax= 3.78D-06

 Cycle   9  Pass 1  IDiag  1:
 RMSU=  1.71D-08    CP:  1.00D+00  1.02D+00  4.42D-01  7.19D-01  9.22D-01
                    CP:  8.17D-01
 E= -388.651227520595     Delta-E=       -0.000000000062 Rises=F Damp=F
 DIIS: error= 6.10D-08 at cycle   7 NSaved=   7.
 NSaved= 7 IEnMin= 7 EnMin= -388.651227520595     IErMin= 7 ErrMin= 6.10D-08
 ErrMax= 6.10D-08  0.00D+00 EMaxC= 1.00D-01 BMatC= 2.84D-12 BMatP= 5.93D-11
 IDIUse=1 WtCom= 1.00D+00 WtEn= 0.00D+00
 Coeff-Com: -0.900D-04 0.834D-02 0.628D-02 0.219D-01 0.776D-01 0.218D+00
 Coeff-Com:  0.668D+00
 Coeff:     -0.900D-04 0.834D-02 0.628D-02 0.219D-01 0.776D-01 0.218D+00
 Coeff:      0.668D+00
 Gap=     0.216 Goal=   None    Shift=    0.000
 RMSDP=7.86D-09 MaxDP=3.61D-07 DE=-6.23D-11 OVMax= 7.46D-07

 SCF Done:  E(RB3LYP) =  -388.651227521     A.U. after    9 cycles
            NFock=  9  Conv=0.79D-08     -V/T= 2.0053
 KE= 3.865945630743D+02 PE=-1.761179125426D+03 EE= 5.569811306696D+02
 Leave Link  502 at Tue Jun  4 00:11:47 2024, MaxMem= 13421772800 cpu:             738.3 elap:              23.1
 (Enter /tmpu/scunam/7/gaussian-2016.03/g1/g16/l508.exe)
 QCSCF skips out because SCF is already converged.
 Leave Link  508 at Tue Jun  4 00:11:47 2024, MaxMem= 13421772800 cpu:               0.2 elap:               0.0
 (Enter /tmpu/scunam/7/gaussian-2016.03/g1/g16/l701.exe)
 ... and contract with generalized density number  0.
 Compute integral first derivatives.
   1 Symmetry operations used in ECPInt.
 ECPInt:  NShTT=   12090 NPrTT=   35220 LenC2=   11306 LenP2D=   25539.
 LDataN:  DoStor=T MaxTD1= 7 Len=  274
 Leave Link  701 at Tue Jun  4 00:11:47 2024, MaxMem= 13421772800 cpu:               8.5 elap:               0.3
 (Enter /tmpu/scunam/7/gaussian-2016.03/g1/g16/l702.exe)
 L702 exits ... SP integral derivatives will be done elsewhere.
 Leave Link  702 at Tue Jun  4 00:11:47 2024, MaxMem= 13421772800 cpu:               0.5 elap:               0.0
 (Enter /tmpu/scunam/7/gaussian-2016.03/g1/g16/l703.exe)
 Integral derivatives from FoFJK, PRISM(SPDF).
 Compute integral first derivatives, UseDBF=F ICtDFT=           0.
 Calling FoFJK, ICntrl=      2127 FMM=F ISym2X=0 I1Cent= 0 IOpClX= 0 NMat=1 NMatS=1 NMatT=0.
 FoFJK:  IHMeth= 1 ICntrl=    2127 DoSepK=F KAlg= 0 I1Cent=           0 FoldK=F
 IRaf=         0 NMat=       1 IRICut=       1 DoRegI=T DoRafI=F ISym2E= 0 IDoP0=0 IntGTp=1.
 FoFCou: FMM=F IPFlag=           0 FMFlag=      100000 FMFlg1=         800
         NFxFlg=           0 DoJE=F BraDBF=F KetDBF=F FulRan=T
         wScrn=  0.000000 ICntrl=      2127 IOpCl=  0 I1Cent=           0 NGrid=           0
         NMat0=    1 NMatS0=      1 NMatT0=    0 NMatD0=    1 NMtDS0=    0 NMtDT0=    0
 Symmetry not used in FoFCou.
 Leave Link  703 at Tue Jun  4 00:11:58 2024, MaxMem= 13421772800 cpu:             328.3 elap:              10.3
 (Enter /tmpu/scunam/7/gaussian-2016.03/g1/g16/l716.exe)
 Dipole        =-2.90119172D-01-8.41285660D-01 6.13241024D-01
 ***** Axes restored to original set *****
 -------------------------------------------------------------------
 Center     Atomic                   Forces (Hartrees/Bohr)
 Number     Number              X              Y              Z
 -------------------------------------------------------------------
      1        8          -0.000045981    0.000045459    0.000102100
      2        6           0.000013386    0.000052140   -0.000019465
      3        6          -0.000011003   -0.000015262   -0.000092372
      4        6           0.000033298   -0.000114330   -0.000014327
      5        6          -0.000047133    0.000011716   -0.000017069
      6        6           0.000024313   -0.000058334   -0.000115865
      7        6           0.000057202    0.000025768    0.000035188
      8        6           0.000055633    0.000056490   -0.000008089
      9        6           0.000042482   -0.000032791   -0.000040498
     10        1           0.000039988   -0.000037630    0.000043460
     11        1          -0.000009682   -0.000014921    0.000006567
     12        1           0.000031040   -0.000002364    0.000026847
     13        1          -0.000012013   -0.000005099    0.000057389
     14        1           0.000001804    0.000039883    0.000019102
     15        1          -0.000013029    0.000005274   -0.000010427
     16        1          -0.000006515   -0.000001861   -0.000012651
     17        1           0.000009987    0.000005641   -0.000012192
     18        1          -0.000067721    0.000026852    0.000032073
     19        1          -0.000055537   -0.000008358   -0.000020539
     20        1           0.000001221   -0.000018339   -0.000018571
     21        1          -0.000014570    0.000031057    0.000033684
     22        1          -0.000019448   -0.000004257    0.000002370
     23        1          -0.000007723    0.000013266    0.000023284
 -------------------------------------------------------------------
 Cartesian Forces:  Max     0.000115865 RMS     0.000038921
 Leave Link  716 at Tue Jun  4 00:11:58 2024, MaxMem= 13421772800 cpu:               0.8 elap:               0.0
 (Enter /tmpu/scunam/7/gaussian-2016.03/g1/g16/l103.exe)

 GradGradGradGradGradGradGradGradGradGradGradGradGradGradGradGradGradGrad
 Berny optimization.
 Using GEDIIS/GDIIS optimizer.
 FormGI is forming the generalized inverse of G from B-inverse, IUseBI=4.
 Internal  Forces:  Max     0.000178786 RMS     0.000036161
 Search for a local minimum.
 Step number   8 out of a maximum of  138
 All quantities printed in internal units (Hartrees-Bohrs-Radians)
 RMS Force = .36161D-04 SwitMx=.10000D-02 MixMth= 2
 Mixed Optimization -- En-DIIS/RFO-DIIS
 Swapping is turned off.
 Update second derivatives using D2CorX and points    4    5    6    7    8
 DE= -4.06D-06 DEPred=-2.33D-06 R= 1.74D+00
 TightC=F SS=  1.41D+00  RLast= 3.34D-02 DXNew= 1.1044D+00 1.0006D-01
 Trust test= 1.74D+00 RLast= 3.34D-02 DXMaxT set to 6.57D-01
 ITU=  1  1  1  1 -1  1  1  0
     Eigenvalues ---    0.00113   0.00225   0.00507   0.00580   0.00679
     Eigenvalues ---    0.00696   0.01346   0.01650   0.02879   0.02917
     Eigenvalues ---    0.03984   0.04207   0.04971   0.05541   0.06912
     Eigenvalues ---    0.07004   0.07046   0.07283   0.07328   0.07366
     Eigenvalues ---    0.09276   0.09776   0.12837   0.13245   0.15872
     Eigenvalues ---    0.15933   0.15996   0.16000   0.16000   0.16013
     Eigenvalues ---    0.16102   0.16134   0.16255   0.16447   0.21741
     Eigenvalues ---    0.22732   0.22749   0.24930   0.24996   0.25401
     Eigenvalues ---    0.28185   0.29894   0.30819   0.31474   0.31891
     Eigenvalues ---    0.32113   0.33372   0.33922   0.34122   0.34151
     Eigenvalues ---    0.34177   0.34234   0.34251   0.34262   0.34277
     Eigenvalues ---    0.34371   0.34464   0.34529   0.34633   0.34905
     Eigenvalues ---    0.36319   0.57908   0.90293
 En-DIIS/RFO-DIIS/Sim-DIIS IScMMF=       -3 using points:     8    7    6    5    4    3    2
 RFO step:  Lambda=-4.16097000D-06.
 NNeg= 0 NGDIIS= 7 SimSw=  2.50D-01 Rises=F DC= -4.06D-06 SmlDif=  1.00D-05
 NRisDI= 0 DoIntr=F SqrtH=F CThrHd= 10.0 CDAdj=  3.0
 RMS Error=  0.4682359584D-02 NUsed= 7 OKEnD=F EnDIS=F
 InvSVX:  RCond= 2.36D-06 Info=           0 Equed=N FErr=  4.55D-12 BErr=  7.91D-17
 DidBck=F Rises=F RFO-DIIS coefs:    2.00086   -0.78013   -0.53338    0.30618    0.05239
                  RFO-DIIS coefs:   -0.09154    0.04562
 Iteration  1 RMS(Cart)=  0.00944410 RMS(Int)=  0.00003902
 Iteration  2 RMS(Cart)=  0.00005413 RMS(Int)=  0.00000924
 Iteration  3 RMS(Cart)=  0.00000000 RMS(Int)=  0.00000924
 ITry= 1 IFail=0 DXMaxC= 3.20D-02 DCOld= 1.00D+10 DXMaxT= 6.57D-01 DXLimC= 3.00D+00 Rises=F
 Variable       Old X    -DE/DX   Delta X   Delta X   Delta X     New X
                                 (Linear)    (Quad)   (Total)
    R1        2.28568  -0.00012  -0.00015   0.00007  -0.00008   2.28560
    R2        2.89284  -0.00002  -0.00015   0.00001  -0.00015   2.89269
    R3        2.83559   0.00001   0.00059  -0.00002   0.00057   2.83616
    R4        2.05824  -0.00006  -0.00009  -0.00016  -0.00026   2.05798
    R5        2.06788   0.00001  -0.00006   0.00013   0.00007   2.06794
    R6        2.87167  -0.00002   0.00055  -0.00028   0.00027   2.87194
    R7        2.07256   0.00003  -0.00004   0.00010   0.00006   2.07262
    R8        2.07114   0.00001  -0.00011   0.00009  -0.00003   2.07112
    R9        2.52440   0.00011  -0.00027   0.00044   0.00017   2.52457
   R10        2.05752  -0.00001  -0.00015   0.00008  -0.00007   2.05745
   R11        2.84564  -0.00004   0.00036  -0.00034   0.00002   2.84566
   R12        2.84284   0.00005   0.00009   0.00014   0.00023   2.84307
   R13        2.86291   0.00002  -0.00033   0.00033  -0.00000   2.86291
   R14        2.06914   0.00001  -0.00012   0.00016   0.00003   2.06917
   R15        2.06928  -0.00000  -0.00018   0.00007  -0.00010   2.06917
   R16        2.06016  -0.00001   0.00010  -0.00010  -0.00000   2.06016
   R17        2.05573  -0.00007   0.00021  -0.00039  -0.00018   2.05555
   R18        2.06895   0.00000  -0.00023   0.00013  -0.00010   2.06885
   R19        2.06864   0.00002   0.00007   0.00004   0.00011   2.06874
   R20        2.06533   0.00001  -0.00008   0.00010   0.00003   2.06536
   R21        2.05560  -0.00002   0.00017  -0.00013   0.00004   2.05565
   R22        2.06554   0.00002  -0.00008   0.00013   0.00004   2.06558
    A1        1.95719   0.00000   0.00013   0.00001   0.00014   1.95733
    A2        1.90380  -0.00001  -0.00013  -0.00002  -0.00015   1.90365
    A3        1.88868  -0.00001   0.00063  -0.00062   0.00001   1.88869
    A4        1.95288   0.00002  -0.00071   0.00085   0.00014   1.95303
    A5        1.91289  -0.00001  -0.00017   0.00006  -0.00011   1.91278
    A6        1.84395  -0.00000   0.00029  -0.00034  -0.00004   1.84391
    A7        1.99655  -0.00002  -0.00043   0.00031  -0.00011   1.99644
    A8        1.93265   0.00003  -0.00014   0.00022   0.00008   1.93273
    A9        1.93091   0.00001  -0.00009   0.00020   0.00012   1.93102
   A10        1.87943  -0.00002  -0.00007  -0.00037  -0.00043   1.87899
   A11        1.88594   0.00002   0.00054  -0.00016   0.00039   1.88632
   A12        1.82998  -0.00002   0.00024  -0.00028  -0.00004   1.82994
   A13        2.24507   0.00012  -0.00165   0.00179   0.00015   2.24522
   A14        1.99778  -0.00005   0.00090  -0.00080   0.00011   1.99789
   A15        2.04033  -0.00007   0.00074  -0.00100  -0.00026   2.04008
   A16        2.10864  -0.00010   0.00067  -0.00094  -0.00028   2.10837
   A17        2.17942   0.00018  -0.00060   0.00138   0.00077   2.18019
   A18        1.99512  -0.00008  -0.00006  -0.00043  -0.00050   1.99462
   A19        2.13216  -0.00002  -0.00004  -0.00021  -0.00019   2.13197
   A20        2.12101   0.00003  -0.00029   0.00025   0.00001   2.12102
   A21        2.03001  -0.00001   0.00017  -0.00004   0.00018   2.03019
   A22        1.93648   0.00000  -0.00041   0.00027  -0.00014   1.93634
   A23        1.93747   0.00000   0.00010  -0.00012  -0.00002   1.93745
   A24        1.95221  -0.00001  -0.00011  -0.00003  -0.00014   1.95207
   A25        1.85801  -0.00001   0.00017  -0.00011   0.00007   1.85808
   A26        1.88767   0.00001  -0.00007   0.00006  -0.00000   1.88766
   A27        1.88851   0.00001   0.00034  -0.00009   0.00026   1.88877
   A28        1.97909   0.00004  -0.00015   0.00059   0.00044   1.97953
   A29        1.92776   0.00002  -0.00026   0.00017  -0.00010   1.92767
   A30        1.92804  -0.00002   0.00033  -0.00043  -0.00010   1.92793
   A31        1.88485  -0.00001   0.00028  -0.00004   0.00024   1.88510
   A32        1.88274  -0.00001  -0.00034  -0.00003  -0.00037   1.88237
   A33        1.85649  -0.00002   0.00015  -0.00030  -0.00015   1.85634
   A34        1.92723   0.00002   0.00057  -0.00012   0.00045   1.92768
   A35        1.91906  -0.00001  -0.00018   0.00021   0.00004   1.91909
   A36        1.92414   0.00000   0.00040  -0.00038   0.00002   1.92417
   A37        1.91433   0.00001  -0.00028   0.00029   0.00002   1.91434
   A38        1.86578  -0.00003  -0.00012  -0.00021  -0.00034   1.86544
   A39        1.91261   0.00001  -0.00040   0.00020  -0.00020   1.91241
    D1        3.08085  -0.00001   0.00913  -0.00177   0.00735   3.08820
    D2        0.95348   0.00000   0.00963  -0.00168   0.00795   0.96142
    D3       -1.06774   0.00001   0.00947  -0.00159   0.00788  -1.05986
    D4       -1.02910   0.00001   0.00822  -0.00069   0.00753  -1.02158
    D5        3.12672   0.00002   0.00872  -0.00060   0.00812   3.13483
    D6        1.10550   0.00003   0.00856  -0.00051   0.00805   1.11355
    D7        0.96889   0.00000   0.00883  -0.00143   0.00740   0.97629
    D8       -1.15848   0.00001   0.00933  -0.00134   0.00799  -1.15049
    D9        3.10349   0.00002   0.00917  -0.00125   0.00792   3.11141
   D10        2.05606   0.00001   0.01282   0.00004   0.01286   2.06891
   D11       -1.08445   0.00002   0.01087   0.00115   0.01202  -1.07243
   D12       -0.08971   0.00001   0.01341  -0.00057   0.01284  -0.07687
   D13        3.05297   0.00002   0.01147   0.00054   0.01201   3.06497
   D14       -2.12919   0.00000   0.01358  -0.00070   0.01288  -2.11631
   D15        1.01349   0.00001   0.01163   0.00041   0.01204   1.02553
   D16       -0.02207  -0.00000  -0.00243  -0.00034  -0.00276  -0.02483
   D17        3.11829  -0.00001  -0.00228  -0.00043  -0.00271   3.11558
   D18        2.13417   0.00001  -0.00294  -0.00012  -0.00307   2.13110
   D19       -1.00865   0.00001  -0.00280  -0.00021  -0.00301  -1.01167
   D20       -2.18099  -0.00002  -0.00244  -0.00070  -0.00313  -2.18412
   D21        0.95937  -0.00002  -0.00229  -0.00079  -0.00308   0.95629
   D22        3.13859   0.00000  -0.00159   0.00013  -0.00146   3.13713
   D23        0.00207  -0.00000  -0.00051   0.00028  -0.00023   0.00184
   D24       -0.00411  -0.00001   0.00040  -0.00100  -0.00060  -0.00471
   D25       -3.14063  -0.00001   0.00147  -0.00085   0.00063  -3.14000
   D26       -2.10181  -0.00000   0.00262  -0.00075   0.00187  -2.09994
   D27        2.11903   0.00000   0.00260  -0.00071   0.00189   2.12092
   D28        0.00772  -0.00000   0.00217  -0.00050   0.00168   0.00940
   D29        1.03521  -0.00000   0.00165  -0.00088   0.00077   1.03598
   D30       -1.02714   0.00001   0.00164  -0.00085   0.00079  -1.02635
   D31       -3.13844   0.00000   0.00121  -0.00063   0.00057  -3.13787
   D32       -0.00109  -0.00002  -0.00778  -0.00202  -0.00980  -0.01088
   D33       -2.11940  -0.00005  -0.00785  -0.00250  -0.01035  -2.12975
   D34        2.11470  -0.00002  -0.00808  -0.00196  -0.01004   2.10465
   D35       -3.13790  -0.00002  -0.00677  -0.00187  -0.00864   3.13665
   D36        1.02697  -0.00005  -0.00684  -0.00235  -0.00919   1.01778
   D37       -1.02211  -0.00002  -0.00707  -0.00181  -0.00888  -1.03100
   D38       -2.13386  -0.00003  -0.00162  -0.00133  -0.00294  -2.13680
   D39       -0.01909  -0.00000  -0.00171  -0.00090  -0.00260  -0.02170
   D40        2.09153   0.00000  -0.00206  -0.00076  -0.00281   2.08872
   D41        1.00895  -0.00002  -0.00175  -0.00124  -0.00299   1.00597
   D42        3.12372  -0.00000  -0.00184  -0.00081  -0.00266   3.12107
   D43       -1.04884   0.00000  -0.00219  -0.00067  -0.00286  -1.05170
         Item               Value     Threshold  Converged?
 Maximum Force            0.000179     0.000450     YES
 RMS     Force            0.000036     0.000300     YES
 Maximum Displacement     0.031985     0.001800     NO 
 RMS     Displacement     0.009436     0.001200     NO 
 Predicted change in Energy=-2.064404D-06
 Lowest energy point so far.  Saving SCF results.
 GradGradGradGradGradGradGradGradGradGradGradGradGradGradGradGradGradGrad

 Leave Link  103 at Tue Jun  4 00:11:58 2024, MaxMem= 13421772800 cpu:               5.5 elap:               0.2
 (Enter /tmpu/scunam/7/gaussian-2016.03/g1/g16/l202.exe)
                          Input orientation:                          
 ---------------------------------------------------------------------
 Center     Atomic      Atomic             Coordinates (Angstroms)
 Number     Number       Type             X           Y           Z
 ---------------------------------------------------------------------
      1          8           0        2.766828   -0.366027   -1.072046
      2          6           0        0.048549   -0.491736   -0.331919
      3          6           0        1.117048    0.078664    0.604100
      4          6           0       -1.305392   -0.534188    0.314252
      5          6           0       -2.426524    0.090759   -0.056216
      6          6           0        2.522797    0.077118    0.026559
      7          6           0       -3.701160   -0.083635    0.726407
      8          6           0       -2.552570    0.997866   -1.249847
      9          6           0        3.609814    0.664665    0.903125
     10          1           0        0.039924    0.085176   -1.255553
     11          1           0        0.350146   -1.503776   -0.618841
     12          1           0        1.144509   -0.479363    1.547912
     13          1           0        0.869037    1.106487    0.892648
     14          1           0       -1.362174   -1.162661    1.201485
     15          1           0       -4.493178   -0.501664    0.096412
     16          1           0       -4.071816    0.879406    1.092606
     17          1           0       -3.564184   -0.744113    1.582863
     18          1           0       -1.622989    1.117700   -1.801859
     19          1           0       -2.893233    1.991378   -0.940911
     20          1           0       -3.307847    0.614810   -1.943579
     21          1           0        3.654323    0.138892    1.860257
     22          1           0        4.571736    0.592447    0.400330
     23          1           0        3.390957    1.712095    1.126213
 ---------------------------------------------------------------------
                    Distance matrix (angstroms):
                    1          2          3          4          5
     1  O    0.000000
     2  C    2.820041   0.000000
     3  C    2.393530   1.530744   0.000000
     4  C    4.305005   1.500831   2.515515   0.000000
     5  C    5.311447   2.557596   3.604590   1.335943   0.000000
     6  C    1.209487   2.563983   1.519766   3.887351   4.950033
     7  C    6.719304   3.917514   4.822492   2.472363   1.505858
     8  C    5.494343   3.134856   4.212855   2.519732   1.504488
     9  C    2.382069   3.942741   2.578118   5.093453   6.138980
    10  H    2.770066   1.089037   2.149081   2.158188   2.742591
    11  H    2.709284   1.094309   2.141924   2.133441   3.250998
    12  H    3.083657   2.176016   1.096781   2.743527   3.956078
    13  H    3.103213   2.174185   1.095988   2.784690   3.576698
    14  H    4.780400   2.188974   2.836247   1.088754   2.070198
    15  H    7.354684   4.561891   5.662965   3.195387   2.155300
    16  H    7.280376   4.570198   5.272963   3.202685   2.156094
    17  H    6.875551   4.096574   4.852718   2.599151   2.162836
    18  H    4.690901   2.746824   3.791574   2.703244   2.178886
    19  H    6.132768   3.897538   4.704029   3.236535   2.147755
    20  H    6.214763   3.884235   5.133986   3.229214   2.147905
    21  H    3.104995   4.266725   2.831841   5.238506   6.375884
    22  H    2.518781   4.708595   3.498623   5.984760   7.031058
    23  H    3.088765   4.260834   2.848045   5.268848   6.153857
                    6          7          8          9         10
     6  C    0.000000
     7  C    6.265244   0.000000
     8  C    5.313788   2.528731   0.000000
     9  C    1.514987   7.351294   6.536152   0.000000
    10  H    2.794376   4.237024   2.748465   4.211866   0.000000
    11  H    2.763364   4.498842   3.883574   4.200470   1.739658
    12  H    2.126938   4.930719   4.866010   2.793255   3.065653
    13  H    2.131815   4.725540   4.038499   2.776180   2.518983
    14  H    4.243878   2.619324   3.477636   5.305544   3.091927
    15  H    7.040155   1.094958   2.797671   8.226153   4.766676
    16  H    6.728228   1.094959   2.794500   7.686967   4.801152
    17  H    6.336233   1.090188   3.475931   7.342543   4.661965
    18  H    4.649028   3.486277   1.087749   5.907994   2.032199
    19  H    5.825271   2.781793   1.094787   6.888414   3.512266
    20  H    6.177942   2.787713   1.094732   7.480657   3.458534
    21  H    2.155601   7.445688   6.995435   1.092941   4.772321
    22  H    2.145558   8.306878   7.324151   1.087802   4.851453
    23  H    2.153158   7.326842   6.440597   1.093058   4.421436
                   11         12         13         14         15
    11  H    0.000000
    12  H    2.524926   0.000000
    13  H    3.060608   1.737865   0.000000
    14  H    2.522297   2.621139   3.197298   0.000000
    15  H    4.997360   5.821587   5.654511   3.385453   0.000000
    16  H    5.306822   5.409585   4.950109   3.394710   1.754224
    17  H    4.554840   4.716260   4.853305   2.273650   1.769561
    18  H    3.487826   4.629321   3.670243   3.779966   3.803125
    19  H    4.779052   5.348099   4.277809   4.108767   3.138650
    20  H    4.429927   5.762916   5.072700   4.103227   2.610189
    21  H    4.445433   2.603644   3.103277   5.224296   8.360816
    22  H    4.822311   3.769828   3.770490   6.239675   9.135760
    23  H    4.757475   3.166519   2.604111   5.555370   8.253533
                   16         17         18         19         20
    16  H    0.000000
    17  H    1.770270   0.000000
    18  H    3.798877   4.323300   0.000000
    19  H    2.600141   3.781867   1.765804   0.000000
    20  H    3.141987   3.787897   1.764010   1.752765   0.000000
    21  H    7.799415   7.277603   6.497629   7.358583   7.947797
    22  H    8.675978   8.329344   6.595464   7.712438   8.220842
    23  H    7.509160   7.390228   5.836657   6.621333   7.449942
                   21         22         23
    21  H    0.000000
    22  H    1.782904   0.000000
    23  H    1.755890   1.781785   0.000000
 Stoichiometry    C8H14O
 Framework group  C1[X(C8H14O)]
 Deg. of freedom    63
 Full point group                 C1      NOp   1
 RotChk:  IX=0 Diff= 1.63D-03
 Largest Abelian subgroup         C1      NOp   1
 Largest concise Abelian subgroup C1      NOp   1
                         Standard orientation:                         
 ---------------------------------------------------------------------
 Center     Atomic      Atomic             Coordinates (Angstroms)
 Number     Number       Type             X           Y           Z
 ---------------------------------------------------------------------
      1          8           0        2.742241    1.095028   -0.629784
      2          6           0        0.054638    0.241018   -0.620515
      3          6           0        1.157669   -0.548818    0.088469
      4          6           0       -1.273362   -0.454748   -0.551102
      5          6           0       -2.408714   -0.031111    0.011262
      6          6           0        2.540138    0.074131   -0.013519
      7          6           0       -3.652048   -0.879756   -0.027845
      8          6           0       -2.581768    1.287910    0.713914
      9          6           0        3.659362   -0.653598    0.702675
     10          1           0        0.009728    1.244842   -0.200606
     11          1           0        0.346236    0.371651   -1.667137
     12          1           0        1.222155   -1.568762   -0.309634
     13          1           0        0.919661   -0.676454    1.150660
     14          1           0       -1.295148   -1.433522   -1.027455
     15          1           0       -4.467211   -0.356456   -0.538335
     16          1           0       -4.009539   -1.099133    0.983595
     17          1           0       -3.481365   -1.825960   -0.541728
     18          1           0       -1.674284    1.887143    0.738214
     19          1           0       -2.911532    1.131078    1.746008
     20          1           0       -3.362716    1.881124    0.227439
     21          1           0        3.741355   -1.680804    0.338472
     22          1           0        4.601300   -0.132748    0.545259
     23          1           0        3.447941   -0.712397    1.773479
 ---------------------------------------------------------------------
 Rotational constants (GHZ):           4.0686177           0.5828962           0.5554692
 Leave Link  202 at Tue Jun  4 00:11:58 2024, MaxMem= 13421772800 cpu:               2.7 elap:               0.1
 (Enter /tmpu/scunam/7/gaussian-2016.03/g1/g16/l301.exe)
 Standard basis: def2TZVP (5D, 7F)
 Ernie: Thresh=  0.10000D-02 Tol=  0.10000D-05 Strict=F.
 There are   408 symmetry adapted cartesian basis functions of A   symmetry.
 There are   363 symmetry adapted basis functions of A   symmetry.
   363 basis functions,   571 primitive gaussians,   408 cartesian basis functions
    35 alpha electrons       35 beta electrons
       nuclear repulsion energy       428.8799682806 Hartrees.
 IExCor=  402 DFT=T Ex+Corr=B3LYP ExCW=0 ScaHFX=  0.200000
 ScaDFX=  0.800000  0.720000  1.000000  0.810000 ScalE2=  1.000000  1.000000
 IRadAn=      5 IRanWt=     -1 IRanGd=            0 ICorTp=0 IEmpDi=  4
 NAtoms=   23 NActive=   23 NUniq=   23 SFac= 1.00D+00 NAtFMM=   60 NAOKFM=F Big=F
 Integral buffers will be    131072 words long.
 Raffenetti 2 integral format.
 Two-electron integral symmetry is turned on.
 Leave Link  301 at Tue Jun  4 00:11:58 2024, MaxMem= 13421772800 cpu:               1.6 elap:               0.1
 (Enter /tmpu/scunam/7/gaussian-2016.03/g1/g16/l302.exe)
 NPDir=0 NMtPBC=     1 NCelOv=     1 NCel=       1 NClECP=     1 NCelD=      1
         NCelK=      1 NCelE2=     1 NClLst=     1 CellRange=     0.0.
 One-electron integrals computed using PRISM.
 One-electron integral symmetry used in STVInt
   1 Symmetry operations used in ECPInt.
 ECPInt:  NShTT=   12090 NPrTT=   35220 LenC2=   11303 LenP2D=   25531.
 LDataN:  DoStor=T MaxTD1= 6 Len=  172
 NBasis=   363 RedAO= T EigKep=  7.86D-05  NBF=   363
 NBsUse=   363 1.00D-06 EigRej= -1.00D+00 NBFU=   363
 Precomputing XC quadrature grid using
 IXCGrd= 4 IRadAn=           5 IRanWt=          -1 IRanGd=           0 AccXCQ= 0.00D+00.
 Generated NRdTot=       0 NPtTot=           0 NUsed=           0 NTot=          32
 NSgBfM=   405   405   405   405   405 MxSgAt=    23 MxSgA2=    23.
 Leave Link  302 at Tue Jun  4 00:11:59 2024, MaxMem= 13421772800 cpu:              11.8 elap:               0.4
 (Enter /tmpu/scunam/7/gaussian-2016.03/g1/g16/l303.exe)
 DipDrv:  MaxL=1.
 Leave Link  303 at Tue Jun  4 00:11:59 2024, MaxMem= 13421772800 cpu:               2.5 elap:               0.1
 (Enter /tmpu/scunam/7/gaussian-2016.03/g1/g16/l401.exe)
 Initial guess from the checkpoint file:  "S36.chk"
 B after Tr=    -0.000000   -0.000000    0.000000
         Rot=    1.000000    0.000167    0.000010   -0.000266 Ang=   0.04 deg.
 Guess basis will be translated and rotated to current coordinates.
 JPrj=2 DoOrth=T DoCkMO=T.
 Generating alternative initial guess.
 ExpMin= 9.52D-02 ExpMax= 2.70D+04 ExpMxC= 9.22D+02 IAcc=2 IRadAn=         4 AccDes= 0.00D+00
 Harris functional with IExCor=  402 and IRadAn=       4 diagonalized for initial guess.
 HarFok:  IExCor=  402 AccDes= 0.00D+00 IRadAn=         4 IDoV= 1 UseB2=F ITyADJ=14
 ICtDFT=  3500011 ScaDFX=  1.000000  1.000000  1.000000  1.000000
 FoFCou: FMM=F IPFlag=           0 FMFlag=      100000 FMFlg1=           0
         NFxFlg=           0 DoJE=T BraDBF=F KetDBF=T FulRan=T
         wScrn=  0.000000 ICntrl=       500 IOpCl=  0 I1Cent=   200000004 NGrid=           0
         NMat0=    1 NMatS0=      1 NMatT0=    0 NMatD0=    1 NMtDS0=    0 NMtDT0=    0
 Petite list used in FoFCou.
 Harris En= -388.761685472658    
 Leave Link  401 at Tue Jun  4 00:12:00 2024, MaxMem= 13421772800 cpu:              28.0 elap:               0.9
 (Enter /tmpu/scunam/7/gaussian-2016.03/g1/g16/l502.exe)
 Integral symmetry usage will be decided dynamically.
 Closed shell SCF:
 Using DIIS extrapolation, IDIIS=  1040.
 NGot= 13421772800 LenX= 13421422965 LenY= 13421256060
 Requested convergence on RMS density matrix=1.00D-08 within 128 cycles.
 Requested convergence on MAX density matrix=1.00D-06.
 Requested convergence on             energy=1.00D-06.
 No special actions if energy rises.
 Fock matrices will be formed incrementally for  20 cycles.
 Integral accuracy reduced to 1.0D-05 until final iterations.

 Cycle   1  Pass 0  IDiag  1:
 FoFJK:  IHMeth= 1 ICntrl=       0 DoSepK=F KAlg= 0 I1Cent=           0 FoldK=F
 IRaf= 890000000 NMat=       1 IRICut=       1 DoRegI=T DoRafI=F ISym2E= 0 IDoP0=0 IntGTp=1.
 FoFCou: FMM=F IPFlag=           0 FMFlag=      100000 FMFlg1=           0
         NFxFlg=           0 DoJE=F BraDBF=F KetDBF=F FulRan=T
         wScrn=  0.000000 ICntrl=         0 IOpCl=  0 I1Cent=           0 NGrid=           0
         NMat0=    1 NMatS0=      1 NMatT0=    0 NMatD0=    1 NMtDS0=    0 NMtDT0=    0
 Symmetry not used in FoFCou.
 E= -388.651069643548    
 DIIS: error= 4.29D-04 at cycle   1 NSaved=   1.
 NSaved= 1 IEnMin= 1 EnMin= -388.651069643548     IErMin= 1 ErrMin= 4.29D-04
 ErrMax= 4.29D-04  0.00D+00 EMaxC= 1.00D-01 BMatC= 1.19D-04 BMatP= 1.19D-04
 IDIUse=3 WtCom= 9.96D-01 WtEn= 4.29D-03
 Coeff-Com:  0.100D+01
 Coeff-En:   0.100D+01
 Coeff:      0.100D+01
 Gap=     0.608 Goal=   None    Shift=    0.000
 RMSDP=1.04D-04 MaxDP=4.43D-03              OVMax= 2.71D-03

 Cycle   2  Pass 0  IDiag  1:
 RMSU=  1.04D-04    CP:  1.00D+00
 E= -388.651234071446     Delta-E=       -0.000164427897 Rises=F Damp=F
 DIIS: error= 4.20D-05 at cycle   2 NSaved=   2.
 NSaved= 2 IEnMin= 2 EnMin= -388.651234071446     IErMin= 2 ErrMin= 4.20D-05
 ErrMax= 4.20D-05  0.00D+00 EMaxC= 1.00D-01 BMatC= 1.35D-06 BMatP= 1.19D-04
 IDIUse=1 WtCom= 1.00D+00 WtEn= 0.00D+00
 Coeff-Com: -0.593D-01 0.106D+01
 Coeff:     -0.593D-01 0.106D+01
 Gap=     0.216 Goal=   None    Shift=    0.000
 RMSDP=7.65D-06 MaxDP=2.18D-04 DE=-1.64D-04 OVMax= 3.53D-04

 Initial convergence to 1.0D-05 achieved.  Increase integral accuracy.
 Cycle   3  Pass 1  IDiag  1:
 E= -388.651228503534     Delta-E=        0.000005567911 Rises=F Damp=F
 DIIS: error= 9.72D-05 at cycle   1 NSaved=   1.
 NSaved= 1 IEnMin= 1 EnMin= -388.651228503534     IErMin= 1 ErrMin= 9.72D-05
 ErrMax= 9.72D-05  0.00D+00 EMaxC= 1.00D-01 BMatC= 2.26D-06 BMatP= 2.26D-06
 IDIUse=1 WtCom= 1.00D+00 WtEn= 0.00D+00
 Coeff-Com:  0.100D+01
 Coeff:      0.100D+01
 Gap=     0.216 Goal=   None    Shift=    0.000
 RMSDP=7.65D-06 MaxDP=2.18D-04 DE= 5.57D-06 OVMax= 2.60D-04

 Cycle   4  Pass 1  IDiag  1:
 RMSU=  9.95D-05    CP:  1.00D+00
 E= -388.651229611786     Delta-E=       -0.000001108252 Rises=F Damp=F
 DIIS: error= 2.41D-05 at cycle   2 NSaved=   2.
 NSaved= 2 IEnMin= 2 EnMin= -388.651229611786     IErMin= 2 ErrMin= 2.41D-05
 ErrMax= 2.41D-05  0.00D+00 EMaxC= 1.00D-01 BMatC= 2.58D-07 BMatP= 2.26D-06
 IDIUse=1 WtCom= 1.00D+00 WtEn= 0.00D+00
 Coeff-Com:  0.150D+00 0.850D+00
 Coeff:      0.150D+00 0.850D+00
 Gap=     0.216 Goal=   None    Shift=    0.000
 RMSDP=4.24D-06 MaxDP=4.21D-04 DE=-1.11D-06 OVMax= 3.15D-04

 Cycle   5  Pass 1  IDiag  1:
 RMSU=  3.98D-06    CP:  1.00D+00  1.01D+00
 E= -388.651229398355     Delta-E=        0.000000213432 Rises=F Damp=F
 DIIS: error= 4.40D-05 at cycle   3 NSaved=   3.
 NSaved= 3 IEnMin= 2 EnMin= -388.651229611786     IErMin= 2 ErrMin= 2.41D-05
 ErrMax= 4.40D-05  0.00D+00 EMaxC= 1.00D-01 BMatC= 5.82D-07 BMatP= 2.58D-07
 IDIUse=1 WtCom= 1.00D+00 WtEn= 0.00D+00
 Coeff-Com:  0.184D-01 0.597D+00 0.384D+00
 Coeff:      0.184D-01 0.597D+00 0.384D+00
 Gap=     0.216 Goal=   None    Shift=    0.000
 RMSDP=2.50D-06 MaxDP=2.83D-04 DE= 2.13D-07 OVMax= 2.26D-04

 Cycle   6  Pass 1  IDiag  1:
 RMSU=  8.91D-07    CP:  1.00D+00  1.02D+00  4.28D-01
 E= -388.651229815667     Delta-E=       -0.000000417312 Rises=F Damp=F
 DIIS: error= 5.76D-06 at cycle   4 NSaved=   4.
 NSaved= 4 IEnMin= 4 EnMin= -388.651229815667     IErMin= 4 ErrMin= 5.76D-06
 ErrMax= 5.76D-06  0.00D+00 EMaxC= 1.00D-01 BMatC= 1.48D-08 BMatP= 2.58D-07
 IDIUse=1 WtCom= 1.00D+00 WtEn= 0.00D+00
 Coeff-Com: -0.321D-03 0.267D+00 0.211D+00 0.522D+00
 Coeff:     -0.321D-03 0.267D+00 0.211D+00 0.522D+00
 Gap=     0.216 Goal=   None    Shift=    0.000
 RMSDP=4.53D-07 MaxDP=2.71D-05 DE=-4.17D-07 OVMax= 2.96D-05

 Cycle   7  Pass 1  IDiag  1:
 RMSU=  2.43D-07    CP:  1.00D+00  1.02D+00  4.51D-01  6.00D-01
 E= -388.651229828698     Delta-E=       -0.000000013032 Rises=F Damp=F
 DIIS: error= 6.35D-07 at cycle   5 NSaved=   5.
 NSaved= 5 IEnMin= 5 EnMin= -388.651229828698     IErMin= 5 ErrMin= 6.35D-07
 ErrMax= 6.35D-07  0.00D+00 EMaxC= 1.00D-01 BMatC= 3.48D-10 BMatP= 1.48D-08
 IDIUse=1 WtCom= 1.00D+00 WtEn= 0.00D+00
 Coeff-Com: -0.750D-03 0.105D+00 0.857D-01 0.243D+00 0.567D+00
 Coeff:     -0.750D-03 0.105D+00 0.857D-01 0.243D+00 0.567D+00
 Gap=     0.216 Goal=   None    Shift=    0.000
 RMSDP=5.54D-08 MaxDP=2.31D-06 DE=-1.30D-08 OVMax= 7.40D-06

 Cycle   8  Pass 1  IDiag  1:
 RMSU=  4.54D-08    CP:  1.00D+00  1.02D+00  4.50D-01  6.26D-01  9.14D-01
 E= -388.651229828983     Delta-E=       -0.000000000284 Rises=F Damp=F
 DIIS: error= 3.06D-07 at cycle   6 NSaved=   6.
 NSaved= 6 IEnMin= 6 EnMin= -388.651229828983     IErMin= 6 ErrMin= 3.06D-07
 ErrMax= 3.06D-07  0.00D+00 EMaxC= 1.00D-01 BMatC= 3.69D-11 BMatP= 3.48D-10
 IDIUse=1 WtCom= 1.00D+00 WtEn= 0.00D+00
 Coeff-Com: -0.398D-03 0.459D-01 0.380D-01 0.112D+00 0.325D+00 0.479D+00
 Coeff:     -0.398D-03 0.459D-01 0.380D-01 0.112D+00 0.325D+00 0.479D+00
 Gap=     0.216 Goal=   None    Shift=    0.000
 RMSDP=1.64D-08 MaxDP=7.88D-07 DE=-2.84D-10 OVMax= 3.23D-06

 Cycle   9  Pass 1  IDiag  1:
 RMSU=  1.44D-08    CP:  1.00D+00  1.02D+00  4.52D-01  6.29D-01  9.24D-01
                    CP:  9.20D-01
 E= -388.651229829013     Delta-E=       -0.000000000030 Rises=F Damp=F
 DIIS: error= 9.28D-08 at cycle   7 NSaved=   7.
 NSaved= 7 IEnMin= 7 EnMin= -388.651229829013     IErMin= 7 ErrMin= 9.28D-08
 ErrMax= 9.28D-08  0.00D+00 EMaxC= 1.00D-01 BMatC= 2.88D-12 BMatP= 3.69D-11
 IDIUse=1 WtCom= 1.00D+00 WtEn= 0.00D+00
 Coeff-Com: -0.109D-03 0.103D-01 0.877D-02 0.280D-01 0.104D+00 0.254D+00
 Coeff-Com:  0.596D+00
 Coeff:     -0.109D-03 0.103D-01 0.877D-02 0.280D-01 0.104D+00 0.254D+00
 Coeff:      0.596D+00
 Gap=     0.216 Goal=   None    Shift=    0.000
 RMSDP=5.65D-09 MaxDP=2.10D-07 DE=-3.00D-11 OVMax= 9.22D-07

 SCF Done:  E(RB3LYP) =  -388.651229829     A.U. after    9 cycles
            NFock=  9  Conv=0.57D-08     -V/T= 2.0053
 KE= 3.865936544356D+02 PE=-1.761034556149D+03 EE= 5.569097036036D+02
 Leave Link  502 at Tue Jun  4 00:12:23 2024, MaxMem= 13421772800 cpu:             738.3 elap:              23.1
 (Enter /tmpu/scunam/7/gaussian-2016.03/g1/g16/l508.exe)
 QCSCF skips out because SCF is already converged.
 Leave Link  508 at Tue Jun  4 00:12:23 2024, MaxMem= 13421772800 cpu:               0.3 elap:               0.0
 (Enter /tmpu/scunam/7/gaussian-2016.03/g1/g16/l701.exe)
 ... and contract with generalized density number  0.
 Compute integral first derivatives.
   1 Symmetry operations used in ECPInt.
 ECPInt:  NShTT=   12090 NPrTT=   35220 LenC2=   11303 LenP2D=   25531.
 LDataN:  DoStor=T MaxTD1= 7 Len=  274
 Leave Link  701 at Tue Jun  4 00:12:23 2024, MaxMem= 13421772800 cpu:               9.8 elap:               0.3
 (Enter /tmpu/scunam/7/gaussian-2016.03/g1/g16/l702.exe)
 L702 exits ... SP integral derivatives will be done elsewhere.
 Leave Link  702 at Tue Jun  4 00:12:23 2024, MaxMem= 13421772800 cpu:               1.6 elap:               0.1
 (Enter /tmpu/scunam/7/gaussian-2016.03/g1/g16/l703.exe)
 Integral derivatives from FoFJK, PRISM(SPDF).
 Compute integral first derivatives, UseDBF=F ICtDFT=           0.
 Calling FoFJK, ICntrl=      2127 FMM=F ISym2X=0 I1Cent= 0 IOpClX= 0 NMat=1 NMatS=1 NMatT=0.
 FoFJK:  IHMeth= 1 ICntrl=    2127 DoSepK=F KAlg= 0 I1Cent=           0 FoldK=F
 IRaf=         0 NMat=       1 IRICut=       1 DoRegI=T DoRafI=F ISym2E= 0 IDoP0=0 IntGTp=1.
 FoFCou: FMM=F IPFlag=           0 FMFlag=      100000 FMFlg1=         800
         NFxFlg=           0 DoJE=F BraDBF=F KetDBF=F FulRan=T
         wScrn=  0.000000 ICntrl=      2127 IOpCl=  0 I1Cent=           0 NGrid=           0
         NMat0=    1 NMatS0=      1 NMatT0=    0 NMatD0=    1 NMtDS0=    0 NMtDT0=    0
 Symmetry not used in FoFCou.
 Leave Link  703 at Tue Jun  4 00:12:34 2024, MaxMem= 13421772800 cpu:             331.9 elap:              10.4
 (Enter /tmpu/scunam/7/gaussian-2016.03/g1/g16/l716.exe)
 Dipole        =-2.86750496D-01-8.44828174D-01 6.04938035D-01
 ***** Axes restored to original set *****
 -------------------------------------------------------------------
 Center     Atomic                   Forces (Hartrees/Bohr)
 Number     Number              X              Y              Z
 -------------------------------------------------------------------
      1        8          -0.000013838    0.000032265    0.000046099
      2        6          -0.000118367    0.000026665    0.000113521
      3        6           0.000036512   -0.000004391   -0.000062839
      4        6           0.000114300   -0.000003654   -0.000139522
      5        6          -0.000017835   -0.000002602   -0.000034887
      6        6          -0.000064257   -0.000054109   -0.000042836
      7        6           0.000078119   -0.000012144    0.000026388
      8        6           0.000041633   -0.000010067    0.000028277
      9        6           0.000068432   -0.000020781    0.000000544
     10        1          -0.000007239    0.000008982   -0.000028504
     11        1           0.000001212   -0.000022438   -0.000009651
     12        1           0.000009052    0.000005968    0.000026727
     13        1           0.000011260    0.000014901    0.000030217
     14        1           0.000012960   -0.000001253    0.000020844
     15        1          -0.000018686    0.000011554   -0.000002562
     16        1          -0.000016329    0.000010371    0.000010549
     17        1          -0.000012549    0.000009295   -0.000006748
     18        1           0.000014359    0.000011351    0.000022384
     19        1          -0.000027795    0.000005762   -0.000010932
     20        1          -0.000002665   -0.000021821    0.000005315
     21        1          -0.000028468    0.000011703    0.000012470
     22        1          -0.000035586   -0.000006304    0.000001018
     23        1          -0.000024223    0.000010746   -0.000005871
 -------------------------------------------------------------------
 Cartesian Forces:  Max     0.000139522 RMS     0.000038985
 Leave Link  716 at Tue Jun  4 00:12:34 2024, MaxMem= 13421772800 cpu:               1.7 elap:               0.1
 (Enter /tmpu/scunam/7/gaussian-2016.03/g1/g16/l103.exe)

 GradGradGradGradGradGradGradGradGradGradGradGradGradGradGradGradGradGrad
 Berny optimization.
 Using GEDIIS/GDIIS optimizer.
 FormGI is forming the generalized inverse of G from B-inverse, IUseBI=4.
 GSVD:  received Info=                   1 from GESDD.
 Internal  Forces:  Max     0.000185206 RMS     0.000027336
 Search for a local minimum.
 Step number   9 out of a maximum of  138
 All quantities printed in internal units (Hartrees-Bohrs-Radians)
 RMS Force = .27336D-04 SwitMx=.10000D-02 MixMth= 2
 Mixed Optimization -- En-DIIS/RFO-DIIS
 Swapping is turned off.
 Update second derivatives using D2CorX and points    4    5    6    7    8
                                                      9
 DE= -2.31D-06 DEPred=-2.06D-06 R= 1.12D+00
 TightC=F SS=  1.41D+00  RLast= 4.62D-02 DXNew= 1.1044D+00 1.3869D-01
 Trust test= 1.12D+00 RLast= 4.62D-02 DXMaxT set to 6.57D-01
 ITU=  1  1  1  1  1 -1  1  1  0
     Eigenvalues ---    0.00119   0.00181   0.00507   0.00558   0.00683
     Eigenvalues ---    0.00702   0.01355   0.01659   0.02878   0.02918
     Eigenvalues ---    0.03977   0.04214   0.04828   0.05540   0.06870
     Eigenvalues ---    0.06913   0.07051   0.07276   0.07325   0.07369
     Eigenvalues ---    0.09266   0.09774   0.12840   0.13236   0.15822
     Eigenvalues ---    0.15987   0.16000   0.16000   0.16005   0.16077
     Eigenvalues ---    0.16095   0.16187   0.16282   0.16450   0.21760
     Eigenvalues ---    0.22758   0.22882   0.24981   0.25119   0.25507
     Eigenvalues ---    0.28573   0.29897   0.30864   0.31457   0.31921
     Eigenvalues ---    0.32559   0.33824   0.33892   0.34119   0.34160
     Eigenvalues ---    0.34229   0.34241   0.34247   0.34269   0.34298
     Eigenvalues ---    0.34462   0.34513   0.34530   0.34830   0.35168
     Eigenvalues ---    0.36489   0.57793   0.88608
 En-DIIS/RFO-DIIS/Sim-DIIS IScMMF=       -3 using points:     9    8    7    6    5    4    3    2
 RFO step:  Lambda=-9.64822638D-07.
 NNeg= 0 NGDIIS= 8 SimSw=  2.50D-01 Rises=F DC= -2.31D-06 SmlDif=  1.00D-05
 NRisDI= 0 DoIntr=F SqrtH=F CThrHd= 10.0 CDAdj=  3.0
 RMS Error=  0.1634855335D-02 NUsed= 8 OKEnD=F EnDIS=F
 InvSVX:  RCond= 1.91D-07 Info=           0 Equed=N FErr=  9.13D-12 BErr=  1.30D-16
 DidBck=F Rises=F RFO-DIIS coefs:    1.24192   -0.04782   -0.23974    0.01218    0.06451
                  RFO-DIIS coefs:   -0.00256   -0.09465    0.06616
 Iteration  1 RMS(Cart)=  0.00215206 RMS(Int)=  0.00000450
 Iteration  2 RMS(Cart)=  0.00000469 RMS(Int)=  0.00000093
 Iteration  3 RMS(Cart)=  0.00000000 RMS(Int)=  0.00000093
 ITry= 1 IFail=0 DXMaxC= 9.11D-03 DCOld= 1.00D+10 DXMaxT= 6.57D-01 DXLimC= 3.00D+00 Rises=F
 Variable       Old X    -DE/DX   Delta X   Delta X   Delta X     New X
                                 (Linear)    (Quad)   (Total)
    R1        2.28560  -0.00006   0.00001  -0.00009  -0.00008   2.28552
    R2        2.89269  -0.00003   0.00002  -0.00012  -0.00010   2.89259
    R3        2.83616  -0.00019   0.00018  -0.00047  -0.00029   2.83587
    R4        2.05798   0.00003   0.00002   0.00003   0.00005   2.05804
    R5        2.06794   0.00002  -0.00002   0.00006   0.00004   2.06799
    R6        2.87194  -0.00010   0.00026  -0.00044  -0.00018   2.87176
    R7        2.07262   0.00002   0.00011  -0.00004   0.00007   2.07268
    R8        2.07112   0.00002   0.00004   0.00000   0.00004   2.07116
    R9        2.52457  -0.00004   0.00005  -0.00013  -0.00008   2.52449
   R10        2.05745   0.00002  -0.00003   0.00004   0.00000   2.05745
   R11        2.84566  -0.00001   0.00002  -0.00003  -0.00002   2.84564
   R12        2.84307  -0.00005  -0.00003  -0.00007  -0.00010   2.84297
   R13        2.86291  -0.00001   0.00013  -0.00014  -0.00001   2.86290
   R14        2.06917   0.00001   0.00001   0.00003   0.00005   2.06922
   R15        2.06917   0.00002   0.00002  -0.00000   0.00001   2.06919
   R16        2.06016  -0.00001   0.00002  -0.00006  -0.00004   2.06012
   R17        2.05555   0.00000   0.00003  -0.00004  -0.00000   2.05555
   R18        2.06885   0.00001  -0.00005   0.00003  -0.00002   2.06883
   R19        2.06874   0.00001   0.00012  -0.00006   0.00006   2.06880
   R20        2.06536   0.00000   0.00004  -0.00002   0.00002   2.06538
   R21        2.05565  -0.00003   0.00007  -0.00014  -0.00007   2.05558
   R22        2.06558   0.00001   0.00004   0.00001   0.00005   2.06563
    A1        1.95733  -0.00003   0.00021  -0.00022  -0.00001   1.95732
    A2        1.90365   0.00002  -0.00002   0.00010   0.00008   1.90372
    A3        1.88869   0.00001   0.00007  -0.00001   0.00006   1.88875
    A4        1.95303   0.00001  -0.00013   0.00015   0.00003   1.95305
    A5        1.91278   0.00000  -0.00015   0.00004  -0.00011   1.91267
    A6        1.84391  -0.00001   0.00001  -0.00006  -0.00004   1.84387
    A7        1.99644  -0.00002  -0.00004  -0.00004  -0.00008   1.99636
    A8        1.93273   0.00002   0.00010  -0.00002   0.00008   1.93281
    A9        1.93102   0.00002   0.00000   0.00024   0.00025   1.93127
   A10        1.87899  -0.00001  -0.00004  -0.00019  -0.00023   1.87876
   A11        1.88632   0.00000   0.00022  -0.00004   0.00019   1.88651
   A12        1.82994  -0.00002  -0.00026   0.00004  -0.00023   1.82971
   A13        2.24522   0.00002  -0.00045   0.00026  -0.00019   2.24503
   A14        1.99789  -0.00002   0.00033  -0.00019   0.00014   1.99803
   A15        2.04008   0.00000   0.00012  -0.00007   0.00005   2.04013
   A16        2.10837  -0.00001   0.00017  -0.00015   0.00002   2.10838
   A17        2.18019  -0.00002  -0.00016   0.00003  -0.00013   2.18006
   A18        1.99462   0.00004  -0.00001   0.00012   0.00011   1.99473
   A19        2.13197   0.00003   0.00005   0.00000   0.00005   2.13202
   A20        2.12102   0.00003  -0.00009   0.00017   0.00008   2.12110
   A21        2.03019  -0.00005   0.00004  -0.00017  -0.00014   2.03006
   A22        1.93634   0.00001  -0.00020   0.00024   0.00004   1.93638
   A23        1.93745   0.00001   0.00005  -0.00003   0.00002   1.93747
   A24        1.95207   0.00001   0.00007  -0.00000   0.00006   1.95213
   A25        1.85808  -0.00002  -0.00005  -0.00010  -0.00014   1.85794
   A26        1.88766  -0.00001  -0.00001  -0.00000  -0.00001   1.88766
   A27        1.88877  -0.00001   0.00014  -0.00012   0.00002   1.88878
   A28        1.97953  -0.00002   0.00009  -0.00013  -0.00004   1.97950
   A29        1.92767   0.00002  -0.00024   0.00034   0.00010   1.92776
   A30        1.92793  -0.00003   0.00005  -0.00021  -0.00016   1.92777
   A31        1.88510   0.00000   0.00015  -0.00001   0.00014   1.88524
   A32        1.88237   0.00002  -0.00000   0.00003   0.00003   1.88240
   A33        1.85634  -0.00000  -0.00005  -0.00002  -0.00007   1.85627
   A34        1.92768  -0.00001   0.00013  -0.00002   0.00011   1.92779
   A35        1.91909  -0.00001   0.00014  -0.00014   0.00000   1.91909
   A36        1.92417  -0.00003   0.00001  -0.00024  -0.00023   1.92393
   A37        1.91434   0.00003   0.00003   0.00020   0.00024   1.91458
   A38        1.86544   0.00000  -0.00030   0.00012  -0.00018   1.86526
   A39        1.91241   0.00002  -0.00003   0.00009   0.00006   1.91247
    D1        3.08820  -0.00001   0.00306  -0.00189   0.00117   3.08937
    D2        0.96142  -0.00001   0.00306  -0.00159   0.00147   0.96289
    D3       -1.05986  -0.00001   0.00333  -0.00177   0.00155  -1.05831
    D4       -1.02158  -0.00001   0.00303  -0.00178   0.00125  -1.02033
    D5        3.13483  -0.00000   0.00304  -0.00149   0.00155   3.13638
    D6        1.11355  -0.00000   0.00330  -0.00167   0.00163   1.11518
    D7        0.97629  -0.00000   0.00307  -0.00180   0.00127   0.97756
    D8       -1.15049   0.00001   0.00308  -0.00151   0.00157  -1.14892
    D9        3.11141   0.00000   0.00334  -0.00169   0.00165   3.11307
   D10        2.06891  -0.00001   0.00035  -0.00033   0.00002   2.06893
   D11       -1.07243   0.00001   0.00004   0.00037   0.00041  -1.07202
   D12       -0.07687  -0.00001   0.00031  -0.00040  -0.00009  -0.07696
   D13        3.06497   0.00000   0.00001   0.00029   0.00030   3.06527
   D14       -2.11631  -0.00001   0.00046  -0.00045   0.00001  -2.11630
   D15        1.02553   0.00000   0.00015   0.00025   0.00040   1.02593
   D16       -0.02483   0.00000  -0.00105  -0.00029  -0.00133  -0.02617
   D17        3.11558  -0.00000  -0.00103  -0.00038  -0.00141   3.11417
   D18        2.13110   0.00001  -0.00098  -0.00049  -0.00146   2.12964
   D19       -1.01167   0.00000  -0.00096  -0.00058  -0.00153  -1.01320
   D20       -2.18412  -0.00001  -0.00120  -0.00055  -0.00174  -2.18587
   D21        0.95629  -0.00002  -0.00118  -0.00064  -0.00182   0.95447
   D22        3.13713   0.00001   0.00001   0.00011   0.00012   3.13725
   D23        0.00184   0.00000   0.00055  -0.00022   0.00033   0.00217
   D24       -0.00471  -0.00000   0.00032  -0.00060  -0.00028  -0.00500
   D25       -3.14000  -0.00001   0.00086  -0.00093  -0.00007  -3.14008
   D26       -2.09994  -0.00001   0.00057  -0.00104  -0.00047  -2.10041
   D27        2.12092  -0.00000   0.00072  -0.00105  -0.00033   2.12059
   D28        0.00940  -0.00001   0.00047  -0.00088  -0.00041   0.00899
   D29        1.03598  -0.00001   0.00008  -0.00074  -0.00066   1.03532
   D30       -1.02635   0.00000   0.00023  -0.00075  -0.00052  -1.02686
   D31       -3.13787   0.00000  -0.00002  -0.00057  -0.00059  -3.13846
   D32       -0.01088  -0.00001  -0.00407  -0.00151  -0.00559  -0.01647
   D33       -2.12975  -0.00002  -0.00416  -0.00166  -0.00582  -2.13557
   D34        2.10465  -0.00001  -0.00398  -0.00171  -0.00569   2.09896
   D35        3.13665  -0.00002  -0.00356  -0.00183  -0.00539   3.13126
   D36        1.01778  -0.00003  -0.00364  -0.00198  -0.00562   1.01216
   D37       -1.03100  -0.00002  -0.00346  -0.00203  -0.00549  -1.03649
   D38       -2.13680  -0.00002  -0.00096  -0.00129  -0.00225  -2.13905
   D39       -0.02170  -0.00000  -0.00074  -0.00114  -0.00188  -0.02358
   D40        2.08872  -0.00000  -0.00068  -0.00127  -0.00195   2.08677
   D41        1.00597  -0.00002  -0.00097  -0.00120  -0.00217   1.00379
   D42        3.12107   0.00000  -0.00075  -0.00105  -0.00181   3.11926
   D43       -1.05170  -0.00000  -0.00069  -0.00118  -0.00188  -1.05358
         Item               Value     Threshold  Converged?
 Maximum Force            0.000185     0.000450     YES
 RMS     Force            0.000027     0.000300     YES
 Maximum Displacement     0.009106     0.001800     NO 
 RMS     Displacement     0.002152     0.001200     NO 
 Predicted change in Energy=-4.772902D-07
 Lowest energy point so far.  Saving SCF results.
 GradGradGradGradGradGradGradGradGradGradGradGradGradGradGradGradGradGrad

 Leave Link  103 at Tue Jun  4 00:12:34 2024, MaxMem= 13421772800 cpu:               2.6 elap:               0.1
 (Enter /tmpu/scunam/7/gaussian-2016.03/g1/g16/l202.exe)
                          Input orientation:                          
 ---------------------------------------------------------------------
 Center     Atomic      Atomic             Coordinates (Angstroms)
 Number     Number       Type             X           Y           Z
 ---------------------------------------------------------------------
      1          8           0        2.766252   -0.366091   -1.072445
      2          6           0        0.048330   -0.492367   -0.331719
      3          6           0        1.117018    0.077257    0.604470
      4          6           0       -1.305467   -0.534572    0.314416
      5          6           0       -2.426229    0.091003   -0.055967
      6          6           0        2.522377    0.076858    0.026226
      7          6           0       -3.701004   -0.082917    0.726518
      8          6           0       -2.551621    0.998183   -1.249543
      9          6           0        3.609204    0.665467    0.902304
     10          1           0        0.039889    0.084828   -1.255212
     11          1           0        0.349456   -1.504470   -0.619005
     12          1           0        1.145376   -0.482065    1.547531
     13          1           0        0.868797    1.104539    0.894841
     14          1           0       -1.362494   -1.163019    1.201654
     15          1           0       -4.493372   -0.499964    0.096272
     16          1           0       -4.071035    0.880188    1.093203
     17          1           0       -3.564595   -0.743961    1.582604
     18          1           0       -1.620596    1.121797   -1.798275
     19          1           0       -2.897335    1.990196   -0.941429
     20          1           0       -3.303028    0.612398   -1.946010
     21          1           0        3.653203    0.141317    1.860361
     22          1           0        4.571235    0.592434    0.399914
     23          1           0        3.390238    1.713261    1.123693
 ---------------------------------------------------------------------
                    Distance matrix (angstroms):
                    1          2          3          4          5
     1  O    0.000000
     2  C    2.819880   0.000000
     3  C    2.393444   1.530690   0.000000
     4  C    4.304726   1.500679   2.515332   0.000000
     5  C    5.310746   2.557303   3.604297   1.335902   0.000000
     6  C    1.209445   2.563796   1.519671   3.887067   4.949308
     7  C    6.718770   3.917273   4.822228   2.472331   1.505850
     8  C    5.492940   3.134309   4.212408   2.519565   1.504435
     9  C    2.382082   3.942489   2.577924   5.093103   6.137976
    10  H    2.769438   1.089066   2.149111   2.158094   2.742255
    11  H    2.709690   1.094332   2.141939   2.133248   3.250688
    12  H    3.083012   2.176051   1.096818   2.744078   3.956763
    13  H    3.103756   2.174333   1.096010   2.784062   3.576099
    14  H    4.780499   2.188934   2.835999   1.088756   2.070196
    15  H    7.354317   4.561830   5.662855   3.195548   2.155342
    16  H    7.279543   4.569845   5.272519   3.202565   2.156106
    17  H    6.875442   4.096481   4.852694   2.599193   2.162859
    18  H    4.688825   2.746202   3.789297   2.703021   2.178811
    19  H    6.135590   3.900231   4.707883   3.238154   2.147771
    20  H    6.209406   3.880470   5.131094   3.227277   2.147765
    21  H    3.105719   4.266366   2.830831   5.237860   6.374507
    22  H    2.518843   4.708370   3.498409   5.984403   7.030203
    23  H    3.088055   4.260443   2.848445   5.268523   6.152610
                    6          7          8          9         10
     6  C    0.000000
     7  C    6.264695   0.000000
     8  C    5.312427   2.528770   0.000000
     9  C    1.514981   7.350519   6.534288   0.000000
    10  H    2.793724   4.236706   2.747758   4.210942   0.000000
    11  H    2.763785   4.498608   3.882925   4.201068   1.739672
    12  H    2.126710   4.931610   4.866472   2.793492   3.065752
    13  H    2.131888   4.724560   4.038435   2.775369   2.519847
    14  H    4.243955   2.619352   3.477526   5.305729   3.091923
    15  H    7.039770   1.094982   2.797510   8.225550   4.766440
    16  H    6.727322   1.094966   2.794817   7.685612   4.800766
    17  H    6.336188   1.090169   3.475952   7.342526   4.661802
    18  H    4.645958   3.486261   1.087748   5.903573   2.031608
    19  H    5.828421   2.779520   1.094779   6.891249   3.515134
    20  H    6.173481   2.790028   1.094764   7.476274   3.454074
    21  H    2.155684   7.444477   6.993252   1.092951   4.771375
    22  H    2.145525   8.306185   7.322597   1.087765   4.850794
    23  H    2.153005   7.325962   6.438112   1.093084   4.419935
                   11         12         13         14         15
    11  H    0.000000
    12  H    2.524417   0.000000
    13  H    3.060780   1.737761   0.000000
    14  H    2.522332   2.621592   3.196031   0.000000
    15  H    4.997363   5.822539   5.653760   3.385839   0.000000
    16  H    5.306505   5.410462   4.948901   3.394503   1.754155
    17  H    4.554695   4.717377   4.852312   2.273759   1.769561
    18  H    3.488418   4.627893   3.667458   3.779758   3.804243
    19  H    4.781035   5.352617   4.282525   4.109903   3.134495
    20  H    4.425236   5.761162   5.071170   4.101898   2.612506
    21  H    4.446416   2.603010   3.100475   5.224214   8.360020
    22  H    4.822719   3.769360   3.770312   6.239675   9.135241
    23  H    4.757852   3.168359   2.603955   5.555856   8.252592
                   16         17         18         19         20
    16  H    0.000000
    17  H    1.770270   0.000000
    18  H    3.797851   4.323254   0.000000
    19  H    2.597964   3.780422   1.765889   0.000000
    20  H    3.146166   3.789360   1.764055   1.752740   0.000000
    21  H    7.797328   7.277188   6.493066   7.360565   7.943521
    22  H    8.674807   8.329251   6.591739   7.715729   8.216312
    23  H    7.507699   7.390416   5.830625   6.623820   7.445455
                   21         22         23
    21  H    0.000000
    22  H    1.783029   0.000000
    23  H    1.755802   1.781814   0.000000
 Stoichiometry    C8H14O
 Framework group  C1[X(C8H14O)]
 Deg. of freedom    63
 Full point group                 C1      NOp   1
 RotChk:  IX=0 Diff= 2.77D-04
 Largest Abelian subgroup         C1      NOp   1
 Largest concise Abelian subgroup C1      NOp   1
                         Standard orientation:                         
 ---------------------------------------------------------------------
 Center     Atomic      Atomic             Coordinates (Angstroms)
 Number     Number       Type             X           Y           Z
 ---------------------------------------------------------------------
      1          8           0        2.741883    1.094933   -0.629862
      2          6           0        0.054547    0.240607   -0.621083
      3          6           0        1.157633   -0.549564    0.087326
      4          6           0       -1.273407   -0.454894   -0.551406
      5          6           0       -2.408359   -0.031001    0.011472
      6          6           0        2.539771    0.074054   -0.013652
      7          6           0       -3.651948   -0.879281   -0.027138
      8          6           0       -2.580622    1.288121    0.714015
      9          6           0        3.658653   -0.653079    0.703668
     10          1           0        0.009936    1.244407   -0.201011
     11          1           0        0.345731    0.371391   -1.667825
     12          1           0        1.222875   -1.569005   -0.312038
     13          1           0        0.919414   -0.678917    1.149285
     14          1           0       -1.295541   -1.433740   -1.027601
     15          1           0       -4.467376   -0.355549   -0.536812
     16          1           0       -4.008877   -1.098917    0.984451
     17          1           0       -3.481941   -1.825325   -0.541500
     18          1           0       -1.671496    1.884671    0.742535
     19          1           0       -2.915536    1.131847    1.744525
     20          1           0       -3.357701    1.883774    0.224264
     21          1           0        3.740053   -1.681013    0.341361
     22          1           0        4.600792   -0.132900    0.545490
     23          1           0        3.446994   -0.709975    1.774553
 ---------------------------------------------------------------------
 Rotational constants (GHZ):           4.0676340           0.5830431           0.5556288
 Leave Link  202 at Tue Jun  4 00:12:34 2024, MaxMem= 13421772800 cpu:               2.7 elap:               0.1
 (Enter /tmpu/scunam/7/gaussian-2016.03/g1/g16/l301.exe)
 Standard basis: def2TZVP (5D, 7F)
 Ernie: Thresh=  0.10000D-02 Tol=  0.10000D-05 Strict=F.
 There are   408 symmetry adapted cartesian basis functions of A   symmetry.
 There are   363 symmetry adapted basis functions of A   symmetry.
   363 basis functions,   571 primitive gaussians,   408 cartesian basis functions
    35 alpha electrons       35 beta electrons
       nuclear repulsion energy       428.9036682527 Hartrees.
 IExCor=  402 DFT=T Ex+Corr=B3LYP ExCW=0 ScaHFX=  0.200000
 ScaDFX=  0.800000  0.720000  1.000000  0.810000 ScalE2=  1.000000  1.000000
 IRadAn=      5 IRanWt=     -1 IRanGd=            0 ICorTp=0 IEmpDi=  4
 NAtoms=   23 NActive=   23 NUniq=   23 SFac= 1.00D+00 NAtFMM=   60 NAOKFM=F Big=F
 Integral buffers will be    131072 words long.
 Raffenetti 2 integral format.
 Two-electron integral symmetry is turned on.
 Leave Link  301 at Tue Jun  4 00:12:34 2024, MaxMem= 13421772800 cpu:               1.5 elap:               0.1
 (Enter /tmpu/scunam/7/gaussian-2016.03/g1/g16/l302.exe)
 NPDir=0 NMtPBC=     1 NCelOv=     1 NCel=       1 NClECP=     1 NCelD=      1
         NCelK=      1 NCelE2=     1 NClLst=     1 CellRange=     0.0.
 One-electron integrals computed using PRISM.
 One-electron integral symmetry used in STVInt
   1 Symmetry operations used in ECPInt.
 ECPInt:  NShTT=   12090 NPrTT=   35220 LenC2=   11305 LenP2D=   25535.
 LDataN:  DoStor=T MaxTD1= 6 Len=  172
 NBasis=   363 RedAO= T EigKep=  7.86D-05  NBF=   363
 NBsUse=   363 1.00D-06 EigRej= -1.00D+00 NBFU=   363
 Precomputing XC quadrature grid using
 IXCGrd= 4 IRadAn=           5 IRanWt=          -1 IRanGd=           0 AccXCQ= 0.00D+00.
 Generated NRdTot=       0 NPtTot=           0 NUsed=           0 NTot=          32
 NSgBfM=   405   405   405   405   405 MxSgAt=    23 MxSgA2=    23.
 Leave Link  302 at Tue Jun  4 00:12:34 2024, MaxMem= 13421772800 cpu:              11.6 elap:               0.4
 (Enter /tmpu/scunam/7/gaussian-2016.03/g1/g16/l303.exe)
 DipDrv:  MaxL=1.
 Leave Link  303 at Tue Jun  4 00:12:35 2024, MaxMem= 13421772800 cpu:               2.5 elap:               0.1
 (Enter /tmpu/scunam/7/gaussian-2016.03/g1/g16/l401.exe)
 Initial guess from the checkpoint file:  "S36.chk"
 B after Tr=     0.000000   -0.000000    0.000000
         Rot=    1.000000    0.000084    0.000000    0.000040 Ang=   0.01 deg.
 Guess basis will be translated and rotated to current coordinates.
 JPrj=2 DoOrth=T DoCkMO=T.
 Leave Link  401 at Tue Jun  4 00:12:35 2024, MaxMem= 13421772800 cpu:               9.6 elap:               0.3
 (Enter /tmpu/scunam/7/gaussian-2016.03/g1/g16/l502.exe)
 Integral symmetry usage will be decided dynamically.
 Closed shell SCF:
 Using DIIS extrapolation, IDIIS=  1040.
 NGot= 13421772800 LenX= 13421422965 LenY= 13421256060
 Requested convergence on RMS density matrix=1.00D-08 within 128 cycles.
 Requested convergence on MAX density matrix=1.00D-06.
 Requested convergence on             energy=1.00D-06.
 No special actions if energy rises.
 Fock matrices will be formed incrementally for  20 cycles.

 Cycle   1  Pass 1  IDiag  1:
 FoFJK:  IHMeth= 1 ICntrl=       0 DoSepK=F KAlg= 0 I1Cent=           0 FoldK=F
 IRaf= 890000000 NMat=       1 IRICut=       1 DoRegI=T DoRafI=F ISym2E= 0 IDoP0=0 IntGTp=1.
 FoFCou: FMM=F IPFlag=           0 FMFlag=      100000 FMFlg1=           0
         NFxFlg=           0 DoJE=F BraDBF=F KetDBF=F FulRan=T
         wScrn=  0.000000 ICntrl=         0 IOpCl=  0 I1Cent=           0 NGrid=           0
         NMat0=    1 NMatS0=      1 NMatT0=    0 NMatD0=    1 NMtDS0=    0 NMtDT0=    0
 Symmetry not used in FoFCou.
 E= -388.651223268149    
 DIIS: error= 1.01D-04 at cycle   1 NSaved=   1.
 NSaved= 1 IEnMin= 1 EnMin= -388.651223268149     IErMin= 1 ErrMin= 1.01D-04
 ErrMax= 1.01D-04  0.00D+00 EMaxC= 1.00D-01 BMatC= 4.97D-06 BMatP= 4.97D-06
 IDIUse=3 WtCom= 9.99D-01 WtEn= 1.01D-03
 Coeff-Com:  0.100D+01
 Coeff-En:   0.100D+01
 Coeff:      0.100D+01
 Gap=     0.607 Goal=   None    Shift=    0.000
 RMSDP=8.39D-06 MaxDP=3.87D-04              OVMax= 8.51D-04

 Cycle   2  Pass 1  IDiag  1:
 RMSU=  8.39D-06    CP:  1.00D+00
 E= -388.651230418511     Delta-E=       -0.000007150362 Rises=F Damp=F
 DIIS: error= 9.89D-06 at cycle   2 NSaved=   2.
 NSaved= 2 IEnMin= 2 EnMin= -388.651230418511     IErMin= 2 ErrMin= 9.89D-06
 ErrMax= 9.89D-06  0.00D+00 EMaxC= 1.00D-01 BMatC= 3.48D-08 BMatP= 4.97D-06
 IDIUse=1 WtCom= 1.00D+00 WtEn= 0.00D+00
 Coeff-Com: -0.669D-01 0.107D+01
 Coeff:     -0.669D-01 0.107D+01
 Gap=     0.216 Goal=   None    Shift=    0.000
 RMSDP=9.71D-07 MaxDP=5.70D-05 DE=-7.15D-06 OVMax= 1.03D-04

 Cycle   3  Pass 1  IDiag  1:
 RMSU=  7.86D-07    CP:  1.00D+00  1.07D+00
 E= -388.651230491434     Delta-E=       -0.000000072923 Rises=F Damp=F
 DIIS: error= 4.08D-06 at cycle   3 NSaved=   3.
 NSaved= 3 IEnMin= 3 EnMin= -388.651230491434     IErMin= 3 ErrMin= 4.08D-06
 ErrMax= 4.08D-06  0.00D+00 EMaxC= 1.00D-01 BMatC= 6.00D-09 BMatP= 3.48D-08
 IDIUse=1 WtCom= 1.00D+00 WtEn= 0.00D+00
 Coeff-Com: -0.247D-01 0.357D+00 0.668D+00
 Coeff:     -0.247D-01 0.357D+00 0.668D+00
 Gap=     0.216 Goal=   None    Shift=    0.000
 RMSDP=5.50D-07 MaxDP=5.99D-05 DE=-7.29D-08 OVMax= 3.60D-05

 Cycle   4  Pass 1  IDiag  1:
 RMSU=  4.46D-07    CP:  1.00D+00  1.07D+00  6.07D-01
 E= -388.651230492350     Delta-E=       -0.000000000916 Rises=F Damp=F
 DIIS: error= 4.41D-06 at cycle   4 NSaved=   4.
 NSaved= 4 IEnMin= 4 EnMin= -388.651230492350     IErMin= 3 ErrMin= 4.08D-06
 ErrMax= 4.41D-06  0.00D+00 EMaxC= 1.00D-01 BMatC= 5.71D-09 BMatP= 6.00D-09
 IDIUse=1 WtCom= 1.00D+00 WtEn= 0.00D+00
 Coeff-Com: -0.368D-02 0.312D-01 0.489D+00 0.483D+00
 Coeff:     -0.368D-02 0.312D-01 0.489D+00 0.483D+00
 Gap=     0.216 Goal=   None    Shift=    0.000
 RMSDP=2.65D-07 MaxDP=2.95D-05 DE=-9.16D-10 OVMax= 2.27D-05

 Cycle   5  Pass 1  IDiag  1:
 RMSU=  9.52D-08    CP:  1.00D+00  1.07D+00  8.09D-01  5.89D-01
 E= -388.651230496538     Delta-E=       -0.000000004188 Rises=F Damp=F
 DIIS: error= 9.11D-07 at cycle   5 NSaved=   5.
 NSaved= 5 IEnMin= 5 EnMin= -388.651230496538     IErMin= 5 ErrMin= 9.11D-07
 ErrMax= 9.11D-07  0.00D+00 EMaxC= 1.00D-01 BMatC= 2.62D-10 BMatP= 5.71D-09
 IDIUse=1 WtCom= 1.00D+00 WtEn= 0.00D+00
 Coeff-Com:  0.508D-03-0.197D-01 0.198D+00 0.263D+00 0.558D+00
 Coeff:      0.508D-03-0.197D-01 0.198D+00 0.263D+00 0.558D+00
 Gap=     0.216 Goal=   None    Shift=    0.000
 RMSDP=3.98D-08 MaxDP=1.68D-06 DE=-4.19D-09 OVMax= 3.94D-06

 Cycle   6  Pass 1  IDiag  1:
 RMSU=  2.74D-08    CP:  1.00D+00  1.07D+00  8.28D-01  6.04D-01  7.50D-01
 E= -388.651230496752     Delta-E=       -0.000000000213 Rises=F Damp=F
 DIIS: error= 1.67D-07 at cycle   6 NSaved=   6.
 NSaved= 6 IEnMin= 6 EnMin= -388.651230496752     IErMin= 6 ErrMin= 1.67D-07
 ErrMax= 1.67D-07  0.00D+00 EMaxC= 1.00D-01 BMatC= 2.07D-11 BMatP= 2.62D-10
 IDIUse=1 WtCom= 1.00D+00 WtEn= 0.00D+00
 Coeff-Com:  0.577D-03-0.136D-01 0.708D-01 0.107D+00 0.298D+00 0.537D+00
 Coeff:      0.577D-03-0.136D-01 0.708D-01 0.107D+00 0.298D+00 0.537D+00
 Gap=     0.216 Goal=   None    Shift=    0.000
 RMSDP=1.25D-08 MaxDP=6.37D-07 DE=-2.13D-10 OVMax= 2.38D-06

 Cycle   7  Pass 1  IDiag  1:
 RMSU=  1.02D-08    CP:  1.00D+00  1.07D+00  8.32D-01  6.10D-01  7.59D-01
                    CP:  7.89D-01
 E= -388.651230496770     Delta-E=       -0.000000000018 Rises=F Damp=F
 DIIS: error= 9.61D-08 at cycle   7 NSaved=   7.
 NSaved= 7 IEnMin= 7 EnMin= -388.651230496770     IErMin= 7 ErrMin= 9.61D-08
 ErrMax= 9.61D-08  0.00D+00 EMaxC= 1.00D-01 BMatC= 3.15D-12 BMatP= 2.07D-11
 IDIUse=1 WtCom= 1.00D+00 WtEn= 0.00D+00
 Coeff-Com:  0.295D-03-0.592D-02 0.191D-01 0.327D-01 0.110D+00 0.308D+00
 Coeff-Com:  0.536D+00
 Coeff:      0.295D-03-0.592D-02 0.191D-01 0.327D-01 0.110D+00 0.308D+00
 Coeff:      0.536D+00
 Gap=     0.216 Goal=   None    Shift=    0.000
 RMSDP=6.45D-09 MaxDP=4.65D-07 DE=-1.81D-11 OVMax= 1.01D-06

 SCF Done:  E(RB3LYP) =  -388.651230497     A.U. after    7 cycles
            NFock=  7  Conv=0.64D-08     -V/T= 2.0053
 KE= 3.865944323048D+02 PE=-1.761082575352D+03 EE= 5.569332442979D+02
 Leave Link  502 at Tue Jun  4 00:12:55 2024, MaxMem= 13421772800 cpu:             634.9 elap:              19.9
 (Enter /tmpu/scunam/7/gaussian-2016.03/g1/g16/l508.exe)
 QCSCF skips out because SCF is already converged.
 Leave Link  508 at Tue Jun  4 00:12:55 2024, MaxMem= 13421772800 cpu:               1.1 elap:               0.1
 (Enter /tmpu/scunam/7/gaussian-2016.03/g1/g16/l701.exe)
 ... and contract with generalized density number  0.
 Compute integral first derivatives.
   1 Symmetry operations used in ECPInt.
 ECPInt:  NShTT=   12090 NPrTT=   35220 LenC2=   11305 LenP2D=   25535.
 LDataN:  DoStor=T MaxTD1= 7 Len=  274
 Leave Link  701 at Tue Jun  4 00:12:55 2024, MaxMem= 13421772800 cpu:               8.6 elap:               0.3
 (Enter /tmpu/scunam/7/gaussian-2016.03/g1/g16/l702.exe)
 L702 exits ... SP integral derivatives will be done elsewhere.
 Leave Link  702 at Tue Jun  4 00:12:55 2024, MaxMem= 13421772800 cpu:               1.6 elap:               0.1
 (Enter /tmpu/scunam/7/gaussian-2016.03/g1/g16/l703.exe)
 Integral derivatives from FoFJK, PRISM(SPDF).
 Compute integral first derivatives, UseDBF=F ICtDFT=           0.
 Calling FoFJK, ICntrl=      2127 FMM=F ISym2X=0 I1Cent= 0 IOpClX= 0 NMat=1 NMatS=1 NMatT=0.
 FoFJK:  IHMeth= 1 ICntrl=    2127 DoSepK=F KAlg= 0 I1Cent=           0 FoldK=F
 IRaf=         0 NMat=       1 IRICut=       1 DoRegI=T DoRafI=F ISym2E= 0 IDoP0=0 IntGTp=1.
 FoFCou: FMM=F IPFlag=           0 FMFlag=      100000 FMFlg1=         800
         NFxFlg=           0 DoJE=F BraDBF=F KetDBF=F FulRan=T
         wScrn=  0.000000 ICntrl=      2127 IOpCl=  0 I1Cent=           0 NGrid=           0
         NMat0=    1 NMatS0=      1 NMatT0=    0 NMatD0=    1 NMtDS0=    0 NMtDT0=    0
 Symmetry not used in FoFCou.
 Leave Link  703 at Tue Jun  4 00:13:06 2024, MaxMem= 13421772800 cpu:             332.8 elap:              10.4
 (Enter /tmpu/scunam/7/gaussian-2016.03/g1/g16/l716.exe)
 Dipole        =-2.86788062D-01-8.44778675D-01 6.04775554D-01
 ***** Axes restored to original set *****
 -------------------------------------------------------------------
 Center     Atomic                   Forces (Hartrees/Bohr)
 Number     Number              X              Y              Z
 -------------------------------------------------------------------
      1        8           0.000006433    0.000008296   -0.000012546
      2        6          -0.000080371    0.000000465    0.000082678
      3        6           0.000033739   -0.000008501   -0.000018206
      4        6           0.000085332    0.000010725   -0.000086059
      5        6          -0.000044872    0.000013839   -0.000003960
      6        6          -0.000047611   -0.000014381    0.000016759
      7        6           0.000043888   -0.000004141   -0.000001416
      8        6          -0.000003292   -0.000014314    0.000004385
      9        6           0.000040286   -0.000016387    0.000026153
     10        1          -0.000002999   -0.000000893   -0.000009096
     11        1           0.000014800   -0.000004271   -0.000013289
     12        1          -0.000005278    0.000000918    0.000008970
     13        1           0.000008443    0.000005431   -0.000000095
     14        1           0.000012818   -0.000011532    0.000011510
     15        1          -0.000007753    0.000007938    0.000001367
     16        1          -0.000005117    0.000008180    0.000012549
     17        1          -0.000007204    0.000000113   -0.000001200
     18        1           0.000002046    0.000012832    0.000013096
     19        1          -0.000007379    0.000001335   -0.000006502
     20        1           0.000001318   -0.000007078   -0.000002358
     21        1          -0.000015915    0.000007121   -0.000002098
     22        1          -0.000010925   -0.000001496    0.000001060
     23        1          -0.000010387    0.000005802   -0.000021701
 -------------------------------------------------------------------
 Cartesian Forces:  Max     0.000086059 RMS     0.000024892
 Leave Link  716 at Tue Jun  4 00:13:06 2024, MaxMem= 13421772800 cpu:               0.7 elap:               0.0
 (Enter /tmpu/scunam/7/gaussian-2016.03/g1/g16/l103.exe)

 GradGradGradGradGradGradGradGradGradGradGradGradGradGradGradGradGradGrad
 Berny optimization.
 Using GEDIIS/GDIIS optimizer.
 FormGI is forming the generalized inverse of G from B-inverse, IUseBI=4.
 GSVD:  received Info=                   1 from GESDD.
 Internal  Forces:  Max     0.000089912 RMS     0.000016104
 Search for a local minimum.
 Step number  10 out of a maximum of  138
 All quantities printed in internal units (Hartrees-Bohrs-Radians)
 RMS Force = .16104D-04 SwitMx=.10000D-02 MixMth= 2
 Mixed Optimization -- En-DIIS/RFO-DIIS
 Swapping is turned off.
 Update second derivatives using D2CorX and points    4    5    6    7    8
                                                      9   10
 DE= -6.68D-07 DEPred=-4.77D-07 R= 1.40D+00
 Trust test= 1.40D+00 RLast= 1.58D-02 DXMaxT set to 6.57D-01
 ITU=  0  1  1  1  1  1 -1  1  1  0
     Eigenvalues ---    0.00107   0.00146   0.00433   0.00530   0.00689
     Eigenvalues ---    0.00708   0.01360   0.01669   0.02896   0.02924
     Eigenvalues ---    0.03975   0.04206   0.04908   0.05552   0.06910
     Eigenvalues ---    0.06948   0.07047   0.07271   0.07337   0.07370
     Eigenvalues ---    0.09296   0.09820   0.12863   0.13257   0.15906
     Eigenvalues ---    0.15977   0.15999   0.16000   0.16015   0.16072
     Eigenvalues ---    0.16135   0.16236   0.16291   0.16449   0.21839
     Eigenvalues ---    0.22661   0.23399   0.25015   0.25165   0.25493
     Eigenvalues ---    0.29421   0.29975   0.30848   0.31165   0.31928
     Eigenvalues ---    0.32866   0.33283   0.33952   0.34055   0.34140
     Eigenvalues ---    0.34229   0.34245   0.34262   0.34272   0.34288
     Eigenvalues ---    0.34419   0.34488   0.34532   0.34643   0.34915
     Eigenvalues ---    0.35698   0.58808   0.90718
 En-DIIS/RFO-DIIS/Sim-DIIS IScMMF=       -3 using points:    10    9    8    7    6    5    4    3    2
 RFO step:  Lambda=-9.28548908D-07.
 NNeg= 0 NGDIIS= 9 SimSw=  2.50D-01 Rises=F DC= -6.68D-07 SmlDif=  1.00D-05
 NRisDI= 0 DoIntr=F SqrtH=F CThrHd= 10.0 CDAdj=  3.0
 RMS Error=  0.2218927091D-02 NUsed= 9 OKEnD=F EnDIS=F
 InvSVX:  RCond= 1.29D-07 Info=           0 Equed=N FErr=  1.02D-11 BErr=  1.05D-16
 Old DIIS coefficients:      4.09930     -3.62582      0.56863     -0.17705      0.44909
 Old DIIS coefficients:     -0.24385     -0.05355      0.01237     -0.02912
 DidBck=F Rises=F RFO-DIIS coefs:    2.65853   -2.00000    0.36878   -0.11482    0.29125
                  RFO-DIIS coefs:   -0.15815   -0.03473    0.00802   -0.01888
 Iteration  1 RMS(Cart)=  0.00440368 RMS(Int)=  0.00001653
 Iteration  2 RMS(Cart)=  0.00001651 RMS(Int)=  0.00000592
 Iteration  3 RMS(Cart)=  0.00000000 RMS(Int)=  0.00000592
 ITry= 1 IFail=0 DXMaxC= 2.18D-02 DCOld= 1.00D+10 DXMaxT= 6.57D-01 DXLimC= 3.00D+00 Rises=F
 Variable       Old X    -DE/DX   Delta X   Delta X   Delta X     New X
                                 (Linear)    (Quad)   (Total)
    R1        2.28552   0.00001   0.00004  -0.00007  -0.00003   2.28549
    R2        2.89259  -0.00000  -0.00015   0.00005  -0.00010   2.89249
    R3        2.83587  -0.00009  -0.00079   0.00027  -0.00052   2.83536
    R4        2.05804   0.00001   0.00022  -0.00020   0.00002   2.05806
    R5        2.06799   0.00001   0.00017  -0.00007   0.00010   2.06808
    R6        2.87176  -0.00004  -0.00037   0.00015  -0.00022   2.87154
    R7        2.07268   0.00001   0.00014  -0.00005   0.00009   2.07278
    R8        2.07116   0.00000   0.00013  -0.00011   0.00002   2.07118
    R9        2.52449   0.00003  -0.00009   0.00019   0.00010   2.52459
   R10        2.05745   0.00002   0.00011  -0.00003   0.00008   2.05753
   R11        2.84564  -0.00002  -0.00006  -0.00004  -0.00010   2.84555
   R12        2.84297  -0.00001  -0.00031   0.00025  -0.00006   2.84291
   R13        2.86290   0.00000   0.00012  -0.00006   0.00006   2.86296
   R14        2.06922   0.00000   0.00011  -0.00006   0.00005   2.06926
   R15        2.06919   0.00001   0.00010  -0.00005   0.00006   2.06924
   R16        2.06012  -0.00000  -0.00006   0.00003  -0.00002   2.06010
   R17        2.05555  -0.00000   0.00004  -0.00008  -0.00004   2.05550
   R18        2.06883   0.00000   0.00005  -0.00010  -0.00005   2.06878
   R19        2.06880   0.00000   0.00008   0.00001   0.00009   2.06890
   R20        2.06538  -0.00001   0.00005  -0.00008  -0.00004   2.06534
   R21        2.05558  -0.00001  -0.00011   0.00004  -0.00007   2.05550
   R22        2.06563   0.00000   0.00010  -0.00005   0.00005   2.06568
    A1        1.95732  -0.00002  -0.00020   0.00013  -0.00006   1.95725
    A2        1.90372   0.00001   0.00015  -0.00000   0.00015   1.90388
    A3        1.88875  -0.00000  -0.00001  -0.00016  -0.00017   1.88858
    A4        1.95305   0.00001   0.00012   0.00013   0.00025   1.95330
    A5        1.91267   0.00001   0.00005  -0.00001   0.00004   1.91271
    A6        1.84387  -0.00001  -0.00012  -0.00011  -0.00023   1.84363
    A7        1.99636   0.00001   0.00001   0.00016   0.00016   1.99652
    A8        1.93281  -0.00000   0.00013  -0.00019  -0.00006   1.93275
    A9        1.93127  -0.00000   0.00036  -0.00017   0.00019   1.93146
   A10        1.87876  -0.00001  -0.00025  -0.00008  -0.00033   1.87843
   A11        1.88651  -0.00000   0.00005   0.00018   0.00023   1.88674
   A12        1.82971  -0.00000  -0.00034   0.00012  -0.00023   1.82949
   A13        2.24503   0.00007   0.00012   0.00045   0.00057   2.24560
   A14        1.99803  -0.00005  -0.00010  -0.00030  -0.00040   1.99763
   A15        2.04013  -0.00002  -0.00001  -0.00016  -0.00017   2.03996
   A16        2.10838  -0.00003  -0.00004  -0.00017  -0.00020   2.10818
   A17        2.18006   0.00002  -0.00028   0.00046   0.00018   2.18024
   A18        1.99473   0.00001   0.00031  -0.00029   0.00002   1.99475
   A19        2.13202   0.00002   0.00021  -0.00002   0.00016   2.13219
   A20        2.12110   0.00000   0.00014  -0.00008   0.00003   2.12113
   A21        2.03006  -0.00002  -0.00026   0.00010  -0.00019   2.02987
   A22        1.93638   0.00001   0.00018  -0.00005   0.00013   1.93651
   A23        1.93747   0.00000  -0.00006   0.00008   0.00002   1.93749
   A24        1.95213   0.00001   0.00024  -0.00015   0.00009   1.95222
   A25        1.85794  -0.00001  -0.00024   0.00007  -0.00017   1.85777
   A26        1.88766  -0.00000  -0.00003  -0.00001  -0.00004   1.88761
   A27        1.88878  -0.00001  -0.00011   0.00007  -0.00004   1.88874
   A28        1.97950  -0.00000  -0.00012   0.00012  -0.00000   1.97949
   A29        1.92776   0.00001   0.00009  -0.00001   0.00008   1.92785
   A30        1.92777  -0.00001  -0.00030   0.00025  -0.00005   1.92772
   A31        1.88524  -0.00001   0.00016  -0.00013   0.00003   1.88527
   A32        1.88240   0.00001   0.00020  -0.00018   0.00002   1.88242
   A33        1.85627  -0.00000  -0.00001  -0.00007  -0.00008   1.85619
   A34        1.92779  -0.00000  -0.00005   0.00029   0.00024   1.92803
   A35        1.91909   0.00000   0.00011  -0.00002   0.00009   1.91918
   A36        1.92393  -0.00003  -0.00054  -0.00011  -0.00065   1.92328
   A37        1.91458   0.00001   0.00042   0.00001   0.00043   1.91500
   A38        1.86526   0.00001  -0.00013   0.00009  -0.00004   1.86523
   A39        1.91247   0.00001   0.00019  -0.00026  -0.00007   1.91240
    D1        3.08937  -0.00001  -0.00205   0.00004  -0.00201   3.08736
    D2        0.96289  -0.00001  -0.00183   0.00018  -0.00165   0.96125
    D3       -1.05831  -0.00001  -0.00170   0.00026  -0.00145  -1.05975
    D4       -1.02033  -0.00001  -0.00192   0.00030  -0.00162  -1.02195
    D5        3.13638  -0.00000  -0.00169   0.00044  -0.00126   3.13512
    D6        1.11518  -0.00000  -0.00157   0.00051  -0.00106   1.11412
    D7        0.97756  -0.00001  -0.00199   0.00009  -0.00190   0.97565
    D8       -1.14892  -0.00001  -0.00176   0.00022  -0.00154  -1.15046
    D9        3.11307  -0.00001  -0.00164   0.00030  -0.00134   3.11173
   D10        2.06893   0.00000   0.00213   0.00049   0.00262   2.07155
   D11       -1.07202   0.00001   0.00244   0.00041   0.00285  -1.06917
   D12       -0.07696  -0.00001   0.00198   0.00029   0.00228  -0.07468
   D13        3.06527  -0.00000   0.00229   0.00022   0.00251   3.06778
   D14       -2.11630  -0.00001   0.00203   0.00036   0.00239  -2.11391
   D15        1.02593  -0.00000   0.00234   0.00029   0.00262   1.02856
   D16       -0.02617  -0.00000  -0.00122  -0.00183  -0.00305  -0.02922
   D17        3.11417  -0.00000  -0.00131  -0.00189  -0.00320   3.11097
   D18        2.12964  -0.00000  -0.00124  -0.00203  -0.00327   2.12637
   D19       -1.01320  -0.00000  -0.00133  -0.00209  -0.00342  -1.01662
   D20       -2.18587  -0.00001  -0.00174  -0.00185  -0.00358  -2.18945
   D21        0.95447  -0.00001  -0.00183  -0.00191  -0.00373   0.95074
   D22        3.13725   0.00001   0.00011   0.00006   0.00016   3.13741
   D23        0.00217   0.00000   0.00045   0.00025   0.00070   0.00287
   D24       -0.00500   0.00000  -0.00021   0.00014  -0.00007  -0.00507
   D25       -3.14008  -0.00000   0.00013   0.00033   0.00046  -3.13962
   D26       -2.10041  -0.00001  -0.00119  -0.00069  -0.00188  -2.10229
   D27        2.12059  -0.00001  -0.00097  -0.00080  -0.00177   2.11882
   D28        0.00899  -0.00001  -0.00095  -0.00084  -0.00179   0.00720
   D29        1.03532  -0.00001  -0.00150  -0.00086  -0.00236   1.03296
   D30       -1.02686  -0.00000  -0.00128  -0.00097  -0.00225  -1.02911
   D31       -3.13846  -0.00000  -0.00126  -0.00101  -0.00227  -3.14073
   D32       -0.01647  -0.00001  -0.00444  -0.00453  -0.00897  -0.02544
   D33       -2.13557  -0.00001  -0.00463  -0.00444  -0.00907  -2.14464
   D34        2.09896  -0.00001  -0.00449  -0.00450  -0.00899   2.08998
   D35        3.13126  -0.00001  -0.00412  -0.00435  -0.00847   3.12280
   D36        1.01216  -0.00001  -0.00431  -0.00426  -0.00857   1.00359
   D37       -1.03649  -0.00001  -0.00417  -0.00432  -0.00848  -1.04497
   D38       -2.13905  -0.00002  -0.00286  -0.00276  -0.00562  -2.14466
   D39       -0.02358  -0.00000  -0.00229  -0.00258  -0.00487  -0.02845
   D40        2.08677  -0.00001  -0.00234  -0.00298  -0.00532   2.08145
   D41        1.00379  -0.00001  -0.00277  -0.00270  -0.00547   0.99832
   D42        3.11926  -0.00000  -0.00221  -0.00252  -0.00472   3.11454
   D43       -1.05358  -0.00001  -0.00225  -0.00292  -0.00517  -1.05875
         Item               Value     Threshold  Converged?
 Maximum Force            0.000090     0.000450     YES
 RMS     Force            0.000016     0.000300     YES
 Maximum Displacement     0.021794     0.001800     NO 
 RMS     Displacement     0.004404     0.001200     NO 
 Predicted change in Energy=-3.292237D-07
 Lowest energy point so far.  Saving SCF results.
 GradGradGradGradGradGradGradGradGradGradGradGradGradGradGradGradGradGrad

 Leave Link  103 at Tue Jun  4 00:13:06 2024, MaxMem= 13421772800 cpu:               5.8 elap:               0.2
 (Enter /tmpu/scunam/7/gaussian-2016.03/g1/g16/l202.exe)
                          Input orientation:                          
 ---------------------------------------------------------------------
 Center     Atomic      Atomic             Coordinates (Angstroms)
 Number     Number       Type             X           Y           Z
 ---------------------------------------------------------------------
      1          8           0        2.767840   -0.370577   -1.070616
      2          6           0        0.048496   -0.489965   -0.332888
      3          6           0        1.117703    0.076893    0.604300
      4          6           0       -1.304882   -0.532829    0.313447
      5          6           0       -2.426481    0.091820   -0.056158
      6          6           0        2.523325    0.074573    0.027008
      7          6           0       -3.700333   -0.083257    0.727475
      8          6           0       -2.553941    0.998297   -1.250007
      9          6           0        3.609723    0.664488    0.902794
     10          1           0        0.040305    0.089002   -1.255288
     11          1           0        0.349085   -1.501654   -0.622381
     12          1           0        1.144789   -0.483603    1.546757
     13          1           0        0.871061    1.104185    0.896023
     14          1           0       -1.360891   -1.161170    1.200878
     15          1           0       -4.493541   -0.499296    0.097576
     16          1           0       -4.069995    0.879321    1.095999
     17          1           0       -3.563051   -0.745546    1.582442
     18          1           0       -1.621610    1.129403   -1.794725
     19          1           0       -2.908867    1.987436   -0.943231
     20          1           0       -3.299338    0.606717   -1.949769
     21          1           0        3.649214    0.146065    1.864135
     22          1           0        4.572849    0.585732    0.403461
     23          1           0        3.393140    1.714264    1.117168
 ---------------------------------------------------------------------
                    Distance matrix (angstroms):
                    1          2          3          4          5
     1  O    0.000000
     2  C    2.820164   0.000000
     3  C    2.393434   1.530638   0.000000
     4  C    4.304535   1.500407   2.515010   0.000000
     5  C    5.312618   2.557453   3.605228   1.335956   0.000000
     6  C    1.209432   2.563787   1.519554   3.886664   4.950535
     7  C    6.719594   3.917079   4.822271   2.472189   1.505799
     8  C    5.497940   3.135078   4.215259   2.519699   1.504401
     9  C    2.382116   3.942335   2.577699   5.092568   6.138673
    10  H    2.772141   1.089078   2.149186   2.158039   2.742800
    11  H    2.707512   1.094383   2.141806   2.133074   3.250159
    12  H    3.081836   2.175997   1.096866   2.743058   3.956567
    13  H    3.104894   2.174431   1.096022   2.784590   3.578452
    14  H    4.778194   2.188452   2.834101   1.088798   2.070170
    15  H    7.355875   4.562400   5.663464   3.196133   2.155409
    16  H    7.280964   4.569314   5.272368   3.201937   2.156098
    17  H    6.874554   4.095984   4.852075   2.599023   2.162865
    18  H    4.694842   2.747468   3.790374   2.703280   2.178764
    19  H    6.148289   3.905898   4.717870   3.240948   2.147779
    20  H    6.207951   3.876211   5.129740   3.224681   2.147734
    21  H    3.107492   4.265749   2.828519   5.235323   6.372170
    22  H    2.519025   4.708407   3.498183   5.983895   7.031772
    23  H    3.086092   4.260039   2.849847   5.269422   6.154430
                    6          7          8          9         10
     6  C    0.000000
     7  C    6.264941   0.000000
     8  C    5.316264   2.528717   0.000000
     9  C    1.515013   7.350292   6.537334   0.000000
    10  H    2.794616   4.237145   2.748992   4.210611   0.000000
    11  H    2.762882   4.497972   3.882168   4.201201   1.739569
    12  H    2.126396   4.930184   4.868113   2.794405   3.065815
    13  H    2.131962   4.726105   4.043179   2.773743   2.519701
    14  H    4.241716   2.618969   3.477571   5.303667   3.091768
    15  H    7.040647   1.095007   2.796572   8.225914   4.767819
    16  H    6.727720   1.094996   2.795768   7.685151   4.800803
    17  H    6.335293   1.090157   3.475926   7.341581   4.661905
    18  H    4.648856   3.486134   1.087726   5.904202   2.033566
    19  H    5.840302   2.775869   1.094751   6.902900   3.521228
    20  H    6.172052   2.793653   1.094814   7.474997   3.450152
    21  H    2.155870   7.440459   6.993091   1.092932   4.770564
    22  H    2.145588   8.306508   7.327707   1.087725   4.852024
    23  H    2.152583   7.328049   6.440799   1.093112   4.417185
                   11         12         13         14         15
    11  H    0.000000
    12  H    2.524824   0.000000
    13  H    3.060785   1.737657   0.000000
    14  H    2.522740   2.618618   3.194742   0.000000
    15  H    4.997408   5.821610   5.655760   3.386569   0.000000
    16  H    5.305670   5.408763   4.950210   3.393206   1.754088
    17  H    4.553872   4.715257   4.853249   2.273290   1.769542
    18  H    3.490056   4.628203   3.667993   3.779991   3.805450
    19  H    4.784449   5.360803   4.295445   4.111831   3.127029
    20  H    4.417938   5.758885   5.073286   4.099948   2.615533
    21  H    4.448437   2.601798   3.094087   5.220146   8.357134
    22  H    4.821795   3.768580   3.770231   6.236730   9.136207
    23  H    4.757565   3.173365   2.604224   5.556612   8.254644
                   16         17         18         19         20
    16  H    0.000000
    17  H    1.770258   0.000000
    18  H    3.796500   4.323180   0.000000
    19  H    2.595109   3.778383   1.765869   0.000000
    20  H    3.153558   3.791395   1.764089   1.752704   0.000000
    21  H    7.791911   7.272626   6.491210   7.367523   7.939801
    22  H    8.675514   8.327975   6.595371   7.730099   8.216413
    23  H    7.509724   7.392952   5.828285   6.635899   7.444597
                   21         22         23
    21  H    0.000000
    22  H    1.783249   0.000000
    23  H    1.755786   1.781762   0.000000
 Stoichiometry    C8H14O
 Framework group  C1[X(C8H14O)]
 Deg. of freedom    63
 Full point group                 C1      NOp   1
 RotChk:  IX=0 Diff= 1.86D-03
 Largest Abelian subgroup         C1      NOp   1
 Largest concise Abelian subgroup C1      NOp   1
                         Standard orientation:                         
 ---------------------------------------------------------------------
 Center     Atomic      Atomic             Coordinates (Angstroms)
 Number     Number       Type             X           Y           Z
 ---------------------------------------------------------------------
      1          8           0        2.743301    1.094106   -0.631165
      2          6           0        0.054630    0.243102   -0.618239
      3          6           0        1.158178   -0.549063    0.087103
      4          6           0       -1.272750   -0.453106   -0.550592
      5          6           0       -2.408852   -0.031133    0.011537
      6          6           0        2.540503    0.073788   -0.014276
      7          6           0       -3.651241   -0.880962   -0.029594
      8          6           0       -2.583822    1.287166    0.714884
      9          6           0        3.658823   -0.653453    0.703876
     10          1           0        0.009876    1.245595   -0.195041
     11          1           0        0.345601    0.377457   -1.664642
     12          1           0        1.222554   -1.567643   -0.314726
     13          1           0        0.921172   -0.681041    1.149023
     14          1           0       -1.293410   -1.431510   -1.027855
     15          1           0       -4.467414   -0.357028   -0.537921
     16          1           0       -4.008102   -1.103804    0.981350
     17          1           0       -3.479947   -1.825399   -0.546448
     18          1           0       -1.673412    1.881206    0.752549
     19          1           0       -2.928385    1.130057    1.742052
     20          1           0       -3.354955    1.885767    0.219254
     21          1           0        3.736249   -1.683417    0.346552
     22          1           0        4.602120   -0.136738    0.541568
     23          1           0        3.448832   -0.704378    1.775419
 ---------------------------------------------------------------------
 Rotational constants (GHZ):           4.0688497           0.5827957           0.5554117
 Leave Link  202 at Tue Jun  4 00:13:06 2024, MaxMem= 13421772800 cpu:               2.7 elap:               0.1
 (Enter /tmpu/scunam/7/gaussian-2016.03/g1/g16/l301.exe)
 Standard basis: def2TZVP (5D, 7F)
 Ernie: Thresh=  0.10000D-02 Tol=  0.10000D-05 Strict=F.
 There are   408 symmetry adapted cartesian basis functions of A   symmetry.
 There are   363 symmetry adapted basis functions of A   symmetry.
   363 basis functions,   571 primitive gaussians,   408 cartesian basis functions
    35 alpha electrons       35 beta electrons
       nuclear repulsion energy       428.8854107539 Hartrees.
 IExCor=  402 DFT=T Ex+Corr=B3LYP ExCW=0 ScaHFX=  0.200000
 ScaDFX=  0.800000  0.720000  1.000000  0.810000 ScalE2=  1.000000  1.000000
 IRadAn=      5 IRanWt=     -1 IRanGd=            0 ICorTp=0 IEmpDi=  4
 NAtoms=   23 NActive=   23 NUniq=   23 SFac= 1.00D+00 NAtFMM=   60 NAOKFM=F Big=F
 Integral buffers will be    131072 words long.
 Raffenetti 2 integral format.
 Two-electron integral symmetry is turned on.
 Leave Link  301 at Tue Jun  4 00:13:06 2024, MaxMem= 13421772800 cpu:               1.5 elap:               0.1
 (Enter /tmpu/scunam/7/gaussian-2016.03/g1/g16/l302.exe)
 NPDir=0 NMtPBC=     1 NCelOv=     1 NCel=       1 NClECP=     1 NCelD=      1
         NCelK=      1 NCelE2=     1 NClLst=     1 CellRange=     0.0.
 One-electron integrals computed using PRISM.
 One-electron integral symmetry used in STVInt
   1 Symmetry operations used in ECPInt.
 ECPInt:  NShTT=   12090 NPrTT=   35220 LenC2=   11305 LenP2D=   25533.
 LDataN:  DoStor=T MaxTD1= 6 Len=  172
 NBasis=   363 RedAO= T EigKep=  7.86D-05  NBF=   363
 NBsUse=   363 1.00D-06 EigRej= -1.00D+00 NBFU=   363
 Precomputing XC quadrature grid using
 IXCGrd= 4 IRadAn=           5 IRanWt=          -1 IRanGd=           0 AccXCQ= 0.00D+00.
 Generated NRdTot=       0 NPtTot=           0 NUsed=           0 NTot=          32
 NSgBfM=   405   405   405   405   405 MxSgAt=    23 MxSgA2=    23.
 Leave Link  302 at Tue Jun  4 00:13:07 2024, MaxMem= 13421772800 cpu:              11.9 elap:               0.4
 (Enter /tmpu/scunam/7/gaussian-2016.03/g1/g16/l303.exe)
 DipDrv:  MaxL=1.
 Leave Link  303 at Tue Jun  4 00:13:07 2024, MaxMem= 13421772800 cpu:               1.5 elap:               0.1
 (Enter /tmpu/scunam/7/gaussian-2016.03/g1/g16/l401.exe)
 Initial guess from the checkpoint file:  "S36.chk"
 B after Tr=     0.000000   -0.000000   -0.000000
         Rot=    1.000000   -0.000419    0.000086   -0.000069 Ang=  -0.05 deg.
 Guess basis will be translated and rotated to current coordinates.
 JPrj=2 DoOrth=T DoCkMO=T.
 Generating alternative initial guess.
 ExpMin= 9.52D-02 ExpMax= 2.70D+04 ExpMxC= 9.22D+02 IAcc=2 IRadAn=         4 AccDes= 0.00D+00
 Harris functional with IExCor=  402 and IRadAn=       4 diagonalized for initial guess.
 HarFok:  IExCor=  402 AccDes= 0.00D+00 IRadAn=         4 IDoV= 1 UseB2=F ITyADJ=14
 ICtDFT=  3500011 ScaDFX=  1.000000  1.000000  1.000000  1.000000
 FoFCou: FMM=F IPFlag=           0 FMFlag=      100000 FMFlg1=           0
         NFxFlg=           0 DoJE=T BraDBF=F KetDBF=T FulRan=T
         wScrn=  0.000000 ICntrl=       500 IOpCl=  0 I1Cent=   200000004 NGrid=           0
         NMat0=    1 NMatS0=      1 NMatT0=    0 NMatD0=    1 NMtDS0=    0 NMtDT0=    0
 Petite list used in FoFCou.
 Harris En= -388.761702858771    
 Leave Link  401 at Tue Jun  4 00:13:08 2024, MaxMem= 13421772800 cpu:              27.1 elap:               0.9
 (Enter /tmpu/scunam/7/gaussian-2016.03/g1/g16/l502.exe)
 Integral symmetry usage will be decided dynamically.
 Closed shell SCF:
 Using DIIS extrapolation, IDIIS=  1040.
 NGot= 13421772800 LenX= 13421422965 LenY= 13421256060
 Requested convergence on RMS density matrix=1.00D-08 within 128 cycles.
 Requested convergence on MAX density matrix=1.00D-06.
 Requested convergence on             energy=1.00D-06.
 No special actions if energy rises.
 Fock matrices will be formed incrementally for  20 cycles.
 Integral accuracy reduced to 1.0D-05 until final iterations.

 Cycle   1  Pass 0  IDiag  1:
 FoFJK:  IHMeth= 1 ICntrl=       0 DoSepK=F KAlg= 0 I1Cent=           0 FoldK=F
 IRaf= 890000000 NMat=       1 IRICut=       1 DoRegI=T DoRafI=F ISym2E= 0 IDoP0=0 IntGTp=1.
 FoFCou: FMM=F IPFlag=           0 FMFlag=      100000 FMFlg1=           0
         NFxFlg=           0 DoJE=F BraDBF=F KetDBF=F FulRan=T
         wScrn=  0.000000 ICntrl=         0 IOpCl=  0 I1Cent=           0 NGrid=           0
         NMat0=    1 NMatS0=      1 NMatT0=    0 NMatD0=    1 NMtDS0=    0 NMtDT0=    0
 Symmetry not used in FoFCou.
 E= -388.651203936966    
 DIIS: error= 2.34D-04 at cycle   1 NSaved=   1.
 NSaved= 1 IEnMin= 1 EnMin= -388.651203936966     IErMin= 1 ErrMin= 2.34D-04
 ErrMax= 2.34D-04  0.00D+00 EMaxC= 1.00D-01 BMatC= 2.57D-05 BMatP= 2.57D-05
 IDIUse=3 WtCom= 9.98D-01 WtEn= 2.34D-03
 Coeff-Com:  0.100D+01
 Coeff-En:   0.100D+01
 Coeff:      0.100D+01
 Gap=     0.608 Goal=   None    Shift=    0.000
 RMSDP=9.91D-05 MaxDP=4.50D-03              OVMax= 1.48D-03

 Cycle   2  Pass 0  IDiag  1:
 RMSU=  9.91D-05    CP:  1.00D+00
 E= -388.651237225828     Delta-E=       -0.000033288862 Rises=F Damp=F
 DIIS: error= 1.73D-05 at cycle   2 NSaved=   2.
 NSaved= 2 IEnMin= 2 EnMin= -388.651237225828     IErMin= 2 ErrMin= 1.73D-05
 ErrMax= 1.73D-05  0.00D+00 EMaxC= 1.00D-01 BMatC= 1.73D-07 BMatP= 2.57D-05
 IDIUse=1 WtCom= 1.00D+00 WtEn= 0.00D+00
 Coeff-Com: -0.596D-01 0.106D+01
 Coeff:     -0.596D-01 0.106D+01
 Gap=     0.216 Goal=   None    Shift=    0.000
 RMSDP=4.88D-06 MaxDP=1.40D-04 DE=-3.33D-05 OVMax= 1.85D-04

 Initial convergence to 1.0D-05 achieved.  Increase integral accuracy.
 Cycle   3  Pass 1  IDiag  1:
 E= -388.651230096369     Delta-E=        0.000007129458 Rises=F Damp=F
 DIIS: error= 9.72D-05 at cycle   1 NSaved=   1.
 NSaved= 1 IEnMin= 1 EnMin= -388.651230096369     IErMin= 1 ErrMin= 9.72D-05
 ErrMax= 9.72D-05  0.00D+00 EMaxC= 1.00D-01 BMatC= 2.08D-06 BMatP= 2.08D-06
 IDIUse=1 WtCom= 1.00D+00 WtEn= 0.00D+00
 Coeff-Com:  0.100D+01
 Coeff:      0.100D+01
 Gap=     0.216 Goal=   None    Shift=    0.000
 RMSDP=4.88D-06 MaxDP=1.40D-04 DE= 7.13D-06 OVMax= 2.38D-04

 Cycle   4  Pass 1  IDiag  1:
 RMSU=  9.92D-05    CP:  1.00D+00
 E= -388.651231204877     Delta-E=       -0.000001108508 Rises=F Damp=F
 DIIS: error= 6.53D-06 at cycle   2 NSaved=   2.
 NSaved= 2 IEnMin= 2 EnMin= -388.651231204877     IErMin= 2 ErrMin= 6.53D-06
 ErrMax= 6.53D-06  0.00D+00 EMaxC= 1.00D-01 BMatC= 2.49D-08 BMatP= 2.08D-06
 IDIUse=1 WtCom= 1.00D+00 WtEn= 0.00D+00
 Coeff-Com:  0.139D-01 0.986D+00
 Coeff:      0.139D-01 0.986D+00
 Gap=     0.216 Goal=   None    Shift=    0.000
 RMSDP=2.25D-06 MaxDP=1.25D-04 DE=-1.11D-06 OVMax= 1.19D-04

 Cycle   5  Pass 1  IDiag  1:
 RMSU=  1.43D-06    CP:  1.00D+00  1.02D+00
 E= -388.651231156537     Delta-E=        0.000000048340 Rises=F Damp=F
 DIIS: error= 1.41D-05 at cycle   3 NSaved=   3.
 NSaved= 3 IEnMin= 2 EnMin= -388.651231204877     IErMin= 2 ErrMin= 6.53D-06
 ErrMax= 1.41D-05  0.00D+00 EMaxC= 1.00D-01 BMatC= 8.68D-08 BMatP= 2.49D-08
 IDIUse=1 WtCom= 1.00D+00 WtEn= 0.00D+00
 Coeff-Com: -0.225D-02 0.656D+00 0.346D+00
 Coeff:     -0.225D-02 0.656D+00 0.346D+00
 Gap=     0.216 Goal=   None    Shift=    0.000
 RMSDP=9.11D-07 MaxDP=9.72D-05 DE= 4.83D-08 OVMax= 7.59D-05

 Cycle   6  Pass 1  IDiag  1:
 RMSU=  4.73D-07    CP:  1.00D+00  1.02D+00  4.71D-01
 E= -388.651231225945     Delta-E=       -0.000000069409 Rises=F Damp=F
 DIIS: error= 1.78D-06 at cycle   4 NSaved=   4.
 NSaved= 4 IEnMin= 4 EnMin= -388.651231225945     IErMin= 4 ErrMin= 1.78D-06
 ErrMax= 1.78D-06  0.00D+00 EMaxC= 1.00D-01 BMatC= 1.39D-09 BMatP= 2.49D-08
 IDIUse=1 WtCom= 1.00D+00 WtEn= 0.00D+00
 Coeff-Com: -0.185D-02 0.332D+00 0.195D+00 0.475D+00
 Coeff:     -0.185D-02 0.332D+00 0.195D+00 0.475D+00
 Gap=     0.216 Goal=   None    Shift=    0.000
 RMSDP=1.24D-07 MaxDP=8.99D-06 DE=-6.94D-08 OVMax= 9.20D-06

 Cycle   7  Pass 1  IDiag  1:
 RMSU=  1.10D-07    CP:  1.00D+00  1.02D+00  4.92D-01  9.03D-01
 E= -388.651231227078     Delta-E=       -0.000000001133 Rises=F Damp=F
 DIIS: error= 3.02D-07 at cycle   5 NSaved=   5.
 NSaved= 5 IEnMin= 5 EnMin= -388.651231227078     IErMin= 5 ErrMin= 3.02D-07
 ErrMax= 3.02D-07  0.00D+00 EMaxC= 1.00D-01 BMatC= 7.20D-11 BMatP= 1.39D-09
 IDIUse=1 WtCom= 1.00D+00 WtEn= 0.00D+00
 Coeff-Com: -0.864D-03 0.142D+00 0.851D-01 0.260D+00 0.514D+00
 Coeff:     -0.864D-03 0.142D+00 0.851D-01 0.260D+00 0.514D+00
 Gap=     0.216 Goal=   None    Shift=    0.000
 RMSDP=3.09D-08 MaxDP=2.26D-06 DE=-1.13D-09 OVMax= 3.74D-06

 Cycle   8  Pass 1  IDiag  1:
 RMSU=  2.27D-08    CP:  1.00D+00  1.02D+00  4.88D-01  9.40D-01  9.78D-01
 E= -388.651231227134     Delta-E=       -0.000000000056 Rises=F Damp=F
 DIIS: error= 1.52D-07 at cycle   6 NSaved=   6.
 NSaved= 6 IEnMin= 6 EnMin= -388.651231227134     IErMin= 6 ErrMin= 1.52D-07
 ErrMax= 1.52D-07  0.00D+00 EMaxC= 1.00D-01 BMatC= 9.21D-12 BMatP= 7.20D-11
 IDIUse=1 WtCom= 1.00D+00 WtEn= 0.00D+00
 Coeff-Com: -0.315D-03 0.488D-01 0.298D-01 0.104D+00 0.308D+00 0.510D+00
 Coeff:     -0.315D-03 0.488D-01 0.298D-01 0.104D+00 0.308D+00 0.510D+00
 Gap=     0.216 Goal=   None    Shift=    0.000
 RMSDP=9.91D-09 MaxDP=3.59D-07 DE=-5.57D-11 OVMax= 1.49D-06

 SCF Done:  E(RB3LYP) =  -388.651231227     A.U. after    8 cycles
            NFock=  8  Conv=0.99D-08     -V/T= 2.0053
 KE= 3.865948146680D+02 PE=-1.761045878671D+03 EE= 5.569144220216D+02
 Leave Link  502 at Tue Jun  4 00:13:28 2024, MaxMem= 13421772800 cpu:             647.6 elap:              20.3
 (Enter /tmpu/scunam/7/gaussian-2016.03/g1/g16/l508.exe)
 QCSCF skips out because SCF is already converged.
 Leave Link  508 at Tue Jun  4 00:13:28 2024, MaxMem= 13421772800 cpu:               1.1 elap:               0.1
 (Enter /tmpu/scunam/7/gaussian-2016.03/g1/g16/l701.exe)
 ... and contract with generalized density number  0.
 Compute integral first derivatives.
   1 Symmetry operations used in ECPInt.
 ECPInt:  NShTT=   12090 NPrTT=   35220 LenC2=   11305 LenP2D=   25533.
 LDataN:  DoStor=T MaxTD1= 7 Len=  274
 Leave Link  701 at Tue Jun  4 00:13:28 2024, MaxMem= 13421772800 cpu:               8.6 elap:               0.3
 (Enter /tmpu/scunam/7/gaussian-2016.03/g1/g16/l702.exe)
 L702 exits ... SP integral derivatives will be done elsewhere.
 Leave Link  702 at Tue Jun  4 00:13:28 2024, MaxMem= 13421772800 cpu:               1.8 elap:               0.1
 (Enter /tmpu/scunam/7/gaussian-2016.03/g1/g16/l703.exe)
 Integral derivatives from FoFJK, PRISM(SPDF).
 Compute integral first derivatives, UseDBF=F ICtDFT=           0.
 Calling FoFJK, ICntrl=      2127 FMM=F ISym2X=0 I1Cent= 0 IOpClX= 0 NMat=1 NMatS=1 NMatT=0.
 FoFJK:  IHMeth= 1 ICntrl=    2127 DoSepK=F KAlg= 0 I1Cent=           0 FoldK=F
 IRaf=         0 NMat=       1 IRICut=       1 DoRegI=T DoRafI=F ISym2E= 0 IDoP0=0 IntGTp=1.
 FoFCou: FMM=F IPFlag=           0 FMFlag=      100000 FMFlg1=         800
         NFxFlg=           0 DoJE=F BraDBF=F KetDBF=F FulRan=T
         wScrn=  0.000000 ICntrl=      2127 IOpCl=  0 I1Cent=           0 NGrid=           0
         NMat0=    1 NMatS0=      1 NMatT0=    0 NMatD0=    1 NMtDS0=    0 NMtDT0=    0
 Symmetry not used in FoFCou.
 Leave Link  703 at Tue Jun  4 00:13:39 2024, MaxMem= 13421772800 cpu:             328.0 elap:              10.3
 (Enter /tmpu/scunam/7/gaussian-2016.03/g1/g16/l716.exe)
 Dipole        =-2.87620385D-01-8.44117627D-01 6.05218083D-01
 ***** Axes restored to original set *****
 -------------------------------------------------------------------
 Center     Atomic                   Forces (Hartrees/Bohr)
 Number     Number              X              Y              Z
 -------------------------------------------------------------------
      1        8          -0.000002023   -0.000003524   -0.000031193
      2        6           0.000025225   -0.000036862   -0.000014636
      3        6           0.000002816    0.000013899    0.000032917
      4        6          -0.000058150    0.000034096    0.000014749
      5        6           0.000020376   -0.000026950    0.000023531
      6        6           0.000011651    0.000011506    0.000024971
      7        6          -0.000024483    0.000002525   -0.000006857
      8        6          -0.000015421   -0.000009446    0.000001223
      9        6          -0.000022295   -0.000022267    0.000033732
     10        1          -0.000018941    0.000020872   -0.000017120
     11        1           0.000004978    0.000015268   -0.000005228
     12        1          -0.000010828   -0.000007158   -0.000014404
     13        1           0.000006704   -0.000002534   -0.000013292
     14        1          -0.000003759   -0.000004712   -0.000005746
     15        1           0.000005371    0.000003160    0.000002326
     16        1           0.000009669   -0.000000939    0.000005189
     17        1          -0.000000526   -0.000004134    0.000002177
     18        1           0.000023520   -0.000003814   -0.000008908
     19        1           0.000010041    0.000003041    0.000003282
     20        1           0.000010798    0.000000848    0.000003639
     21        1           0.000003701    0.000010461   -0.000003301
     22        1           0.000009781    0.000000180   -0.000003051
     23        1           0.000011796    0.000006484   -0.000024000
 -------------------------------------------------------------------
 Cartesian Forces:  Max     0.000058150 RMS     0.000016626
 Leave Link  716 at Tue Jun  4 00:13:39 2024, MaxMem= 13421772800 cpu:               0.7 elap:               0.0
 (Enter /tmpu/scunam/7/gaussian-2016.03/g1/g16/l103.exe)

 GradGradGradGradGradGradGradGradGradGradGradGradGradGradGradGradGradGrad
 Berny optimization.
 Using GEDIIS/GDIIS optimizer.
 FormGI is forming the generalized inverse of G from B-inverse, IUseBI=4.
 Internal  Forces:  Max     0.000076048 RMS     0.000015368
 Search for a local minimum.
 Step number  11 out of a maximum of  138
 All quantities printed in internal units (Hartrees-Bohrs-Radians)
 RMS Force = .15368D-04 SwitMx=.10000D-02 MixMth= 2
 Mixed Optimization -- En-DIIS/RFO-DIIS
 Swapping is turned off.
 Update second derivatives using D2CorX and points    4    5    6    7    8
                                                      9   10   11
 DE= -7.30D-07 DEPred=-3.29D-07 R= 2.22D+00
 Trust test= 2.22D+00 RLast= 2.80D-02 DXMaxT set to 6.57D-01
 ITU=  0  0  1  1  1  1  1 -1  1  1  0
     Eigenvalues ---    0.00088   0.00135   0.00318   0.00539   0.00686
     Eigenvalues ---    0.00738   0.01365   0.01690   0.02899   0.02918
     Eigenvalues ---    0.03968   0.04225   0.05007   0.05547   0.06917
     Eigenvalues ---    0.07028   0.07070   0.07259   0.07345   0.07380
     Eigenvalues ---    0.09287   0.09891   0.12859   0.13253   0.15882
     Eigenvalues ---    0.15939   0.16000   0.16007   0.16008   0.16060
     Eigenvalues ---    0.16129   0.16250   0.16275   0.16432   0.21723
     Eigenvalues ---    0.22440   0.22906   0.24993   0.25179   0.25555
     Eigenvalues ---    0.29453   0.29915   0.30873   0.31322   0.31918
     Eigenvalues ---    0.32845   0.33752   0.33934   0.34121   0.34204
     Eigenvalues ---    0.34241   0.34247   0.34267   0.34279   0.34293
     Eigenvalues ---    0.34458   0.34507   0.34537   0.34886   0.35643
     Eigenvalues ---    0.36759   0.59018   0.90711
 En-DIIS/RFO-DIIS/Sim-DIIS IScMMF=       -3 using points:    11   10    9    8    7    6    5    4    3    2
 RFO step:  Lambda=-3.88519519D-07.
 NNeg= 0 NGDIIS=10 SimSw=  2.50D-01 Rises=F DC= -7.30D-07 SmlDif=  1.00D-05
 NRisDI= 0 DoIntr=F SqrtH=F CThrHd= 10.0 CDAdj=  3.0
 RMS Error=  0.1429546578D-02 NUsed=10 OKEnD=F EnDIS=F
 InvSVX:  RCond= 9.89D-09 Info=           0 Equed=N FErr=  2.09D-10 BErr=  8.46D-17
 DIIS inversion failure, remove point  10.
 InvSVX:  RCond= 1.10D-08 Info=           0 Equed=N FErr=  1.94D-10 BErr=  7.25D-17
 DIIS inversion failure, remove point   9.
 InvSVX:  RCond= 1.43D-08 Info=           0 Equed=N FErr=  1.73D-10 BErr=  5.49D-17
 DIIS inversion failure, remove point   8.
 InvSVX:  RCond= 1.23D-07 Info=           0 Equed=N FErr=  3.32D-12 BErr=  7.14D-17
 RFO-DIIS uses    7 points instead of   10
 DidBck=F Rises=F RFO-DIIS coefs:    1.33654    0.06255   -0.39155   -0.16026    0.13493
                  RFO-DIIS coefs:    0.02182   -0.00403    0.00000    0.00000    0.00000
 Iteration  1 RMS(Cart)=  0.00261216 RMS(Int)=  0.00000512
 Iteration  2 RMS(Cart)=  0.00000551 RMS(Int)=  0.00000008
 Iteration  3 RMS(Cart)=  0.00000000 RMS(Int)=  0.00000008
 ITry= 1 IFail=0 DXMaxC= 1.17D-02 DCOld= 1.00D+10 DXMaxT= 6.57D-01 DXLimC= 3.00D+00 Rises=F
 Variable       Old X    -DE/DX   Delta X   Delta X   Delta X     New X
                                 (Linear)    (Quad)   (Total)
    R1        2.28549   0.00003  -0.00010   0.00011   0.00001   2.28551
    R2        2.89249   0.00002  -0.00007   0.00007   0.00000   2.89249
    R3        2.83536   0.00003  -0.00046   0.00038  -0.00008   2.83528
    R4        2.05806   0.00003   0.00003   0.00005   0.00008   2.05814
    R5        2.06808  -0.00001   0.00005  -0.00006  -0.00000   2.06808
    R6        2.87154   0.00001  -0.00024   0.00016  -0.00008   2.87146
    R7        2.07278  -0.00001   0.00009  -0.00008   0.00001   2.07279
    R8        2.07118  -0.00001   0.00006  -0.00007  -0.00000   2.07118
    R9        2.52459  -0.00006   0.00004  -0.00011  -0.00006   2.52453
   R10        2.05753  -0.00000   0.00005  -0.00004   0.00001   2.05754
   R11        2.84555   0.00001  -0.00011   0.00009  -0.00002   2.84553
   R12        2.84291  -0.00001  -0.00006   0.00002  -0.00004   2.84286
   R13        2.86296   0.00000   0.00008  -0.00006   0.00002   2.86298
   R14        2.06926  -0.00001   0.00005  -0.00004   0.00001   2.06927
   R15        2.06924  -0.00000   0.00005  -0.00005   0.00001   2.06925
   R16        2.06010   0.00000  -0.00004   0.00004  -0.00000   2.06009
   R17        2.05550   0.00002  -0.00006   0.00010   0.00004   2.05554
   R18        2.06878  -0.00000   0.00001  -0.00003  -0.00001   2.06877
   R19        2.06890  -0.00001   0.00006  -0.00005   0.00001   2.06891
   R20        2.06534  -0.00001   0.00001  -0.00004  -0.00002   2.06532
   R21        2.05550   0.00001  -0.00009   0.00008  -0.00001   2.05549
   R22        2.06568   0.00000   0.00006  -0.00003   0.00003   2.06571
    A1        1.95725   0.00000  -0.00006   0.00006  -0.00000   1.95725
    A2        1.90388   0.00000   0.00009  -0.00003   0.00006   1.90393
    A3        1.88858  -0.00000  -0.00013   0.00014   0.00001   1.88859
    A4        1.95330  -0.00001   0.00020  -0.00026  -0.00006   1.95325
    A5        1.91271   0.00001  -0.00001   0.00007   0.00006   1.91277
    A6        1.84363   0.00000  -0.00010   0.00003  -0.00007   1.84357
    A7        1.99652   0.00000   0.00005  -0.00005   0.00001   1.99653
    A8        1.93275  -0.00001   0.00008  -0.00018  -0.00010   1.93265
    A9        1.93146  -0.00000   0.00022  -0.00011   0.00011   1.93156
   A10        1.87843   0.00000  -0.00016   0.00002  -0.00014   1.87829
   A11        1.88674  -0.00000   0.00014  -0.00003   0.00011   1.88685
   A12        1.82949   0.00001  -0.00038   0.00039   0.00001   1.82949
   A13        2.24560  -0.00005   0.00034  -0.00044  -0.00010   2.24550
   A14        1.99763   0.00003  -0.00021   0.00026   0.00005   1.99767
   A15        2.03996   0.00003  -0.00013   0.00018   0.00005   2.04001
   A16        2.10818   0.00004  -0.00015   0.00022   0.00008   2.10825
   A17        2.18024  -0.00008   0.00010  -0.00031  -0.00022   2.18003
   A18        1.99475   0.00003   0.00005   0.00009   0.00014   1.99489
   A19        2.13219  -0.00001   0.00012  -0.00011   0.00000   2.13219
   A20        2.12113   0.00000   0.00009  -0.00005   0.00004   2.12117
   A21        2.02987   0.00001  -0.00020   0.00016  -0.00004   2.02982
   A22        1.93651  -0.00000   0.00011  -0.00005   0.00006   1.93657
   A23        1.93749  -0.00001   0.00001  -0.00005  -0.00003   1.93745
   A24        1.95222   0.00000   0.00007  -0.00005   0.00002   1.95224
   A25        1.85777   0.00001  -0.00022   0.00021  -0.00001   1.85776
   A26        1.88761   0.00000   0.00003  -0.00003  -0.00001   1.88760
   A27        1.88874   0.00000  -0.00002  -0.00000  -0.00003   1.88872
   A28        1.97949  -0.00001   0.00002  -0.00012  -0.00010   1.97940
   A29        1.92785   0.00000   0.00013  -0.00004   0.00008   1.92793
   A30        1.92772   0.00000  -0.00015   0.00012  -0.00003   1.92768
   A31        1.88527   0.00000   0.00006  -0.00005   0.00002   1.88529
   A32        1.88242   0.00000   0.00010  -0.00011  -0.00001   1.88241
   A33        1.85619   0.00001  -0.00017   0.00021   0.00005   1.85624
   A34        1.92803   0.00002   0.00007   0.00016   0.00023   1.92826
   A35        1.91918  -0.00000   0.00005  -0.00007  -0.00002   1.91916
   A36        1.92328  -0.00001  -0.00034   0.00005  -0.00029   1.92299
   A37        1.91500  -0.00000   0.00033  -0.00016   0.00017   1.91518
   A38        1.86523   0.00001  -0.00022   0.00026   0.00005   1.86527
   A39        1.91240  -0.00001   0.00011  -0.00024  -0.00014   1.91226
    D1        3.08736   0.00000  -0.00154   0.00022  -0.00133   3.08603
    D2        0.96125   0.00000  -0.00143   0.00036  -0.00107   0.96017
    D3       -1.05975   0.00000  -0.00115   0.00006  -0.00109  -1.06084
    D4       -1.02195  -0.00001  -0.00126  -0.00010  -0.00136  -1.02331
    D5        3.13512  -0.00001  -0.00115   0.00005  -0.00111   3.13402
    D6        1.11412  -0.00001  -0.00087  -0.00026  -0.00112   1.11300
    D7        0.97565  -0.00001  -0.00141   0.00000  -0.00140   0.97425
    D8       -1.15046  -0.00001  -0.00130   0.00015  -0.00115  -1.15161
    D9        3.11173  -0.00001  -0.00101  -0.00015  -0.00117   3.11056
   D10        2.07155  -0.00000  -0.00109  -0.00001  -0.00111   2.07044
   D11       -1.06917  -0.00001  -0.00042  -0.00056  -0.00097  -1.07015
   D12       -0.07468  -0.00000  -0.00131   0.00018  -0.00114  -0.07582
   D13        3.06778  -0.00000  -0.00064  -0.00037  -0.00101   3.06678
   D14       -2.11391   0.00000  -0.00130   0.00025  -0.00106  -2.11496
   D15        1.02856  -0.00000  -0.00063  -0.00030  -0.00092   1.02763
   D16       -0.02922  -0.00000  -0.00118  -0.00059  -0.00177  -0.03099
   D17        3.11097  -0.00000  -0.00132  -0.00059  -0.00191   3.10905
   D18        2.12637  -0.00001  -0.00115  -0.00084  -0.00199   2.12438
   D19       -1.01662  -0.00001  -0.00130  -0.00084  -0.00214  -1.01876
   D20       -2.18945  -0.00000  -0.00161  -0.00039  -0.00199  -2.19144
   D21        0.95074  -0.00000  -0.00176  -0.00039  -0.00214   0.94859
   D22        3.13741  -0.00000   0.00049  -0.00042   0.00007   3.13748
   D23        0.00287  -0.00000   0.00048  -0.00032   0.00016   0.00303
   D24       -0.00507   0.00000  -0.00020   0.00014  -0.00006  -0.00513
   D25       -3.13962   0.00000  -0.00022   0.00024   0.00003  -3.13959
   D26       -2.10229  -0.00000  -0.00130   0.00007  -0.00123  -2.10352
   D27        2.11882  -0.00001  -0.00110  -0.00012  -0.00123   2.11759
   D28        0.00720  -0.00000  -0.00113  -0.00005  -0.00118   0.00602
   D29        1.03296  -0.00000  -0.00128  -0.00003  -0.00131   1.03165
   D30       -1.02911  -0.00001  -0.00109  -0.00022  -0.00131  -1.03042
   D31       -3.14073  -0.00000  -0.00112  -0.00015  -0.00126   3.14119
   D32       -0.02544   0.00000  -0.00411   0.00062  -0.00350  -0.02893
   D33       -2.14464   0.00001  -0.00430   0.00079  -0.00351  -2.14815
   D34        2.08998  -0.00000  -0.00408   0.00048  -0.00360   2.08637
   D35        3.12280   0.00000  -0.00413   0.00072  -0.00341   3.11938
   D36        1.00359   0.00001  -0.00432   0.00089  -0.00343   1.00017
   D37       -1.04497  -0.00000  -0.00410   0.00058  -0.00352  -1.04849
   D38       -2.14466  -0.00001  -0.00267  -0.00067  -0.00334  -2.14800
   D39       -0.02845  -0.00000  -0.00218  -0.00081  -0.00299  -0.03144
   D40        2.08145  -0.00002  -0.00224  -0.00112  -0.00336   2.07809
   D41        0.99832  -0.00001  -0.00252  -0.00067  -0.00319   0.99513
   D42        3.11454  -0.00000  -0.00203  -0.00081  -0.00284   3.11170
   D43       -1.05875  -0.00002  -0.00209  -0.00112  -0.00321  -1.06196
         Item               Value     Threshold  Converged?
 Maximum Force            0.000076     0.000450     YES
 RMS     Force            0.000015     0.000300     YES
 Maximum Displacement     0.011668     0.001800     NO 
 RMS     Displacement     0.002612     0.001200     NO 
 Predicted change in Energy=-1.904974D-07
 Lowest energy point so far.  Saving SCF results.
 GradGradGradGradGradGradGradGradGradGradGradGradGradGradGradGradGradGrad

 Leave Link  103 at Tue Jun  4 00:13:39 2024, MaxMem= 13421772800 cpu:               1.6 elap:               0.1
 (Enter /tmpu/scunam/7/gaussian-2016.03/g1/g16/l202.exe)
                          Input orientation:                          
 ---------------------------------------------------------------------
 Center     Atomic      Atomic             Coordinates (Angstroms)
 Number     Number       Type             X           Y           Z
 ---------------------------------------------------------------------
      1          8           0        2.768401   -0.374697   -1.069072
      2          6           0        0.048372   -0.490338   -0.333288
      3          6           0        1.117465    0.076613    0.603977
      4          6           0       -1.304947   -0.533631    0.313050
      5          6           0       -2.426324    0.091758   -0.055857
      6          6           0        2.523321    0.073051    0.027375
      7          6           0       -3.700268   -0.083697    0.727520
      8          6           0       -2.553222    0.999422   -1.248835
      9          6           0        3.609178    0.665360    0.902234
     10          1           0        0.039955    0.088793   -1.255635
     11          1           0        0.349224   -1.501875   -0.623028
     12          1           0        1.143880   -0.483416    1.546739
     13          1           0        0.871251    1.104185    0.895063
     14          1           0       -1.361075   -1.162885    1.199833
     15          1           0       -4.493992   -0.497618    0.096867
     16          1           0       -4.068908    0.878493    1.098089
     17          1           0       -3.563582   -0.747882    1.581109
     18          1           0       -1.619921    1.133304   -1.791251
     19          1           0       -2.911126    1.987370   -0.941706
     20          1           0       -3.296084    0.606914   -1.950778
     21          1           0        3.646304    0.151653    1.866184
     22          1           0        4.572977    0.582909    0.404815
     23          1           0        3.393721    1.716514    1.110993
 ---------------------------------------------------------------------
                    Distance matrix (angstroms):
                    1          2          3          4          5
     1  O    0.000000
     2  C    2.820161   0.000000
     3  C    2.393400   1.530639   0.000000
     4  C    4.304380   1.500366   2.514978   0.000000
     5  C    5.313131   2.557328   3.604726   1.335923   0.000000
     6  C    1.209438   2.563758   1.519511   3.886554   4.950380
     7  C    6.719830   3.917011   4.821983   2.472204   1.505788
     8  C    5.499108   3.134630   4.214075   2.519509   1.504378
     9  C    2.382158   3.942270   2.577638   5.092479   6.137935
    10  H    2.773814   1.089122   2.149262   2.157996   2.742628
    11  H    2.705902   1.094380   2.141812   2.133077   3.250387
    12  H    3.081129   2.175934   1.096873   2.742492   3.955439
    13  H    3.105495   2.174506   1.096019   2.785142   3.578164
    14  H    4.777211   2.188451   2.834530   1.088804   2.070179
    15  H    7.356417   4.562692   5.663510   3.196567   2.155444
    16  H    7.281200   4.568866   5.271207   3.201541   2.156067
    17  H    6.874354   4.096030   4.852502   2.599098   2.162870
    18  H    4.696060   2.746829   3.787742   2.702955   2.178692
    19  H    6.152448   3.907408   4.719075   3.241862   2.147814
    20  H    6.206363   3.873709   5.127124   3.223412   2.147695
    21  H    3.108616   4.265553   2.827336   5.234188   6.369823
    22  H    2.519097   4.708366   3.498080   5.983734   7.031619
    23  H    3.084943   4.259989   2.850910   5.270422   6.154210
                    6          7          8          9         10
     6  C    0.000000
     7  C    6.264809   0.000000
     8  C    5.315841   2.528802   0.000000
     9  C    1.515023   7.349804   6.535585   0.000000
    10  H    2.795257   4.236972   2.748429   4.210484   0.000000
    11  H    2.762266   4.498177   3.882307   4.201266   1.739558
    12  H    2.126259   4.929166   4.866478   2.795132   3.065839
    13  H    2.132007   4.726301   4.041570   2.772881   2.519439
    14  H    4.241547   2.619074   3.477464   5.304193   3.091747
    15  H    7.040821   1.095012   2.796181   8.225722   4.767580
    16  H    6.727009   1.095000   2.796423   7.683541   4.800667
    17  H    6.335488   1.090155   3.475986   7.342112   4.661826
    18  H    4.647364   3.486136   1.087746   5.900620   2.032997
    19  H    5.842683   2.774595   1.094744   6.903781   3.523071
    20  H    6.169568   2.795280   1.094820   7.471662   3.446858
    21  H    2.156036   7.438015   6.989720   1.092919   4.770268
    22  H    2.145579   8.306329   7.327398   1.087719   4.852786
    23  H    2.152393   7.328881   6.438101   1.093127   4.415671
                   11         12         13         14         15
    11  H    0.000000
    12  H    2.525199   0.000000
    13  H    3.060827   1.737667   0.000000
    14  H    2.522471   2.618554   3.196212   0.000000
    15  H    4.998351   5.821334   5.655857   3.387371   0.000000
    16  H    5.305496   5.406408   4.949478   3.392629   1.754087
    17  H    4.553765   4.715011   4.854746   2.273464   1.769539
    18  H    3.490909   4.625425   3.663750   3.779691   3.805940
    19  H    4.786049   5.360990   4.296523   4.112536   3.123982
    20  H    4.415674   5.756277   5.070775   4.099121   2.616835
    21  H    4.449840   2.601438   3.090520   5.219759   8.355624
    22  H    4.821087   3.768255   3.770258   6.236411   9.136317
    23  H    4.757502   3.176688   2.604694   5.559399   8.255110
                   16         17         18         19         20
    16  H    0.000000
    17  H    1.770242   0.000000
    18  H    3.796150   4.323134   0.000000
    19  H    2.594385   3.777816   1.765890   0.000000
    20  H    3.156993   3.792262   1.764103   1.752735   0.000000
    21  H    7.787347   7.271375   6.486416   7.365731   7.935566
    22  H    8.674686   8.328161   6.593757   7.732880   8.214105
    23  H    7.509546   7.395832   5.822350   6.636116   7.440373
                   21         22         23
    21  H    0.000000
    22  H    1.783341   0.000000
    23  H    1.755819   1.781682   0.000000
 Stoichiometry    C8H14O
 Framework group  C1[X(C8H14O)]
 Deg. of freedom    63
 Full point group                 C1      NOp   1
 RotChk:  IX=0 Diff= 5.13D-04
 Largest Abelian subgroup         C1      NOp   1
 Largest concise Abelian subgroup C1      NOp   1
                         Standard orientation:                         
 ---------------------------------------------------------------------
 Center     Atomic      Atomic             Coordinates (Angstroms)
 Number     Number       Type             X           Y           Z
 ---------------------------------------------------------------------
      1          8           0        2.744045    1.092237   -0.633650
      2          6           0        0.054560    0.243865   -0.618102
      3          6           0        1.157822   -0.548639    0.087310
      4          6           0       -1.272810   -0.452362   -0.551341
      5          6           0       -2.408749   -0.031061    0.011544
      6          6           0        2.540461    0.073299   -0.014734
      7          6           0       -3.651277   -0.880623   -0.030495
      8          6           0       -2.583188    1.286385    0.716568
      9          6           0        3.658027   -0.652944    0.705624
     10          1           0        0.009556    1.246196   -0.194435
     11          1           0        0.345988    0.378803   -1.664300
     12          1           0        1.221559   -1.567351   -0.314304
     13          1           0        0.921011   -0.680238    1.149318
     14          1           0       -1.293575   -1.430131   -1.029912
     15          1           0       -4.467874   -0.355426   -0.536844
     16          1           0       -4.007239   -1.105795    0.980253
     17          1           0       -3.480580   -1.823879   -0.549695
     18          1           0       -1.671701    1.878578    0.757693
     19          1           0       -2.930912    1.128328    1.742517
     20          1           0       -3.351744    1.887278    0.219699
     21          1           0        3.733193   -1.684709    0.353085
     22          1           0        4.602135   -0.138686    0.540310
     23          1           0        3.448738   -0.698383    1.777566
 ---------------------------------------------------------------------
 Rotational constants (GHZ):           4.0685278           0.5827652           0.5555489
 Leave Link  202 at Tue Jun  4 00:13:39 2024, MaxMem= 13421772800 cpu:               2.7 elap:               0.1
 (Enter /tmpu/scunam/7/gaussian-2016.03/g1/g16/l301.exe)
 Standard basis: def2TZVP (5D, 7F)
 Ernie: Thresh=  0.10000D-02 Tol=  0.10000D-05 Strict=F.
 There are   408 symmetry adapted cartesian basis functions of A   symmetry.
 There are   363 symmetry adapted basis functions of A   symmetry.
   363 basis functions,   571 primitive gaussians,   408 cartesian basis functions
    35 alpha electrons       35 beta electrons
       nuclear repulsion energy       428.8954582485 Hartrees.
 IExCor=  402 DFT=T Ex+Corr=B3LYP ExCW=0 ScaHFX=  0.200000
 ScaDFX=  0.800000  0.720000  1.000000  0.810000 ScalE2=  1.000000  1.000000
 IRadAn=      5 IRanWt=     -1 IRanGd=            0 ICorTp=0 IEmpDi=  4
 NAtoms=   23 NActive=   23 NUniq=   23 SFac= 1.00D+00 NAtFMM=   60 NAOKFM=F Big=F
 Integral buffers will be    131072 words long.
 Raffenetti 2 integral format.
 Two-electron integral symmetry is turned on.
 Leave Link  301 at Tue Jun  4 00:13:39 2024, MaxMem= 13421772800 cpu:               2.5 elap:               0.1
 (Enter /tmpu/scunam/7/gaussian-2016.03/g1/g16/l302.exe)
 NPDir=0 NMtPBC=     1 NCelOv=     1 NCel=       1 NClECP=     1 NCelD=      1
         NCelK=      1 NCelE2=     1 NClLst=     1 CellRange=     0.0.
 One-electron integrals computed using PRISM.
 One-electron integral symmetry used in STVInt
   1 Symmetry operations used in ECPInt.
 ECPInt:  NShTT=   12090 NPrTT=   35220 LenC2=   11306 LenP2D=   25534.
 LDataN:  DoStor=T MaxTD1= 6 Len=  172
 NBasis=   363 RedAO= T EigKep=  7.85D-05  NBF=   363
 NBsUse=   363 1.00D-06 EigRej= -1.00D+00 NBFU=   363
 Precomputing XC quadrature grid using
 IXCGrd= 4 IRadAn=           5 IRanWt=          -1 IRanGd=           0 AccXCQ= 0.00D+00.
 Generated NRdTot=       0 NPtTot=           0 NUsed=           0 NTot=          32
 NSgBfM=   405   405   405   405   405 MxSgAt=    23 MxSgA2=    23.
 Leave Link  302 at Tue Jun  4 00:13:40 2024, MaxMem= 13421772800 cpu:              13.0 elap:               0.4
 (Enter /tmpu/scunam/7/gaussian-2016.03/g1/g16/l303.exe)
 DipDrv:  MaxL=1.
 Leave Link  303 at Tue Jun  4 00:13:40 2024, MaxMem= 13421772800 cpu:               3.0 elap:               0.1
 (Enter /tmpu/scunam/7/gaussian-2016.03/g1/g16/l401.exe)
 Initial guess from the checkpoint file:  "S36.chk"
 B after Tr=    -0.000000    0.000000   -0.000000
         Rot=    1.000000    0.000013    0.000013    0.000056 Ang=   0.01 deg.
 Guess basis will be translated and rotated to current coordinates.
 JPrj=2 DoOrth=T DoCkMO=T.
 Leave Link  401 at Tue Jun  4 00:13:40 2024, MaxMem= 13421772800 cpu:               9.0 elap:               0.3
 (Enter /tmpu/scunam/7/gaussian-2016.03/g1/g16/l502.exe)
 Integral symmetry usage will be decided dynamically.
 Closed shell SCF:
 Using DIIS extrapolation, IDIIS=  1040.
 NGot= 13421772800 LenX= 13421422965 LenY= 13421256060
 Requested convergence on RMS density matrix=1.00D-08 within 128 cycles.
 Requested convergence on MAX density matrix=1.00D-06.
 Requested convergence on             energy=1.00D-06.
 No special actions if energy rises.
 Fock matrices will be formed incrementally for  20 cycles.

 Cycle   1  Pass 1  IDiag  1:
 FoFJK:  IHMeth= 1 ICntrl=       0 DoSepK=F KAlg= 0 I1Cent=           0 FoldK=F
 IRaf= 890000000 NMat=       1 IRICut=       1 DoRegI=T DoRafI=F ISym2E= 0 IDoP0=0 IntGTp=1.
 FoFCou: FMM=F IPFlag=           0 FMFlag=      100000 FMFlg1=           0
         NFxFlg=           0 DoJE=F BraDBF=F KetDBF=F FulRan=T
         wScrn=  0.000000 ICntrl=         0 IOpCl=  0 I1Cent=           0 NGrid=           0
         NMat0=    1 NMatS0=      1 NMatT0=    0 NMatD0=    1 NMtDS0=    0 NMtDT0=    0
 Symmetry not used in FoFCou.
 E= -388.651217893446    
 DIIS: error= 1.51D-04 at cycle   1 NSaved=   1.
 NSaved= 1 IEnMin= 1 EnMin= -388.651217893446     IErMin= 1 ErrMin= 1.51D-04
 ErrMax= 1.51D-04  0.00D+00 EMaxC= 1.00D-01 BMatC= 9.58D-06 BMatP= 9.58D-06
 IDIUse=3 WtCom= 9.98D-01 WtEn= 1.51D-03
 Coeff-Com:  0.100D+01
 Coeff-En:   0.100D+01
 Coeff:      0.100D+01
 Gap=     0.607 Goal=   None    Shift=    0.000
 RMSDP=9.58D-06 MaxDP=3.99D-04              OVMax= 8.37D-04

 Cycle   2  Pass 1  IDiag  1:
 RMSU=  9.58D-06    CP:  1.00D+00
 E= -388.651231296389     Delta-E=       -0.000013402944 Rises=F Damp=F
 DIIS: error= 1.14D-05 at cycle   2 NSaved=   2.
 NSaved= 2 IEnMin= 2 EnMin= -388.651231296389     IErMin= 2 ErrMin= 1.14D-05
 ErrMax= 1.14D-05  0.00D+00 EMaxC= 1.00D-01 BMatC= 9.86D-08 BMatP= 9.58D-06
 IDIUse=1 WtCom= 1.00D+00 WtEn= 0.00D+00
 Coeff-Com: -0.634D-01 0.106D+01
 Coeff:     -0.634D-01 0.106D+01
 Gap=     0.216 Goal=   None    Shift=    0.000
 RMSDP=1.45D-06 MaxDP=3.83D-05 DE=-1.34D-05 OVMax= 1.13D-04

 Cycle   3  Pass 1  IDiag  1:
 RMSU=  1.24D-06    CP:  1.00D+00  1.08D+00
 E= -388.651231454093     Delta-E=       -0.000000157704 Rises=F Damp=F
 DIIS: error= 6.55D-06 at cycle   3 NSaved=   3.
 NSaved= 3 IEnMin= 3 EnMin= -388.651231454093     IErMin= 3 ErrMin= 6.55D-06
 ErrMax= 6.55D-06  0.00D+00 EMaxC= 1.00D-01 BMatC= 1.44D-08 BMatP= 9.86D-08
 IDIUse=1 WtCom= 1.00D+00 WtEn= 0.00D+00
 Coeff-Com: -0.210D-01 0.302D+00 0.719D+00
 Coeff:     -0.210D-01 0.302D+00 0.719D+00
 Gap=     0.216 Goal=   None    Shift=    0.000
 RMSDP=6.35D-07 MaxDP=5.24D-05 DE=-1.58D-07 OVMax= 3.93D-05

 Cycle   4  Pass 1  IDiag  1:
 RMSU=  4.87D-07    CP:  1.00D+00  1.08D+00  6.79D-01
 E= -388.651231462595     Delta-E=       -0.000000008502 Rises=F Damp=F
 DIIS: error= 4.38D-06 at cycle   4 NSaved=   4.
 NSaved= 4 IEnMin= 4 EnMin= -388.651231462595     IErMin= 4 ErrMin= 4.38D-06
 ErrMax= 4.38D-06  0.00D+00 EMaxC= 1.00D-01 BMatC= 7.92D-09 BMatP= 1.44D-08
 IDIUse=1 WtCom= 1.00D+00 WtEn= 0.00D+00
 Coeff-Com: -0.812D-02 0.106D+00 0.438D+00 0.464D+00
 Coeff:     -0.812D-02 0.106D+00 0.438D+00 0.464D+00
 Gap=     0.216 Goal=   None    Shift=    0.000
 RMSDP=3.38D-07 MaxDP=3.65D-05 DE=-8.50D-09 OVMax= 2.87D-05

 Cycle   5  Pass 1  IDiag  1:
 RMSU=  1.90D-07    CP:  1.00D+00  1.09D+00  7.70D-01  4.88D-01
 E= -388.651231468233     Delta-E=       -0.000000005638 Rises=F Damp=F
 DIIS: error= 1.79D-06 at cycle   5 NSaved=   5.
 NSaved= 5 IEnMin= 5 EnMin= -388.651231468233     IErMin= 5 ErrMin= 1.79D-06
 ErrMax= 1.79D-06  0.00D+00 EMaxC= 1.00D-01 BMatC= 1.10D-09 BMatP= 7.92D-09
 IDIUse=1 WtCom= 1.00D+00 WtEn= 0.00D+00
 Coeff-Com: -0.284D-03-0.574D-02 0.116D+00 0.293D+00 0.597D+00
 Coeff:     -0.284D-03-0.574D-02 0.116D+00 0.293D+00 0.597D+00
 Gap=     0.216 Goal=   None    Shift=    0.000
 RMSDP=1.21D-07 MaxDP=1.10D-05 DE=-5.64D-09 OVMax= 9.69D-06

 Cycle   6  Pass 1  IDiag  1:
 RMSU=  6.08D-08    CP:  1.00D+00  1.09D+00  7.94D-01  6.04D-01  5.79D-01
 E= -388.651231469056     Delta-E=       -0.000000000823 Rises=F Damp=F
 DIIS: error= 4.15D-07 at cycle   6 NSaved=   6.
 NSaved= 6 IEnMin= 6 EnMin= -388.651231469056     IErMin= 6 ErrMin= 4.15D-07
 ErrMax= 4.15D-07  0.00D+00 EMaxC= 1.00D-01 BMatC= 6.78D-11 BMatP= 1.10D-09
 IDIUse=1 WtCom= 1.00D+00 WtEn= 0.00D+00
 Coeff-Com:  0.554D-03-0.133D-01 0.271D-01 0.117D+00 0.308D+00 0.561D+00
 Coeff:      0.554D-03-0.133D-01 0.271D-01 0.117D+00 0.308D+00 0.561D+00
 Gap=     0.216 Goal=   None    Shift=    0.000
 RMSDP=3.06D-08 MaxDP=1.87D-06 DE=-8.23D-10 OVMax= 3.26D-06

 Cycle   7  Pass 1  IDiag  1:
 RMSU=  1.27D-08    CP:  1.00D+00  1.09D+00  7.94D-01  6.07D-01  6.60D-01
                    CP:  6.29D-01
 E= -388.651231469107     Delta-E=       -0.000000000050 Rises=F Damp=F
 DIIS: error= 1.68D-07 at cycle   7 NSaved=   7.
 NSaved= 7 IEnMin= 7 EnMin= -388.651231469107     IErMin= 7 ErrMin= 1.68D-07
 ErrMax= 1.68D-07  0.00D+00 EMaxC= 1.00D-01 BMatC= 1.03D-11 BMatP= 6.78D-11
 IDIUse=1 WtCom= 1.00D+00 WtEn= 0.00D+00
 Coeff-Com:  0.373D-03-0.800D-02 0.880D-02 0.523D-01 0.148D+00 0.343D+00
 Coeff-Com:  0.456D+00
 Coeff:      0.373D-03-0.800D-02 0.880D-02 0.523D-01 0.148D+00 0.343D+00
 Coeff:      0.456D+00
 Gap=     0.216 Goal=   None    Shift=    0.000
 RMSDP=8.39D-09 MaxDP=4.98D-07 DE=-5.00D-11 OVMax= 1.65D-06

 SCF Done:  E(RB3LYP) =  -388.651231469     A.U. after    7 cycles
            NFock=  7  Conv=0.84D-08     -V/T= 2.0053
 KE= 3.865950119632D+02 PE=-1.761066061457D+03 EE= 5.569243597761D+02
 Leave Link  502 at Tue Jun  4 00:14:01 2024, MaxMem= 13421772800 cpu:             666.6 elap:              21.0
 (Enter /tmpu/scunam/7/gaussian-2016.03/g1/g16/l508.exe)
 QCSCF skips out because SCF is already converged.
 Leave Link  508 at Tue Jun  4 00:14:01 2024, MaxMem= 13421772800 cpu:               0.1 elap:               0.0
 (Enter /tmpu/scunam/7/gaussian-2016.03/g1/g16/l701.exe)
 ... and contract with generalized density number  0.
 Compute integral first derivatives.
   1 Symmetry operations used in ECPInt.
 ECPInt:  NShTT=   12090 NPrTT=   35220 LenC2=   11306 LenP2D=   25534.
 LDataN:  DoStor=T MaxTD1= 7 Len=  274
 Leave Link  701 at Tue Jun  4 00:14:02 2024, MaxMem= 13421772800 cpu:              10.5 elap:               0.4
 (Enter /tmpu/scunam/7/gaussian-2016.03/g1/g16/l702.exe)
 L702 exits ... SP integral derivatives will be done elsewhere.
 Leave Link  702 at Tue Jun  4 00:14:02 2024, MaxMem= 13421772800 cpu:               1.7 elap:               0.1
 (Enter /tmpu/scunam/7/gaussian-2016.03/g1/g16/l703.exe)
 Integral derivatives from FoFJK, PRISM(SPDF).
 Compute integral first derivatives, UseDBF=F ICtDFT=           0.
 Calling FoFJK, ICntrl=      2127 FMM=F ISym2X=0 I1Cent= 0 IOpClX= 0 NMat=1 NMatS=1 NMatT=0.
 FoFJK:  IHMeth= 1 ICntrl=    2127 DoSepK=F KAlg= 0 I1Cent=           0 FoldK=F
 IRaf=         0 NMat=       1 IRICut=       1 DoRegI=T DoRafI=F ISym2E= 0 IDoP0=0 IntGTp=1.
 FoFCou: FMM=F IPFlag=           0 FMFlag=      100000 FMFlg1=         800
         NFxFlg=           0 DoJE=F BraDBF=F KetDBF=F FulRan=T
         wScrn=  0.000000 ICntrl=      2127 IOpCl=  0 I1Cent=           0 NGrid=           0
         NMat0=    1 NMatS0=      1 NMatT0=    0 NMatD0=    1 NMtDS0=    0 NMtDT0=    0
 Symmetry not used in FoFCou.
 Leave Link  703 at Tue Jun  4 00:14:12 2024, MaxMem= 13421772800 cpu:             328.3 elap:              10.3
 (Enter /tmpu/scunam/7/gaussian-2016.03/g1/g16/l716.exe)
 Dipole        =-2.88349626D-01-8.42894164D-01 6.07189335D-01
 ***** Axes restored to original set *****
 -------------------------------------------------------------------
 Center     Atomic                   Forces (Hartrees/Bohr)
 Number     Number              X              Y              Z
 -------------------------------------------------------------------
      1        8           0.000004226   -0.000001014   -0.000020263
      2        6           0.000043949   -0.000031321   -0.000038597
      3        6          -0.000007563    0.000007903    0.000036347
      4        6          -0.000050691    0.000020961    0.000043178
      5        6           0.000010791   -0.000014335    0.000022467
      6        6           0.000024055    0.000020014    0.000012220
      7        6          -0.000033737    0.000005007   -0.000012194
      8        6          -0.000022466   -0.000002566   -0.000012756
      9        6          -0.000027978   -0.000030384    0.000024776
     10        1          -0.000012302    0.000007448    0.000003598
     11        1           0.000002737    0.000019393    0.000001734
     12        1          -0.000009452   -0.000007558   -0.000012910
     13        1           0.000001478   -0.000008345   -0.000011405
     14        1          -0.000002018   -0.000005040   -0.000010232
     15        1           0.000009742    0.000002150    0.000002839
     16        1           0.000008749   -0.000001800    0.000001786
     17        1           0.000003572   -0.000005123    0.000002179
     18        1           0.000004132   -0.000003890   -0.000009662
     19        1           0.000014115   -0.000000536    0.000005342
     20        1           0.000003817    0.000009449   -0.000000355
     21        1           0.000005177    0.000013985   -0.000002925
     22        1           0.000015884    0.000001207   -0.000002474
     23        1           0.000013785    0.000004395   -0.000022691
 -------------------------------------------------------------------
 Cartesian Forces:  Max     0.000050691 RMS     0.000017266
 Leave Link  716 at Tue Jun  4 00:14:12 2024, MaxMem= 13421772800 cpu:               0.7 elap:               0.0
 (Enter /tmpu/scunam/7/gaussian-2016.03/g1/g16/l103.exe)

 GradGradGradGradGradGradGradGradGradGradGradGradGradGradGradGradGradGrad
 Berny optimization.
 Using GEDIIS/GDIIS optimizer.
 FormGI is forming the generalized inverse of G from B-inverse, IUseBI=4.
 Internal  Forces:  Max     0.000061238 RMS     0.000010918
 Search for a local minimum.
 Step number  12 out of a maximum of  138
 All quantities printed in internal units (Hartrees-Bohrs-Radians)
 RMS Force = .10918D-04 SwitMx=.10000D-02 MixMth= 2
 Mixed Optimization -- En-DIIS/RFO-DIIS
 Swapping is turned off.
 Update second derivatives using D2CorX and points    4    5    6    7    8
                                                      9   10   11   12
 DE= -2.42D-07 DEPred=-1.90D-07 R= 1.27D+00
 Trust test= 1.27D+00 RLast= 1.37D-02 DXMaxT set to 6.57D-01
 ITU=  0  0  0  1  1  1  1  1 -1  1  1  0
     Eigenvalues ---    0.00062   0.00130   0.00233   0.00545   0.00673
     Eigenvalues ---    0.00767   0.01371   0.01723   0.02906   0.02920
     Eigenvalues ---    0.03957   0.04221   0.04963   0.05548   0.06924
     Eigenvalues ---    0.07014   0.07040   0.07225   0.07287   0.07383
     Eigenvalues ---    0.09298   0.09889   0.12834   0.13250   0.15825
     Eigenvalues ---    0.15972   0.16000   0.16003   0.16013   0.16084
     Eigenvalues ---    0.16119   0.16235   0.16321   0.16566   0.21682
     Eigenvalues ---    0.22494   0.22834   0.24985   0.25352   0.25593
     Eigenvalues ---    0.29561   0.29898   0.30908   0.31430   0.31917
     Eigenvalues ---    0.32923   0.33858   0.33939   0.34120   0.34195
     Eigenvalues ---    0.34233   0.34246   0.34270   0.34274   0.34308
     Eigenvalues ---    0.34465   0.34515   0.34554   0.34881   0.36246
     Eigenvalues ---    0.39631   0.59643   0.89750
 En-DIIS/RFO-DIIS/Sim-DIIS IScMMF=       -3 using points:    12   11   10    9    8    7    6    5    4    3
 RFO step:  Lambda=-4.44926948D-07.
 NNeg= 0 NGDIIS=10 SimSw=  2.50D-01 Rises=F DC= -2.42D-07 SmlDif=  1.00D-05
 NRisDI= 0 DoIntr=F SqrtH=F CThrHd= 10.0 CDAdj=  3.0
 RMS Error=  0.1957089958D-02 NUsed=10 OKEnD=F EnDIS=F
 InvSVX:  RCond= 6.42D-09 Info=           0 Equed=N FErr=  1.96D-10 BErr=  7.31D-17
 DIIS inversion failure, remove point  10.
 InvSVX:  RCond= 9.10D-09 Info=           0 Equed=N FErr=  1.70D-10 BErr=  7.69D-17
 DIIS inversion failure, remove point   9.
 InvSVX:  RCond= 1.47D-08 Info=           0 Equed=N FErr=  7.99D-11 BErr=  6.62D-17
 DIIS inversion failure, remove point   8.
 InvSVX:  RCond= 1.72D-08 Info=           0 Equed=N FErr=  6.87D-11 BErr=  4.67D-17
 DIIS inversion failure, remove point   7.
 InvSVX:  RCond= 2.16D-08 Info=           0 Equed=N FErr=  3.55D-11 BErr=  4.06D-17
 DIIS inversion failure, remove point   6.
 InvSVX:  RCond= 3.75D-08 Info=           0 Equed=N FErr=  2.18D-11 BErr=  8.03D-17
 DIIS inversion failure, remove point   5.
 InvSVX:  RCond= 2.06D-06 Info=           0 Equed=N FErr=  3.93D-13 BErr=  3.25D-17
 RFO-DIIS uses    4 points instead of   10
 DidBck=F Rises=F RFO-DIIS coefs:    2.41241   -1.06492   -1.01577    0.66828    0.00000
                  RFO-DIIS coefs:    0.00000    0.00000    0.00000    0.00000    0.00000
 Iteration  1 RMS(Cart)=  0.00436036 RMS(Int)=  0.00001767
 Iteration  2 RMS(Cart)=  0.00001888 RMS(Int)=  0.00000004
 Iteration  3 RMS(Cart)=  0.00000000 RMS(Int)=  0.00000004
 ITry= 1 IFail=0 DXMaxC= 2.08D-02 DCOld= 1.00D+10 DXMaxT= 6.57D-01 DXLimC= 3.00D+00 Rises=F
 Variable       Old X    -DE/DX   Delta X   Delta X   Delta X     New X
                                 (Linear)    (Quad)   (Total)
    R1        2.28551   0.00002   0.00006  -0.00004   0.00002   2.28552
    R2        2.89249   0.00002   0.00004   0.00002   0.00005   2.89254
    R3        2.83528   0.00006  -0.00010   0.00009  -0.00001   2.83527
    R4        2.05814   0.00000   0.00009  -0.00001   0.00008   2.05822
    R5        2.06808  -0.00002  -0.00000  -0.00005  -0.00005   2.06803
    R6        2.87146   0.00004  -0.00007   0.00006  -0.00001   2.87145
    R7        2.07279  -0.00001   0.00000   0.00000   0.00001   2.07280
    R8        2.07118  -0.00001  -0.00003  -0.00001  -0.00003   2.07114
    R9        2.52453  -0.00001   0.00000  -0.00004  -0.00004   2.52449
   R10        2.05754  -0.00001   0.00004  -0.00003   0.00001   2.05755
   R11        2.84553   0.00001  -0.00005   0.00003  -0.00003   2.84550
   R12        2.84286   0.00002  -0.00002   0.00003   0.00001   2.84287
   R13        2.86298   0.00000   0.00006  -0.00004   0.00001   2.86299
   R14        2.06927  -0.00001  -0.00000  -0.00002  -0.00002   2.06925
   R15        2.06925  -0.00000   0.00002  -0.00001   0.00001   2.06926
   R16        2.06009   0.00001   0.00001  -0.00000   0.00001   2.06010
   R17        2.05554   0.00001   0.00004  -0.00000   0.00004   2.05558
   R18        2.06877  -0.00000  -0.00003   0.00000  -0.00002   2.06874
   R19        2.06891  -0.00001   0.00001  -0.00001  -0.00000   2.06891
   R20        2.06532  -0.00001  -0.00006  -0.00000  -0.00006   2.06526
   R21        2.05549   0.00001   0.00000   0.00002   0.00002   2.05551
   R22        2.06571  -0.00000   0.00002   0.00001   0.00004   2.06575
    A1        1.95725   0.00001  -0.00001  -0.00001  -0.00002   1.95723
    A2        1.90393   0.00000   0.00008   0.00001   0.00009   1.90403
    A3        1.88859  -0.00001  -0.00008   0.00005  -0.00004   1.88855
    A4        1.95325  -0.00001  -0.00001  -0.00012  -0.00013   1.95312
    A5        1.91277   0.00000   0.00016  -0.00004   0.00013   1.91290
    A6        1.84357   0.00000  -0.00015   0.00011  -0.00004   1.84353
    A7        1.99653   0.00001   0.00012  -0.00008   0.00004   1.99657
    A8        1.93265  -0.00001  -0.00021   0.00001  -0.00020   1.93245
    A9        1.93156  -0.00001   0.00005   0.00005   0.00010   1.93166
   A10        1.87829   0.00000  -0.00016  -0.00004  -0.00019   1.87810
   A11        1.88685   0.00000   0.00011   0.00009   0.00020   1.88705
   A12        1.82949   0.00001   0.00008  -0.00003   0.00006   1.82955
   A13        2.24550  -0.00002   0.00019  -0.00017   0.00002   2.24552
   A14        1.99767   0.00001  -0.00017   0.00010  -0.00007   1.99760
   A15        2.04001   0.00001  -0.00002   0.00007   0.00005   2.04006
   A16        2.10825   0.00002   0.00002   0.00006   0.00009   2.10834
   A17        2.18003  -0.00002  -0.00016  -0.00002  -0.00018   2.17984
   A18        1.99489  -0.00000   0.00013  -0.00004   0.00010   1.99498
   A19        2.13219  -0.00001   0.00002  -0.00001   0.00001   2.13220
   A20        2.12117  -0.00001   0.00001  -0.00002  -0.00001   2.12117
   A21        2.02982   0.00002  -0.00003   0.00003  -0.00000   2.02982
   A22        1.93657  -0.00000   0.00010  -0.00005   0.00005   1.93661
   A23        1.93745  -0.00000  -0.00005   0.00000  -0.00005   1.93740
   A24        1.95224  -0.00000   0.00002  -0.00002  -0.00000   1.95224
   A25        1.85776   0.00001   0.00002   0.00001   0.00003   1.85779
   A26        1.88760   0.00000  -0.00002   0.00003   0.00001   1.88761
   A27        1.88872   0.00000  -0.00006   0.00003  -0.00003   1.88869
   A28        1.97940  -0.00000  -0.00011   0.00002  -0.00009   1.97931
   A29        1.92793  -0.00001   0.00008  -0.00004   0.00004   1.92798
   A30        1.92768   0.00001   0.00004   0.00001   0.00005   1.92774
   A31        1.88529  -0.00000  -0.00006   0.00003  -0.00004   1.88525
   A32        1.88241  -0.00001  -0.00003  -0.00001  -0.00004   1.88237
   A33        1.85624   0.00000   0.00009  -0.00001   0.00007   1.85631
   A34        1.92826   0.00002   0.00033   0.00017   0.00050   1.92876
   A35        1.91916   0.00000   0.00000  -0.00002  -0.00002   1.91914
   A36        1.92299  -0.00001  -0.00048  -0.00003  -0.00052   1.92247
   A37        1.91518  -0.00001   0.00023   0.00004   0.00027   1.91545
   A38        1.86527   0.00000   0.00018  -0.00006   0.00011   1.86539
   A39        1.91226  -0.00001  -0.00026  -0.00009  -0.00035   1.91192
    D1        3.08603   0.00000  -0.00335   0.00018  -0.00318   3.08286
    D2        0.96017   0.00000  -0.00307   0.00028  -0.00279   0.95738
    D3       -1.06084   0.00000  -0.00308   0.00027  -0.00280  -1.06365
    D4       -1.02331  -0.00001  -0.00332   0.00003  -0.00329  -1.02659
    D5        3.13402  -0.00001  -0.00303   0.00013  -0.00291   3.13111
    D6        1.11300  -0.00001  -0.00304   0.00013  -0.00292   1.11009
    D7        0.97425  -0.00001  -0.00349   0.00019  -0.00330   0.97095
    D8       -1.15161  -0.00001  -0.00321   0.00029  -0.00292  -1.15453
    D9        3.11056  -0.00000  -0.00322   0.00029  -0.00293   3.10763
   D10        2.07044   0.00000  -0.00066   0.00003  -0.00063   2.06981
   D11       -1.07015  -0.00000  -0.00066  -0.00002  -0.00068  -1.07082
   D12       -0.07582   0.00000  -0.00076   0.00011  -0.00064  -0.07646
   D13        3.06678  -0.00000  -0.00075   0.00006  -0.00069   3.06609
   D14       -2.11496   0.00000  -0.00067   0.00007  -0.00060  -2.11557
   D15        1.02763  -0.00000  -0.00066   0.00002  -0.00065   1.02699
   D16       -0.03099  -0.00000  -0.00266  -0.00075  -0.00341  -0.03440
   D17        3.10905  -0.00000  -0.00288  -0.00072  -0.00359   3.10546
   D18        2.12438  -0.00001  -0.00297  -0.00082  -0.00379   2.12059
   D19       -1.01876  -0.00001  -0.00319  -0.00078  -0.00397  -1.02273
   D20       -2.19144  -0.00000  -0.00290  -0.00083  -0.00372  -2.19517
   D21        0.94859   0.00000  -0.00311  -0.00079  -0.00390   0.94469
   D22        3.13748  -0.00000   0.00008   0.00006   0.00014   3.13762
   D23        0.00303  -0.00000   0.00025  -0.00012   0.00013   0.00316
   D24       -0.00513   0.00000   0.00007   0.00011   0.00018  -0.00495
   D25       -3.13959   0.00000   0.00025  -0.00007   0.00018  -3.13941
   D26       -2.10352   0.00000  -0.00207   0.00013  -0.00194  -2.10546
   D27        2.11759  -0.00000  -0.00213   0.00015  -0.00197   2.11562
   D28        0.00602  -0.00000  -0.00202   0.00012  -0.00190   0.00412
   D29        1.03165  -0.00000  -0.00223   0.00029  -0.00194   1.02971
   D30       -1.03042  -0.00000  -0.00228   0.00031  -0.00197  -1.03239
   D31        3.14119  -0.00000  -0.00218   0.00028  -0.00190   3.13929
   D32       -0.02893   0.00000  -0.00432   0.00150  -0.00282  -0.03176
   D33       -2.14815   0.00001  -0.00423   0.00148  -0.00275  -2.15090
   D34        2.08637   0.00000  -0.00441   0.00151  -0.00290   2.08348
   D35        3.11938   0.00001  -0.00416   0.00133  -0.00283   3.11656
   D36        1.00017   0.00001  -0.00406   0.00131  -0.00275   0.99741
   D37       -1.04849   0.00001  -0.00425   0.00135  -0.00290  -1.05139
   D38       -2.14800  -0.00001  -0.00517  -0.00131  -0.00648  -2.15448
   D39       -0.03144  -0.00000  -0.00466  -0.00117  -0.00583  -0.03726
   D40        2.07809  -0.00002  -0.00529  -0.00132  -0.00660   2.07148
   D41        0.99513  -0.00001  -0.00495  -0.00134  -0.00630   0.98884
   D42        3.11170  -0.00000  -0.00444  -0.00120  -0.00565   3.10605
   D43       -1.06196  -0.00002  -0.00507  -0.00135  -0.00642  -1.06838
         Item               Value     Threshold  Converged?
 Maximum Force            0.000061     0.000450     YES
 RMS     Force            0.000011     0.000300     YES
 Maximum Displacement     0.020827     0.001800     NO 
 RMS     Displacement     0.004360     0.001200     NO 
 Predicted change in Energy=-2.100300D-07
 Lowest energy point so far.  Saving SCF results.
 GradGradGradGradGradGradGradGradGradGradGradGradGradGradGradGradGradGrad

 Leave Link  103 at Tue Jun  4 00:14:12 2024, MaxMem= 13421772800 cpu:               1.5 elap:               0.1
 (Enter /tmpu/scunam/7/gaussian-2016.03/g1/g16/l202.exe)
                          Input orientation:                          
 ---------------------------------------------------------------------
 Center     Atomic      Atomic             Coordinates (Angstroms)
 Number     Number       Type             X           Y           Z
 ---------------------------------------------------------------------
      1          8           0        2.770043   -0.382372   -1.065770
      2          6           0        0.048374   -0.489777   -0.334322
      3          6           0        1.117349    0.076607    0.603465
      4          6           0       -1.304862   -0.534238    0.312099
      5          6           0       -2.426337    0.091616   -0.055647
      6          6           0        2.523843    0.070182    0.028461
      7          6           0       -3.700166   -0.085020    0.727625
      8          6           0       -2.553266    1.001024   -1.247300
      9          6           0        3.608840    0.666213    0.901871
     10          1           0        0.039516    0.090345   -1.256090
     11          1           0        0.349669   -1.500823   -0.625212
     12          1           0        1.141954   -0.482727    1.546694
     13          1           0        0.872332    1.104765    0.893429
     14          1           0       -1.360764   -1.164978    1.197848
     15          1           0       -4.494545   -0.496183    0.096013
     16          1           0       -4.067663    0.876398    1.101332
     17          1           0       -3.563822   -0.751970    1.579116
     18          1           0       -1.619304    1.137827   -1.787890
     19          1           0       -2.913778    1.987687   -0.939132
     20          1           0       -3.294035    0.608078   -1.951206
     21          1           0        3.640957    0.161419    1.870660
     22          1           0        4.573993    0.576191    0.408384
     23          1           0        3.396272    1.720035    1.099972
 ---------------------------------------------------------------------
                    Distance matrix (angstroms):
                    1          2          3          4          5
     1  O    0.000000
     2  C    2.820289   0.000000
     3  C    2.393408   1.530667   0.000000
     4  C    4.304234   1.500362   2.514981   0.000000
     5  C    5.314826   2.557318   3.604492   1.335903   0.000000
     6  C    1.209447   2.563807   1.519505   3.886483   4.950940
     7  C    6.720735   3.917029   4.821824   2.472234   1.505774
     8  C    5.503122   3.134414   4.213465   2.519379   1.504384
     9  C    2.382168   3.942259   2.577636   5.092483   6.137619
    10  H    2.777672   1.089163   2.149385   2.157932   2.742534
    11  H    2.702449   1.094353   2.141790   2.133146   3.250612
    12  H    3.079888   2.175819   1.096878   2.741128   3.953488
    13  H    3.106661   2.174591   1.096002   2.786476   3.578887
    14  H    4.774935   2.188404   2.834761   1.088810   2.070198
    15  H    7.357780   4.563261   5.663829   3.197221   2.155457
    16  H    7.282517   4.568293   5.269904   3.200914   2.156023
    17  H    6.873854   4.096090   4.853020   2.599161   2.162859
    18  H    4.700939   2.746471   3.786031   2.702708   2.178652
    19  H    6.159467   3.908704   4.720361   3.242575   2.147843
    20  H    6.207901   3.871860   5.125341   3.222460   2.147738
    21  H    3.110759   4.265285   2.825168   5.232034   6.366128
    22  H    2.519169   4.708410   3.498003   5.983582   7.032407
    23  H    3.082648   4.260152   2.853220   5.272869   6.155484
                    6          7          8          9         10
     6  C    0.000000
     7  C    6.265078   0.000000
     8  C    5.317054   2.528873   0.000000
     9  C    1.515031   7.349577   6.534721   0.000000
    10  H    2.796848   4.236873   2.748078   4.210522   0.000000
    11  H    2.760865   4.498425   3.882430   4.201217   1.739545
    12  H    2.126113   4.926984   4.864419   2.796674   3.065841
    13  H    2.132139   4.727665   4.040817   2.771439   2.518544
    14  H    4.240667   2.619201   3.477409   5.304510   3.091671
    15  H    7.041527   1.095001   2.795476   8.225900   4.767589
    16  H    6.726736   1.095005   2.797321   7.681970   4.800441
    17  H    6.335623   1.090159   3.476037   7.342819   4.661752
    18  H    4.648081   3.486138   1.087767   5.898366   2.032661
    19  H    5.846433   2.773554   1.094732   6.905080   3.524530
    20  H    6.168964   2.796688   1.094820   7.469479   3.444386
    21  H    2.156378   7.433663   6.985343   1.092886   4.769905
    22  H    2.145578   8.306673   7.329365   1.087729   4.854689
    23  H    2.152042   7.331869   6.436122   1.093147   4.413019
                   11         12         13         14         15
    11  H    0.000000
    12  H    2.526146   0.000000
    13  H    3.060806   1.737695   0.000000
    14  H    2.522285   2.617396   3.198613   0.000000
    15  H    4.999588   5.820205   5.657056   3.388497   0.000000
    16  H    5.305182   5.402377   4.949639   3.391730   1.754102
    17  H    4.553598   4.713584   4.857684   2.273632   1.769538
    18  H    3.491582   4.622790   3.660439   3.779468   3.806060
    19  H    4.787309   5.360152   4.297959   4.113129   3.120891
    20  H    4.413876   5.753535   5.069247   4.098512   2.617579
    21  H    4.452528   2.600941   3.083856   5.218163   8.352737
    22  H    4.819462   3.767751   3.770537   6.235084   9.137064
    23  H    4.757308   3.183343   2.606049   5.564376   8.257394
                   16         17         18         19         20
    16  H    0.000000
    17  H    1.770230   0.000000
    18  H    3.796105   4.323102   0.000000
    19  H    2.594207   3.777545   1.765874   0.000000
    20  H    3.160457   3.792847   1.764095   1.752772   0.000000
    21  H    7.779839   7.268296   6.481412   7.361707   7.930970
    22  H    8.674590   8.328185   6.595148   7.737883   8.214289
    23  H    7.511461   7.401574   5.816762   6.636740   7.436824
                   21         22         23
    21  H    0.000000
    22  H    1.783491   0.000000
    23  H    1.755880   1.781488   0.000000
 Stoichiometry    C8H14O
 Framework group  C1[X(C8H14O)]
 Deg. of freedom    63
 Full point group                 C1      NOp   1
 RotChk:  IX=0 Diff= 1.18D-03
 Largest Abelian subgroup         C1      NOp   1
 Largest concise Abelian subgroup C1      NOp   1
                         Standard orientation:                         
 ---------------------------------------------------------------------
 Center     Atomic      Atomic             Coordinates (Angstroms)
 Number     Number       Type             X           Y           Z
 ---------------------------------------------------------------------
      1          8           0        2.745774    1.088979   -0.638072
      2          6           0        0.054526    0.245915   -0.616670
      3          6           0        1.157505   -0.547645    0.088060
      4          6           0       -1.272723   -0.450734   -0.552042
      5          6           0       -2.408948   -0.031021    0.011404
      6          6           0        2.540837    0.072469   -0.015601
      7          6           0       -3.651280   -0.880729   -0.032897
      8          6           0       -2.583724    1.284850    0.719294
      9          6           0        3.657281   -0.652238    0.708050
     10          1           0        0.008872    1.247493   -0.191190
     11          1           0        0.346712    0.382893   -1.662362
     12          1           0        1.219672   -1.566468   -0.313532
     13          1           0        0.921481   -0.678818    1.150278
     14          1           0       -1.293053   -1.427352   -1.032990
     15          1           0       -4.468438   -0.353854   -0.536566
     16          1           0       -4.006317   -1.109866    0.977291
     17          1           0       -3.480742   -1.821965   -0.555811
     18          1           0       -1.671575    1.875774    0.764358
     19          1           0       -2.934361    1.124662    1.743907
     20          1           0       -3.350136    1.888004    0.221852
     21          1           0        3.727815   -1.687272    0.364350
     22          1           0        4.602929   -0.142816    0.536605
     23          1           0        3.450089   -0.687451    1.780803
 ---------------------------------------------------------------------
 Rotational constants (GHZ):           4.0689981           0.5825500           0.5556050
 Leave Link  202 at Tue Jun  4 00:14:12 2024, MaxMem= 13421772800 cpu:               2.7 elap:               0.1
 (Enter /tmpu/scunam/7/gaussian-2016.03/g1/g16/l301.exe)
 Standard basis: def2TZVP (5D, 7F)
 Ernie: Thresh=  0.10000D-02 Tol=  0.10000D-05 Strict=F.
 There are   408 symmetry adapted cartesian basis functions of A   symmetry.
 There are   363 symmetry adapted basis functions of A   symmetry.
   363 basis functions,   571 primitive gaussians,   408 cartesian basis functions
    35 alpha electrons       35 beta electrons
       nuclear repulsion energy       428.8908563777 Hartrees.
 IExCor=  402 DFT=T Ex+Corr=B3LYP ExCW=0 ScaHFX=  0.200000
 ScaDFX=  0.800000  0.720000  1.000000  0.810000 ScalE2=  1.000000  1.000000
 IRadAn=      5 IRanWt=     -1 IRanGd=            0 ICorTp=0 IEmpDi=  4
 NAtoms=   23 NActive=   23 NUniq=   23 SFac= 1.00D+00 NAtFMM=   60 NAOKFM=F Big=F
 Integral buffers will be    131072 words long.
 Raffenetti 2 integral format.
 Two-electron integral symmetry is turned on.
 Leave Link  301 at Tue Jun  4 00:14:12 2024, MaxMem= 13421772800 cpu:               2.5 elap:               0.1
 (Enter /tmpu/scunam/7/gaussian-2016.03/g1/g16/l302.exe)
 NPDir=0 NMtPBC=     1 NCelOv=     1 NCel=       1 NClECP=     1 NCelD=      1
         NCelK=      1 NCelE2=     1 NClLst=     1 CellRange=     0.0.
 One-electron integrals computed using PRISM.
 One-electron integral symmetry used in STVInt
   1 Symmetry operations used in ECPInt.
 ECPInt:  NShTT=   12090 NPrTT=   35220 LenC2=   11305 LenP2D=   25533.
 LDataN:  DoStor=T MaxTD1= 6 Len=  172
 NBasis=   363 RedAO= T EigKep=  7.85D-05  NBF=   363
 NBsUse=   363 1.00D-06 EigRej= -1.00D+00 NBFU=   363
 Precomputing XC quadrature grid using
 IXCGrd= 4 IRadAn=           5 IRanWt=          -1 IRanGd=           0 AccXCQ= 0.00D+00.
 Generated NRdTot=       0 NPtTot=           0 NUsed=           0 NTot=          32
 NSgBfM=   405   405   405   405   405 MxSgAt=    23 MxSgA2=    23.
 Leave Link  302 at Tue Jun  4 00:14:13 2024, MaxMem= 13421772800 cpu:              11.7 elap:               0.4
 (Enter /tmpu/scunam/7/gaussian-2016.03/g1/g16/l303.exe)
 DipDrv:  MaxL=1.
 Leave Link  303 at Tue Jun  4 00:14:13 2024, MaxMem= 13421772800 cpu:               4.3 elap:               0.2
 (Enter /tmpu/scunam/7/gaussian-2016.03/g1/g16/l401.exe)
 Initial guess from the checkpoint file:  "S36.chk"
 B after Tr=     0.000000    0.000000    0.000000
         Rot=    1.000000   -0.000073    0.000037    0.000044 Ang=  -0.01 deg.
 Guess basis will be translated and rotated to current coordinates.
 JPrj=2 DoOrth=T DoCkMO=T.
 Generating alternative initial guess.
 ExpMin= 9.52D-02 ExpMax= 2.70D+04 ExpMxC= 9.22D+02 IAcc=2 IRadAn=         4 AccDes= 0.00D+00
 Harris functional with IExCor=  402 and IRadAn=       4 diagonalized for initial guess.
 HarFok:  IExCor=  402 AccDes= 0.00D+00 IRadAn=         4 IDoV= 1 UseB2=F ITyADJ=14
 ICtDFT=  3500011 ScaDFX=  1.000000  1.000000  1.000000  1.000000
 FoFCou: FMM=F IPFlag=           0 FMFlag=      100000 FMFlg1=           0
         NFxFlg=           0 DoJE=T BraDBF=F KetDBF=T FulRan=T
         wScrn=  0.000000 ICntrl=       500 IOpCl=  0 I1Cent=   200000004 NGrid=           0
         NMat0=    1 NMatS0=      1 NMatT0=    0 NMatD0=    1 NMtDS0=    0 NMtDT0=    0
 Petite list used in FoFCou.
 Harris En= -388.761709335354    
 Leave Link  401 at Tue Jun  4 00:14:14 2024, MaxMem= 13421772800 cpu:              28.3 elap:               0.9
 (Enter /tmpu/scunam/7/gaussian-2016.03/g1/g16/l502.exe)
 Integral symmetry usage will be decided dynamically.
 Closed shell SCF:
 Using DIIS extrapolation, IDIIS=  1040.
 NGot= 13421772800 LenX= 13421422965 LenY= 13421256060
 Requested convergence on RMS density matrix=1.00D-08 within 128 cycles.
 Requested convergence on MAX density matrix=1.00D-06.
 Requested convergence on             energy=1.00D-06.
 No special actions if energy rises.
 Fock matrices will be formed incrementally for  20 cycles.
 Integral accuracy reduced to 1.0D-05 until final iterations.

 Cycle   1  Pass 0  IDiag  1:
 FoFJK:  IHMeth= 1 ICntrl=       0 DoSepK=F KAlg= 0 I1Cent=           0 FoldK=F
 IRaf= 890000000 NMat=       1 IRICut=       1 DoRegI=T DoRafI=F ISym2E= 0 IDoP0=0 IntGTp=1.
 FoFCou: FMM=F IPFlag=           0 FMFlag=      100000 FMFlg1=           0
         NFxFlg=           0 DoJE=F BraDBF=F KetDBF=F FulRan=T
         wScrn=  0.000000 ICntrl=         0 IOpCl=  0 I1Cent=           0 NGrid=           0
         NMat0=    1 NMatS0=      1 NMatT0=    0 NMatD0=    1 NMtDS0=    0 NMtDT0=    0
 Symmetry not used in FoFCou.
 E= -388.651198121225    
 DIIS: error= 2.76D-04 at cycle   1 NSaved=   1.
 NSaved= 1 IEnMin= 1 EnMin= -388.651198121225     IErMin= 1 ErrMin= 2.76D-04
 ErrMax= 2.76D-04  0.00D+00 EMaxC= 1.00D-01 BMatC= 3.06D-05 BMatP= 3.06D-05
 IDIUse=3 WtCom= 9.97D-01 WtEn= 2.76D-03
 Coeff-Com:  0.100D+01
 Coeff-En:   0.100D+01
 Coeff:      0.100D+01
 Gap=     0.607 Goal=   None    Shift=    0.000
 RMSDP=9.97D-05 MaxDP=4.54D-03              OVMax= 1.57D-03

 Cycle   2  Pass 0  IDiag  1:
 RMSU=  9.97D-05    CP:  1.00D+00
 E= -388.651238351602     Delta-E=       -0.000040230377 Rises=F Damp=F
 DIIS: error= 2.17D-05 at cycle   2 NSaved=   2.
 NSaved= 2 IEnMin= 2 EnMin= -388.651238351602     IErMin= 2 ErrMin= 2.17D-05
 ErrMax= 2.17D-05  0.00D+00 EMaxC= 1.00D-01 BMatC= 3.09D-07 BMatP= 3.06D-05
 IDIUse=1 WtCom= 1.00D+00 WtEn= 0.00D+00
 Coeff-Com: -0.582D-01 0.106D+01
 Coeff:     -0.582D-01 0.106D+01
 Gap=     0.216 Goal=   None    Shift=    0.000
 RMSDP=5.09D-06 MaxDP=1.41D-04 DE=-4.02D-05 OVMax= 2.14D-04

 Initial convergence to 1.0D-05 achieved.  Increase integral accuracy.
 Cycle   3  Pass 1  IDiag  1:
 E= -388.651230683835     Delta-E=        0.000007667767 Rises=F Damp=F
 DIIS: error= 9.67D-05 at cycle   1 NSaved=   1.
 NSaved= 1 IEnMin= 1 EnMin= -388.651230683835     IErMin= 1 ErrMin= 9.67D-05
 ErrMax= 9.67D-05  0.00D+00 EMaxC= 1.00D-01 BMatC= 2.13D-06 BMatP= 2.13D-06
 IDIUse=1 WtCom= 1.00D+00 WtEn= 0.00D+00
 Coeff-Com:  0.100D+01
 Coeff:      0.100D+01
 Gap=     0.216 Goal=   None    Shift=    0.000
 RMSDP=5.09D-06 MaxDP=1.41D-04 DE= 7.67D-06 OVMax= 2.52D-04

 Cycle   4  Pass 1  IDiag  1:
 RMSU=  9.90D-05    CP:  1.00D+00
 E= -388.651231747959     Delta-E=       -0.000001064124 Rises=F Damp=F
 DIIS: error= 1.64D-05 at cycle   2 NSaved=   2.
 NSaved= 2 IEnMin= 2 EnMin= -388.651231747959     IErMin= 2 ErrMin= 1.64D-05
 ErrMax= 1.64D-05  0.00D+00 EMaxC= 1.00D-01 BMatC= 1.34D-07 BMatP= 2.13D-06
 IDIUse=1 WtCom= 1.00D+00 WtEn= 0.00D+00
 Coeff-Com:  0.829D-01 0.917D+00
 Coeff:      0.829D-01 0.917D+00
 Gap=     0.216 Goal=   None    Shift=    0.000
 RMSDP=3.47D-06 MaxDP=3.17D-04 DE=-1.06D-06 OVMax= 2.66D-04

 Cycle   5  Pass 1  IDiag  1:
 RMSU=  3.07D-06    CP:  1.00D+00  1.02D+00
 E= -388.651231515502     Delta-E=        0.000000232457 Rises=F Damp=F
 DIIS: error= 3.34D-05 at cycle   3 NSaved=   3.
 NSaved= 3 IEnMin= 2 EnMin= -388.651231747959     IErMin= 2 ErrMin= 1.64D-05
 ErrMax= 3.34D-05  0.00D+00 EMaxC= 1.00D-01 BMatC= 4.36D-07 BMatP= 1.34D-07
 IDIUse=1 WtCom= 1.00D+00 WtEn= 0.00D+00
 Coeff-Com:  0.160D-02 0.645D+00 0.354D+00
 Coeff:      0.160D-02 0.645D+00 0.354D+00
 Gap=     0.216 Goal=   None    Shift=    0.000
 RMSDP=2.00D-06 MaxDP=2.18D-04 DE= 2.32D-07 OVMax= 1.66D-04

 Cycle   6  Pass 1  IDiag  1:
 RMSU=  6.31D-07    CP:  1.00D+00  1.02D+00  3.97D-01
 E= -388.651231858316     Delta-E=       -0.000000342814 Rises=F Damp=F
 DIIS: error= 3.08D-06 at cycle   4 NSaved=   4.
 NSaved= 4 IEnMin= 4 EnMin= -388.651231858316     IErMin= 4 ErrMin= 3.08D-06
 ErrMax= 3.08D-06  0.00D+00 EMaxC= 1.00D-01 BMatC= 3.47D-09 BMatP= 1.34D-07
 IDIUse=1 WtCom= 1.00D+00 WtEn= 0.00D+00
 Coeff-Com: -0.145D-02 0.307D+00 0.182D+00 0.512D+00
 Coeff:     -0.145D-02 0.307D+00 0.182D+00 0.512D+00
 Gap=     0.216 Goal=   None    Shift=    0.000
 RMSDP=2.23D-07 MaxDP=1.09D-05 DE=-3.43D-07 OVMax= 1.58D-05

 Cycle   7  Pass 1  IDiag  1:
 RMSU=  1.79D-07    CP:  1.00D+00  1.02D+00  4.04D-01  7.94D-01
 E= -388.651231861294     Delta-E=       -0.000000002978 Rises=F Damp=F
 DIIS: error= 8.67D-07 at cycle   5 NSaved=   5.
 NSaved= 5 IEnMin= 5 EnMin= -388.651231861294     IErMin= 5 ErrMin= 8.67D-07
 ErrMax= 8.67D-07  0.00D+00 EMaxC= 1.00D-01 BMatC= 3.56D-10 BMatP= 3.47D-09
 IDIUse=1 WtCom= 1.00D+00 WtEn= 0.00D+00
 Coeff-Com: -0.970D-03 0.159D+00 0.955D-01 0.316D+00 0.430D+00
 Coeff:     -0.970D-03 0.159D+00 0.955D-01 0.316D+00 0.430D+00
 Gap=     0.216 Goal=   None    Shift=    0.000
 RMSDP=5.05D-08 MaxDP=3.68D-06 DE=-2.98D-09 OVMax= 9.08D-06

 Cycle   8  Pass 1  IDiag  1:
 RMSU=  4.11D-08    CP:  1.00D+00  1.02D+00  3.99D-01  8.24D-01  9.32D-01
 E= -388.651231861606     Delta-E=       -0.000000000312 Rises=F Damp=F
 DIIS: error= 2.07D-07 at cycle   6 NSaved=   6.
 NSaved= 6 IEnMin= 6 EnMin= -388.651231861606     IErMin= 6 ErrMin= 2.07D-07
 ErrMax= 2.07D-07  0.00D+00 EMaxC= 1.00D-01 BMatC= 1.91D-11 BMatP= 3.56D-10
 IDIUse=1 WtCom= 1.00D+00 WtEn= 0.00D+00
 Coeff-Com: -0.365D-03 0.531D-01 0.322D-01 0.117D+00 0.236D+00 0.562D+00
 Coeff:     -0.365D-03 0.531D-01 0.322D-01 0.117D+00 0.236D+00 0.562D+00
 Gap=     0.216 Goal=   None    Shift=    0.000
 RMSDP=1.44D-08 MaxDP=5.13D-07 DE=-3.12D-10 OVMax= 1.64D-06

 Cycle   9  Pass 1  IDiag  1:
 RMSU=  9.71D-09    CP:  1.00D+00  1.02D+00  4.01D-01  8.31D-01  9.35D-01
                    CP:  8.33D-01
 E= -388.651231861618     Delta-E=       -0.000000000013 Rises=F Damp=F
 DIIS: error= 2.79D-08 at cycle   7 NSaved=   7.
 NSaved= 7 IEnMin= 7 EnMin= -388.651231861618     IErMin= 7 ErrMin= 2.79D-08
 ErrMax= 2.79D-08  0.00D+00 EMaxC= 1.00D-01 BMatC= 6.13D-13 BMatP= 1.91D-11
 IDIUse=1 WtCom= 1.00D+00 WtEn= 0.00D+00
 Coeff-Com: -0.523D-04 0.606D-02 0.377D-02 0.177D-01 0.540D-01 0.205D+00
 Coeff-Com:  0.713D+00
 Coeff:     -0.523D-04 0.606D-02 0.377D-02 0.177D-01 0.540D-01 0.205D+00
 Coeff:      0.713D+00
 Gap=     0.216 Goal=   None    Shift=    0.000
 RMSDP=4.77D-09 MaxDP=2.91D-07 DE=-1.27D-11 OVMax= 1.88D-07

 SCF Done:  E(RB3LYP) =  -388.651231862     A.U. after    9 cycles
            NFock=  9  Conv=0.48D-08     -V/T= 2.0053
 KE= 3.865950059216D+02 PE=-1.761056642506D+03 EE= 5.569195483456D+02
 Leave Link  502 at Tue Jun  4 00:14:37 2024, MaxMem= 13421772800 cpu:             737.7 elap:              23.1
 (Enter /tmpu/scunam/7/gaussian-2016.03/g1/g16/l508.exe)
 QCSCF skips out because SCF is already converged.
 Leave Link  508 at Tue Jun  4 00:14:37 2024, MaxMem= 13421772800 cpu:               0.1 elap:               0.0
 (Enter /tmpu/scunam/7/gaussian-2016.03/g1/g16/l701.exe)
 ... and contract with generalized density number  0.
 Compute integral first derivatives.
   1 Symmetry operations used in ECPInt.
 ECPInt:  NShTT=   12090 NPrTT=   35220 LenC2=   11305 LenP2D=   25533.
 LDataN:  DoStor=T MaxTD1= 7 Len=  274
 Leave Link  701 at Tue Jun  4 00:14:37 2024, MaxMem= 13421772800 cpu:              10.9 elap:               0.4
 (Enter /tmpu/scunam/7/gaussian-2016.03/g1/g16/l702.exe)
 L702 exits ... SP integral derivatives will be done elsewhere.
 Leave Link  702 at Tue Jun  4 00:14:37 2024, MaxMem= 13421772800 cpu:               1.6 elap:               0.1
 (Enter /tmpu/scunam/7/gaussian-2016.03/g1/g16/l703.exe)
 Integral derivatives from FoFJK, PRISM(SPDF).
 Compute integral first derivatives, UseDBF=F ICtDFT=           0.
 Calling FoFJK, ICntrl=      2127 FMM=F ISym2X=0 I1Cent= 0 IOpClX= 0 NMat=1 NMatS=1 NMatT=0.
 FoFJK:  IHMeth= 1 ICntrl=    2127 DoSepK=F KAlg= 0 I1Cent=           0 FoldK=F
 IRaf=         0 NMat=       1 IRICut=       1 DoRegI=T DoRafI=F ISym2E= 0 IDoP0=0 IntGTp=1.
 FoFCou: FMM=F IPFlag=           0 FMFlag=      100000 FMFlg1=         800
         NFxFlg=           0 DoJE=F BraDBF=F KetDBF=F FulRan=T
         wScrn=  0.000000 ICntrl=      2127 IOpCl=  0 I1Cent=           0 NGrid=           0
         NMat0=    1 NMatS0=      1 NMatT0=    0 NMatD0=    1 NMtDS0=    0 NMtDT0=    0
 Symmetry not used in FoFCou.
 Leave Link  703 at Tue Jun  4 00:14:48 2024, MaxMem= 13421772800 cpu:             330.4 elap:              10.4
 (Enter /tmpu/scunam/7/gaussian-2016.03/g1/g16/l716.exe)
 Dipole        =-2.89580880D-01-8.40699406D-01 6.10698165D-01
 ***** Axes restored to original set *****
 -------------------------------------------------------------------
 Center     Atomic                   Forces (Hartrees/Bohr)
 Number     Number              X              Y              Z
 -------------------------------------------------------------------
      1        8           0.000002219    0.000004504   -0.000005112
      2        6           0.000050994   -0.000012811   -0.000049354
      3        6          -0.000021585    0.000008189    0.000016753
      4        6          -0.000038941    0.000001479    0.000057914
      5        6           0.000013442   -0.000000575    0.000006170
      6        6           0.000029473    0.000017943   -0.000003621
      7        6          -0.000031927    0.000001197   -0.000009563
      8        6          -0.000011987    0.000006616   -0.000012839
      9        6          -0.000020526   -0.000038072    0.000008084
     10        1          -0.000001276   -0.000003436    0.000015243
     11        1          -0.000002097    0.000011879    0.000009753
     12        1           0.000001465   -0.000010823   -0.000009398
     13        1          -0.000003747   -0.000011966    0.000002021
     14        1          -0.000003414    0.000000539   -0.000010076
     15        1           0.000007029   -0.000001558    0.000001481
     16        1           0.000004834   -0.000002461   -0.000003852
     17        1           0.000005282   -0.000001620    0.000001838
     18        1          -0.000010671   -0.000006116   -0.000008911
     19        1           0.000011583    0.000000496    0.000006102
     20        1          -0.000004608    0.000011857    0.000001483
     21        1           0.000001965    0.000018397    0.000003021
     22        1           0.000012054    0.000000852   -0.000000526
     23        1           0.000010439    0.000005490   -0.000016611
 -------------------------------------------------------------------
 Cartesian Forces:  Max     0.000057914 RMS     0.000016304
 Leave Link  716 at Tue Jun  4 00:14:48 2024, MaxMem= 13421772800 cpu:               0.7 elap:               0.0
 (Enter /tmpu/scunam/7/gaussian-2016.03/g1/g16/l103.exe)

 GradGradGradGradGradGradGradGradGradGradGradGradGradGradGradGradGradGrad
 Berny optimization.
 Using GEDIIS/GDIIS optimizer.
 FormGI is forming the generalized inverse of G from B-inverse, IUseBI=4.
 Internal  Forces:  Max     0.000064610 RMS     0.000011015
 Search for a local minimum.
 Step number  13 out of a maximum of  138
 All quantities printed in internal units (Hartrees-Bohrs-Radians)
 RMS Force = .11015D-04 SwitMx=.10000D-02 MixMth= 2
 Mixed Optimization -- En-DIIS/RFO-DIIS
 Swapping is turned off.
 Update second derivatives using D2CorX and points    4    5    6    7    8
                                                      9   10   11   12   13
 DE= -3.93D-07 DEPred=-2.10D-07 R= 1.87D+00
 Trust test= 1.87D+00 RLast= 2.17D-02 DXMaxT set to 6.57D-01
 ITU=  0  0  0  0  1  1  1  1  1 -1  1  1  0
     Eigenvalues ---    0.00034   0.00126   0.00191   0.00550   0.00650
     Eigenvalues ---    0.00888   0.01385   0.01726   0.02902   0.02927
     Eigenvalues ---    0.03960   0.04217   0.04893   0.05549   0.06907
     Eigenvalues ---    0.06939   0.07041   0.07163   0.07290   0.07386
     Eigenvalues ---    0.09295   0.09847   0.12835   0.13288   0.15843
     Eigenvalues ---    0.15976   0.15997   0.16002   0.16019   0.16091
     Eigenvalues ---    0.16107   0.16235   0.16323   0.16571   0.21739
     Eigenvalues ---    0.22533   0.22815   0.24990   0.25368   0.25508
     Eigenvalues ---    0.29776   0.30142   0.30912   0.31371   0.31915
     Eigenvalues ---    0.32947   0.33858   0.33970   0.34119   0.34151
     Eigenvalues ---    0.34231   0.34245   0.34269   0.34273   0.34320
     Eigenvalues ---    0.34468   0.34511   0.34563   0.34879   0.35746
     Eigenvalues ---    0.40284   0.61208   0.89867
 En-DIIS/RFO-DIIS/Sim-DIIS IScMMF=       -3 using points:    13   12   11   10    9    8    7    6    5    4
 RFO step:  Lambda=-7.67133793D-07.
 NNeg= 0 NGDIIS=10 SimSw=  2.50D-01 Rises=F DC= -3.93D-07 SmlDif=  1.00D-05
 NRisDI= 0 DoIntr=F SqrtH=F CThrHd= 10.0 CDAdj=  3.0
 RMS Error=  0.3945208292D-02 NUsed=10 OKEnD=F EnDIS=F
 InvSVX:  RCond= 7.52D-10 Info=           0 Equed=N FErr=  5.95D-09 BErr=  6.87D-17
 DIIS inversion failure, remove point  10.
 InvSVX:  RCond= 1.11D-09 Info=           0 Equed=N FErr=  3.17D-09 BErr=  2.34D-17
 DIIS inversion failure, remove point   9.
 InvSVX:  RCond= 1.53D-09 Info=           0 Equed=N FErr=  3.02D-09 BErr=  3.63D-17
 DIIS inversion failure, remove point   8.
 InvSVX:  RCond= 1.85D-09 Info=           0 Equed=N FErr=  1.17D-09 BErr=  4.06D-17
 DIIS inversion failure, remove point   7.
 InvSVX:  RCond= 2.76D-09 Info=           0 Equed=N FErr=  8.11D-10 BErr=  6.51D-17
 DIIS inversion failure, remove point   6.
 InvSVX:  RCond= 3.45D-09 Info=           0 Equed=N FErr=  6.83D-10 BErr=  2.88D-17
 DIIS inversion failure, remove point   5.
 InvSVX:  RCond= 6.14D-07 Info=           0 Equed=N FErr=  1.49D-12 BErr=  3.93D-17
 RFO-DIIS uses    4 points instead of   10
 DidBck=F Rises=F RFO-DIIS coefs:    2.56528   -1.44578   -0.02155   -0.09795    0.00000
                  RFO-DIIS coefs:    0.00000    0.00000    0.00000    0.00000    0.00000
 Iteration  1 RMS(Cart)=  0.00740229 RMS(Int)=  0.00005435
 Iteration  2 RMS(Cart)=  0.00005800 RMS(Int)=  0.00000015
 Iteration  3 RMS(Cart)=  0.00000000 RMS(Int)=  0.00000015
 ITry= 1 IFail=0 DXMaxC= 3.71D-02 DCOld= 1.00D+10 DXMaxT= 6.57D-01 DXLimC= 3.00D+00 Rises=F
 Variable       Old X    -DE/DX   Delta X   Delta X   Delta X     New X
                                 (Linear)    (Quad)   (Total)
    R1        2.28552   0.00000   0.00003   0.00002   0.00004   2.28556
    R2        2.89254   0.00001   0.00007  -0.00002   0.00005   2.89260
    R3        2.83527   0.00006  -0.00007   0.00009   0.00002   2.83529
    R4        2.05822  -0.00001   0.00013  -0.00002   0.00011   2.05833
    R5        2.06803  -0.00001  -0.00007  -0.00001  -0.00008   2.06795
    R6        2.87145   0.00004  -0.00005   0.00004  -0.00001   2.87144
    R7        2.07280  -0.00000   0.00003  -0.00000   0.00002   2.07282
    R8        2.07114  -0.00001  -0.00005  -0.00002  -0.00006   2.07108
    R9        2.52449   0.00002  -0.00006   0.00000  -0.00006   2.52444
   R10        2.05755  -0.00001   0.00003  -0.00001   0.00001   2.05757
   R11        2.84550   0.00001  -0.00005   0.00004  -0.00002   2.84548
   R12        2.84287   0.00002   0.00001   0.00000   0.00001   2.84288
   R13        2.86299  -0.00000   0.00003  -0.00003  -0.00000   2.86299
   R14        2.06925  -0.00000  -0.00003   0.00000  -0.00003   2.06923
   R15        2.06926  -0.00001   0.00002  -0.00001   0.00001   2.06927
   R16        2.06010   0.00000   0.00001   0.00000   0.00001   2.06011
   R17        2.05558  -0.00001   0.00006  -0.00001   0.00006   2.05564
   R18        2.06874  -0.00000  -0.00004   0.00001  -0.00003   2.06872
   R19        2.06891  -0.00000   0.00001  -0.00001  -0.00000   2.06891
   R20        2.06526  -0.00001  -0.00010  -0.00000  -0.00011   2.06515
   R21        2.05551   0.00001   0.00002   0.00001   0.00003   2.05554
   R22        2.06575   0.00000   0.00007   0.00001   0.00008   2.06583
    A1        1.95723   0.00001  -0.00004   0.00000  -0.00004   1.95720
    A2        1.90403  -0.00000   0.00017  -0.00003   0.00014   1.90416
    A3        1.88855  -0.00001  -0.00007   0.00002  -0.00005   1.88850
    A4        1.95312  -0.00001  -0.00018  -0.00003  -0.00022   1.95290
    A5        1.91290  -0.00000   0.00021  -0.00001   0.00020   1.91309
    A6        1.84353   0.00001  -0.00009   0.00006  -0.00002   1.84351
    A7        1.99657   0.00000   0.00008  -0.00002   0.00005   1.99662
    A8        1.93245  -0.00000  -0.00033  -0.00001  -0.00034   1.93211
    A9        1.93166  -0.00001   0.00019   0.00003   0.00021   1.93188
   A10        1.87810  -0.00000  -0.00035  -0.00009  -0.00045   1.87765
   A11        1.88705   0.00000   0.00035   0.00005   0.00040   1.88745
   A12        1.82955   0.00000   0.00007   0.00006   0.00013   1.82968
   A13        2.24552  -0.00000   0.00008  -0.00004   0.00004   2.24556
   A14        1.99760   0.00000  -0.00014   0.00004  -0.00011   1.99750
   A15        2.04006  -0.00000   0.00007  -0.00000   0.00007   2.04013
   A16        2.10834   0.00000   0.00012  -0.00001   0.00011   2.10845
   A17        2.17984   0.00002  -0.00029   0.00008  -0.00021   2.17964
   A18        1.99498  -0.00002   0.00017  -0.00007   0.00010   1.99508
   A19        2.13220  -0.00000   0.00003  -0.00002   0.00001   2.13221
   A20        2.12117  -0.00001  -0.00000  -0.00001  -0.00001   2.12116
   A21        2.02982   0.00002  -0.00003   0.00003  -0.00000   2.02982
   A22        1.93661  -0.00000   0.00009  -0.00002   0.00007   1.93669
   A23        1.93740  -0.00000  -0.00008  -0.00000  -0.00008   1.93732
   A24        1.95224  -0.00001   0.00001  -0.00001  -0.00000   1.95224
   A25        1.85779   0.00001   0.00003   0.00003   0.00006   1.85785
   A26        1.88761   0.00000   0.00001  -0.00000   0.00000   1.88762
   A27        1.88869   0.00000  -0.00005   0.00000  -0.00005   1.88864
   A28        1.97931   0.00001  -0.00015   0.00005  -0.00010   1.97921
   A29        1.92798  -0.00001   0.00009  -0.00004   0.00005   1.92802
   A30        1.92774   0.00001   0.00007  -0.00003   0.00005   1.92778
   A31        1.88525  -0.00000  -0.00005   0.00001  -0.00004   1.88521
   A32        1.88237  -0.00001  -0.00006  -0.00000  -0.00006   1.88231
   A33        1.85631  -0.00000   0.00011   0.00001   0.00012   1.85643
   A34        1.92876   0.00002   0.00084   0.00011   0.00095   1.92971
   A35        1.91914   0.00000  -0.00003   0.00001  -0.00001   1.91913
   A36        1.92247  -0.00001  -0.00091  -0.00008  -0.00099   1.92148
   A37        1.91545  -0.00001   0.00049   0.00003   0.00052   1.91596
   A38        1.86539  -0.00000   0.00017   0.00000   0.00018   1.86556
   A39        1.91192  -0.00001  -0.00057  -0.00008  -0.00065   1.91127
    D1        3.08286   0.00000  -0.00533   0.00083  -0.00450   3.07836
    D2        0.95738   0.00000  -0.00466   0.00098  -0.00368   0.95369
    D3       -1.06365   0.00001  -0.00466   0.00090  -0.00376  -1.06741
    D4       -1.02659  -0.00000  -0.00547   0.00077  -0.00470  -1.03129
    D5        3.13111   0.00000  -0.00480   0.00092  -0.00389   3.12722
    D6        1.11009   0.00000  -0.00480   0.00084  -0.00396   1.10612
    D7        0.97095  -0.00000  -0.00552   0.00083  -0.00469   0.96626
    D8       -1.15453   0.00000  -0.00486   0.00098  -0.00387  -1.15840
    D9        3.10763   0.00000  -0.00485   0.00090  -0.00395   3.10368
   D10        2.06981   0.00000  -0.00087   0.00053  -0.00034   2.06947
   D11       -1.07082  -0.00000  -0.00090   0.00043  -0.00046  -1.07129
   D12       -0.07646   0.00000  -0.00092   0.00059  -0.00033  -0.07679
   D13        3.06609  -0.00000  -0.00095   0.00049  -0.00046   3.06563
   D14       -2.11557   0.00000  -0.00083   0.00054  -0.00029  -2.11586
   D15        1.02699  -0.00000  -0.00087   0.00044  -0.00042   1.02656
   D16       -0.03440  -0.00001  -0.00585  -0.00076  -0.00661  -0.04101
   D17        3.10546  -0.00000  -0.00617  -0.00067  -0.00683   3.09863
   D18        2.12059  -0.00001  -0.00649  -0.00086  -0.00735   2.11324
   D19       -1.02273  -0.00001  -0.00681  -0.00077  -0.00758  -1.03031
   D20       -2.19517  -0.00000  -0.00641  -0.00082  -0.00723  -2.20240
   D21        0.94469  -0.00000  -0.00673  -0.00072  -0.00746   0.93724
   D22        3.13762  -0.00000   0.00024  -0.00013   0.00010   3.13772
   D23        0.00316  -0.00000   0.00029  -0.00016   0.00013   0.00329
   D24       -0.00495   0.00000   0.00027  -0.00004   0.00023  -0.00472
   D25       -3.13941   0.00000   0.00033  -0.00006   0.00026  -3.13915
   D26       -2.10546   0.00000  -0.00337   0.00063  -0.00274  -2.10820
   D27        2.11562   0.00000  -0.00341   0.00060  -0.00281   2.11281
   D28        0.00412   0.00000  -0.00329   0.00060  -0.00269   0.00143
   D29        1.02971   0.00000  -0.00342   0.00065  -0.00277   1.02695
   D30       -1.03239   0.00000  -0.00346   0.00063  -0.00284  -1.03523
   D31        3.13929   0.00000  -0.00334   0.00063  -0.00271   3.13658
   D32       -0.03176   0.00001  -0.00572   0.00174  -0.00398  -0.03574
   D33       -2.15090   0.00001  -0.00561   0.00172  -0.00389  -2.15479
   D34        2.08348   0.00001  -0.00585   0.00175  -0.00410   2.07938
   D35        3.11656   0.00001  -0.00566   0.00171  -0.00395   3.11260
   D36        0.99741   0.00001  -0.00556   0.00169  -0.00386   0.99355
   D37       -1.05139   0.00001  -0.00579   0.00172  -0.00407  -1.05546
   D38       -2.15448  -0.00001  -0.01109  -0.00119  -0.01228  -2.16676
   D39       -0.03726  -0.00000  -0.00995  -0.00107  -0.01102  -0.04829
   D40        2.07148  -0.00002  -0.01126  -0.00121  -0.01247   2.05901
   D41        0.98884  -0.00001  -0.01077  -0.00128  -0.01206   0.97678
   D42        3.10605  -0.00000  -0.00964  -0.00116  -0.01080   3.09525
   D43       -1.06838  -0.00002  -0.01094  -0.00130  -0.01225  -1.08063
         Item               Value     Threshold  Converged?
 Maximum Force            0.000065     0.000450     YES
 RMS     Force            0.000011     0.000300     YES
 Maximum Displacement     0.037089     0.001800     NO 
 RMS     Displacement     0.007403     0.001200     NO 
 Predicted change in Energy=-3.766275D-07
 Lowest energy point so far.  Saving SCF results.
 GradGradGradGradGradGradGradGradGradGradGradGradGradGradGradGradGradGrad

 Leave Link  103 at Tue Jun  4 00:14:48 2024, MaxMem= 13421772800 cpu:               5.7 elap:               0.2
 (Enter /tmpu/scunam/7/gaussian-2016.03/g1/g16/l202.exe)
                          Input orientation:                          
 ---------------------------------------------------------------------
 Center     Atomic      Atomic             Coordinates (Angstroms)
 Number     Number       Type             X           Y           Z
 ---------------------------------------------------------------------
      1          8           0        2.772680   -0.394755   -1.060354
      2          6           0        0.048410   -0.488798   -0.335917
      3          6           0        1.117330    0.075834    0.603035
      4          6           0       -1.304733   -0.535088    0.310592
      5          6           0       -2.426354    0.091492   -0.055363
      6          6           0        2.524721    0.065465    0.030301
      7          6           0       -3.700052   -0.087138    0.727653
      8          6           0       -2.553387    1.003724   -1.244852
      9          6           0        3.608258    0.667965    0.901077
     10          1           0        0.039030    0.093447   -1.256410
     11          1           0        0.350117   -1.498985   -0.629197
     12          1           0        1.139378   -0.483445    1.546374
     13          1           0        0.874203    1.104575    0.892393
     14          1           0       -1.360335   -1.168198    1.194676
     15          1           0       -4.495316   -0.494228    0.094539
     16          1           0       -4.065975    0.873031    1.106104
     17          1           0       -3.564200   -0.758258    1.575946
     18          1           0       -1.618529    1.144879   -1.782827
     19          1           0       -2.917645    1.988434   -0.934904
     20          1           0       -3.291170    0.610326   -1.951635
     21          1           0        3.631616    0.179058    1.878164
     22          1           0        4.575694    0.564741    0.414662
     23          1           0        3.400860    1.726222    1.080346
 ---------------------------------------------------------------------
                    Distance matrix (angstroms):
                    1          2          3          4          5
     1  O    0.000000
     2  C    2.820514   0.000000
     3  C    2.393429   1.530696   0.000000
     4  C    4.304008   1.500371   2.514983   0.000000
     5  C    5.317556   2.557324   3.604363   1.335874   0.000000
     6  C    1.209469   2.563871   1.519500   3.886380   4.951885
     7  C    6.722192   3.917076   4.821749   2.472277   1.505765
     8  C    5.509698   3.134188   4.213055   2.519222   1.504389
     9  C    2.382179   3.942179   2.577629   5.092494   6.137071
    10  H    2.783814   1.089222   2.149553   2.157835   2.742378
    11  H    2.697041   1.094312   2.141744   2.133268   3.250799
    12  H    3.077429   2.175605   1.096889   2.739252   3.951020
    13  H    3.108927   2.174745   1.095969   2.788324   3.580259
    14  H    4.771288   2.188347   2.834868   1.088818   2.070221
    15  H    7.359853   4.564074   5.664391   3.198150   2.155491
    16  H    7.284780   4.567513   5.268325   3.200015   2.155961
    17  H    6.873010   4.096192   4.853761   2.599253   2.162854
    18  H    4.709051   2.746113   3.784194   2.702436   2.178609
    19  H    6.170504   3.910620   4.722745   3.243595   2.147870
    20  H    6.210865   3.869291   5.123172   3.221114   2.147776
    21  H    3.114791   4.264686   2.821035   5.228272   6.359654
    22  H    2.519358   4.708462   3.497827   5.983300   7.033745
    23  H    3.078271   4.260403   2.857641   5.277182   6.157808
                    6          7          8          9         10
     6  C    0.000000
     7  C    6.265572   0.000000
     8  C    5.319166   2.528951   0.000000
     9  C    1.515028   7.349263   6.533270   0.000000
    10  H    2.799119   4.236727   2.747610   4.210013   0.000000
    11  H    2.758866   4.498692   3.882386   4.201535   1.739544
    12  H    2.125783   4.924170   4.862008   2.799558   3.065806
    13  H    2.132408   4.729813   4.040589   2.768712   2.517390
    14  H    4.239263   2.619366   3.477343   5.305150   3.091568
    15  H    7.042606   1.094988   2.794444   8.226123   4.767674
    16  H    6.726573   1.095011   2.798571   7.679710   4.800030
    17  H    6.335811   1.090165   3.476093   7.343959   4.661643
    18  H    4.649634   3.486132   1.087796   5.894921   2.032271
    19  H    5.852245   2.772049   1.094717   6.906654   3.526509
    20  H    6.168430   2.798610   1.094819   7.466150   3.441037
    21  H    2.157016   7.426163   6.977647   1.092829   4.768601
    22  H    2.145577   8.307279   7.332836   1.087744   4.857564
    23  H    2.151355   7.337276   6.432853   1.093188   4.407752
                   11         12         13         14         15
    11  H    0.000000
    12  H    2.527323   0.000000
    13  H    3.060789   1.737762   0.000000
    14  H    2.522218   2.615558   3.201567   0.000000
    15  H    5.001155   5.818738   5.659017   3.390080   0.000000
    16  H    5.304678   5.397181   4.950216   3.390420   1.754137
    17  H    4.553374   4.711692   4.861771   2.273860   1.769535
    18  H    3.492342   4.619640   3.656794   3.779222   3.806189
    19  H    4.788927   5.359698   4.300968   4.113958   3.116474
    20  H    4.411010   5.749970   5.067851   4.097626   2.618555
    21  H    4.457681   2.600047   3.071100   5.215537   8.347553
    22  H    4.817064   3.766661   3.771033   6.232812   9.138223
    23  H    4.757261   3.195952   2.608786   5.573124   8.261465
                   16         17         18         19         20
    16  H    0.000000
    17  H    1.770207   0.000000
    18  H    3.796027   4.323069   0.000000
    19  H    2.593936   3.777131   1.765859   0.000000
    20  H    3.165297   3.793599   1.764078   1.752839   0.000000
    21  H    7.767276   7.262897   6.472997   7.353911   7.923277
    22  H    8.674767   8.328072   6.598024   7.745861   8.215169
    23  H    7.515465   7.411499   5.807752   6.637280   7.431110
                   21         22         23
    21  H    0.000000
    22  H    1.783780   0.000000
    23  H    1.755984   1.781126   0.000000
 Stoichiometry    C8H14O
 Framework group  C1[X(C8H14O)]
 Deg. of freedom    63
 Full point group                 C1      NOp   1
 RotChk:  IX=0 Diff= 1.64D-03
 Largest Abelian subgroup         C1      NOp   1
 Largest concise Abelian subgroup C1      NOp   1
                         Standard orientation:                         
 ---------------------------------------------------------------------
 Center     Atomic      Atomic             Coordinates (Angstroms)
 Number     Number       Type             X           Y           Z
 ---------------------------------------------------------------------
      1          8           0        2.748545    1.083570   -0.645432
      2          6           0        0.054497    0.249043   -0.614322
      3          6           0        1.157180   -0.546495    0.088699
      4          6           0       -1.272590   -0.448229   -0.552942
      5          6           0       -2.409274   -0.030897    0.011275
      6          6           0        2.541479    0.071086   -0.017088
      7          6           0       -3.651335   -0.880794   -0.036595
      8          6           0       -2.584669    1.282550    0.723511
      9          6           0        3.656033   -0.650616    0.712450
     10          1           0        0.007980    1.249249   -0.185568
     11          1           0        0.347577    0.389617   -1.659244
     12          1           0        1.217169   -1.565105   -0.313795
     13          1           0        0.922431   -0.677999    1.151124
     14          1           0       -1.292263   -1.423092   -1.037482
     15          1           0       -4.469232   -0.351437   -0.536418
     16          1           0       -4.005157   -1.115809    0.972676
     17          1           0       -3.480967   -1.819010   -0.564974
     18          1           0       -1.671647    1.871704    0.774397
     19          1           0       -2.939539    1.119080    1.746130
     20          1           0       -3.348008    1.888974    0.225322
     21          1           0        3.718429   -1.691298    0.384789
     22          1           0        4.604298   -0.149876    0.530136
     23          1           0        3.452658   -0.667448    1.786422
 ---------------------------------------------------------------------
 Rotational constants (GHZ):           4.0695509           0.5821878           0.5556875
 Leave Link  202 at Tue Jun  4 00:14:48 2024, MaxMem= 13421772800 cpu:               2.7 elap:               0.1
 (Enter /tmpu/scunam/7/gaussian-2016.03/g1/g16/l301.exe)
 Standard basis: def2TZVP (5D, 7F)
 Ernie: Thresh=  0.10000D-02 Tol=  0.10000D-05 Strict=F.
 There are   408 symmetry adapted cartesian basis functions of A   symmetry.
 There are   363 symmetry adapted basis functions of A   symmetry.
   363 basis functions,   571 primitive gaussians,   408 cartesian basis functions
    35 alpha electrons       35 beta electrons
       nuclear repulsion energy       428.8806713511 Hartrees.
 IExCor=  402 DFT=T Ex+Corr=B3LYP ExCW=0 ScaHFX=  0.200000
 ScaDFX=  0.800000  0.720000  1.000000  0.810000 ScalE2=  1.000000  1.000000
 IRadAn=      5 IRanWt=     -1 IRanGd=            0 ICorTp=0 IEmpDi=  4
 NAtoms=   23 NActive=   23 NUniq=   23 SFac= 1.00D+00 NAtFMM=   60 NAOKFM=F Big=F
 Integral buffers will be    131072 words long.
 Raffenetti 2 integral format.
 Two-electron integral symmetry is turned on.
 Leave Link  301 at Tue Jun  4 00:14:48 2024, MaxMem= 13421772800 cpu:               2.9 elap:               0.1
 (Enter /tmpu/scunam/7/gaussian-2016.03/g1/g16/l302.exe)
 NPDir=0 NMtPBC=     1 NCelOv=     1 NCel=       1 NClECP=     1 NCelD=      1
         NCelK=      1 NCelE2=     1 NClLst=     1 CellRange=     0.0.
 One-electron integrals computed using PRISM.
 One-electron integral symmetry used in STVInt
   1 Symmetry operations used in ECPInt.
 ECPInt:  NShTT=   12090 NPrTT=   35220 LenC2=   11306 LenP2D=   25534.
 LDataN:  DoStor=T MaxTD1= 6 Len=  172
 NBasis=   363 RedAO= T EigKep=  7.84D-05  NBF=   363
 NBsUse=   363 1.00D-06 EigRej= -1.00D+00 NBFU=   363
 Precomputing XC quadrature grid using
 IXCGrd= 4 IRadAn=           5 IRanWt=          -1 IRanGd=           0 AccXCQ= 0.00D+00.
 Generated NRdTot=       0 NPtTot=           0 NUsed=           0 NTot=          32
 NSgBfM=   405   405   405   405   405 MxSgAt=    23 MxSgA2=    23.
 Leave Link  302 at Tue Jun  4 00:14:49 2024, MaxMem= 13421772800 cpu:              12.7 elap:               0.4
 (Enter /tmpu/scunam/7/gaussian-2016.03/g1/g16/l303.exe)
 DipDrv:  MaxL=1.
 Leave Link  303 at Tue Jun  4 00:14:49 2024, MaxMem= 13421772800 cpu:               2.6 elap:               0.1
 (Enter /tmpu/scunam/7/gaussian-2016.03/g1/g16/l401.exe)
 Initial guess from the checkpoint file:  "S36.chk"
 B after Tr=    -0.000000   -0.000000    0.000000
         Rot=    1.000000   -0.000009    0.000059    0.000068 Ang=  -0.01 deg.
 Guess basis will be translated and rotated to current coordinates.
 JPrj=2 DoOrth=T DoCkMO=T.
 Generating alternative initial guess.
 ExpMin= 9.52D-02 ExpMax= 2.70D+04 ExpMxC= 9.22D+02 IAcc=2 IRadAn=         4 AccDes= 0.00D+00
 Harris functional with IExCor=  402 and IRadAn=       4 diagonalized for initial guess.
 HarFok:  IExCor=  402 AccDes= 0.00D+00 IRadAn=         4 IDoV= 1 UseB2=F ITyADJ=14
 ICtDFT=  3500011 ScaDFX=  1.000000  1.000000  1.000000  1.000000
 FoFCou: FMM=F IPFlag=           0 FMFlag=      100000 FMFlg1=           0
         NFxFlg=           0 DoJE=T BraDBF=F KetDBF=T FulRan=T
         wScrn=  0.000000 ICntrl=       500 IOpCl=  0 I1Cent=   200000004 NGrid=           0
         NMat0=    1 NMatS0=      1 NMatT0=    0 NMatD0=    1 NMtDS0=    0 NMtDT0=    0
 Petite list used in FoFCou.
 Harris En= -388.761710065638    
 Leave Link  401 at Tue Jun  4 00:14:50 2024, MaxMem= 13421772800 cpu:              35.3 elap:               1.2
 (Enter /tmpu/scunam/7/gaussian-2016.03/g1/g16/l502.exe)
 Integral symmetry usage will be decided dynamically.
 Closed shell SCF:
 Using DIIS extrapolation, IDIIS=  1040.
 NGot= 13421772800 LenX= 13421422965 LenY= 13421256060
 Requested convergence on RMS density matrix=1.00D-08 within 128 cycles.
 Requested convergence on MAX density matrix=1.00D-06.
 Requested convergence on             energy=1.00D-06.
 No special actions if energy rises.
 Fock matrices will be formed incrementally for  20 cycles.
 Integral accuracy reduced to 1.0D-05 until final iterations.

 Cycle   1  Pass 0  IDiag  1:
 FoFJK:  IHMeth= 1 ICntrl=       0 DoSepK=F KAlg= 0 I1Cent=           0 FoldK=F
 IRaf= 890000000 NMat=       1 IRICut=       1 DoRegI=T DoRafI=F ISym2E= 0 IDoP0=0 IntGTp=1.
 FoFCou: FMM=F IPFlag=           0 FMFlag=      100000 FMFlg1=           0
         NFxFlg=           0 DoJE=F BraDBF=F KetDBF=F FulRan=T
         wScrn=  0.000000 ICntrl=         0 IOpCl=  0 I1Cent=           0 NGrid=           0
         NMat0=    1 NMatS0=      1 NMatT0=    0 NMatD0=    1 NMtDS0=    0 NMtDT0=    0
 Symmetry not used in FoFCou.
 E= -388.651127573772    
 DIIS: error= 4.76D-04 at cycle   1 NSaved=   1.
 NSaved= 1 IEnMin= 1 EnMin= -388.651127573772     IErMin= 1 ErrMin= 4.76D-04
 ErrMax= 4.76D-04  0.00D+00 EMaxC= 1.00D-01 BMatC= 8.16D-05 BMatP= 8.16D-05
 IDIUse=3 WtCom= 9.95D-01 WtEn= 4.76D-03
 Coeff-Com:  0.100D+01
 Coeff-En:   0.100D+01
 Coeff:      0.100D+01
 Gap=     0.607 Goal=   None    Shift=    0.000
 RMSDP=1.02D-04 MaxDP=4.49D-03              OVMax= 2.66D-03

 Cycle   2  Pass 0  IDiag  1:
 RMSU=  1.02D-04    CP:  1.00D+00
 E= -388.651238803071     Delta-E=       -0.000111229299 Rises=F Damp=F
 DIIS: error= 3.70D-05 at cycle   2 NSaved=   2.
 NSaved= 2 IEnMin= 2 EnMin= -388.651238803071     IErMin= 2 ErrMin= 3.70D-05
 ErrMax= 3.70D-05  0.00D+00 EMaxC= 1.00D-01 BMatC= 8.30D-07 BMatP= 8.16D-05
 IDIUse=1 WtCom= 1.00D+00 WtEn= 0.00D+00
 Coeff-Com: -0.612D-01 0.106D+01
 Coeff:     -0.612D-01 0.106D+01
 Gap=     0.216 Goal=   None    Shift=    0.000
 RMSDP=6.19D-06 MaxDP=1.62D-04 DE=-1.11D-04 OVMax= 3.66D-04

 Initial convergence to 1.0D-05 achieved.  Increase integral accuracy.
 Cycle   3  Pass 1  IDiag  1:
 E= -388.651231051915     Delta-E=        0.000007751157 Rises=F Damp=F
 DIIS: error= 9.69D-05 at cycle   1 NSaved=   1.
 NSaved= 1 IEnMin= 1 EnMin= -388.651231051915     IErMin= 1 ErrMin= 9.69D-05
 ErrMax= 9.69D-05  0.00D+00 EMaxC= 1.00D-01 BMatC= 2.26D-06 BMatP= 2.26D-06
 IDIUse=1 WtCom= 1.00D+00 WtEn= 0.00D+00
 Coeff-Com:  0.100D+01
 Coeff:      0.100D+01
 Gap=     0.216 Goal=   None    Shift=    0.000
 RMSDP=6.19D-06 MaxDP=1.62D-04 DE= 7.75D-06 OVMax= 2.84D-04

 Cycle   4  Pass 1  IDiag  1:
 RMSU=  9.88D-05    CP:  1.00D+00
 E= -388.651231996038     Delta-E=       -0.000000944124 Rises=F Damp=F
 DIIS: error= 3.15D-05 at cycle   2 NSaved=   2.
 NSaved= 2 IEnMin= 2 EnMin= -388.651231996038     IErMin= 2 ErrMin= 3.15D-05
 ErrMax= 3.15D-05  0.00D+00 EMaxC= 1.00D-01 BMatC= 4.27D-07 BMatP= 2.26D-06
 IDIUse=1 WtCom= 1.00D+00 WtEn= 0.00D+00
 Coeff-Com:  0.207D+00 0.793D+00
 Coeff:      0.207D+00 0.793D+00
 Gap=     0.216 Goal=   None    Shift=    0.000
 RMSDP=5.04D-06 MaxDP=5.24D-04 DE=-9.44D-07 OVMax= 3.86D-04

 Cycle   5  Pass 1  IDiag  1:
 RMSU=  4.83D-06    CP:  1.00D+00  1.01D+00
 E= -388.651231640111     Delta-E=        0.000000355927 Rises=F Damp=F
 DIIS: error= 5.07D-05 at cycle   3 NSaved=   3.
 NSaved= 3 IEnMin= 2 EnMin= -388.651231996038     IErMin= 2 ErrMin= 3.15D-05
 ErrMax= 5.07D-05  0.00D+00 EMaxC= 1.00D-01 BMatC= 9.16D-07 BMatP= 4.27D-07
 IDIUse=1 WtCom= 1.00D+00 WtEn= 0.00D+00
 Coeff-Com:  0.992D-02 0.592D+00 0.398D+00
 Coeff:      0.992D-02 0.592D+00 0.398D+00
 Gap=     0.216 Goal=   None    Shift=    0.000
 RMSDP=2.95D-06 MaxDP=3.25D-04 DE= 3.56D-07 OVMax= 2.52D-04

 Cycle   6  Pass 1  IDiag  1:
 RMSU=  8.08D-07    CP:  1.00D+00  1.02D+00  4.32D-01
 E= -388.651232336512     Delta-E=       -0.000000696401 Rises=F Damp=F
 DIIS: error= 4.87D-06 at cycle   4 NSaved=   4.
 NSaved= 4 IEnMin= 4 EnMin= -388.651232336512     IErMin= 4 ErrMin= 4.87D-06
 ErrMax= 4.87D-06  0.00D+00 EMaxC= 1.00D-01 BMatC= 8.50D-09 BMatP= 4.27D-07
 IDIUse=1 WtCom= 1.00D+00 WtEn= 0.00D+00
 Coeff-Com: -0.705D-03 0.280D+00 0.204D+00 0.517D+00
 Coeff:     -0.705D-03 0.280D+00 0.204D+00 0.517D+00
 Gap=     0.216 Goal=   None    Shift=    0.000
 RMSDP=3.43D-07 MaxDP=1.31D-05 DE=-6.96D-07 OVMax= 2.94D-05

 Cycle   7  Pass 1  IDiag  1:
 RMSU=  2.31D-07    CP:  1.00D+00  1.02D+00  4.36D-01  6.91D-01
 E= -388.651232343941     Delta-E=       -0.000000007429 Rises=F Damp=F
 DIIS: error= 1.46D-06 at cycle   5 NSaved=   5.
 NSaved= 5 IEnMin= 5 EnMin= -388.651232343941     IErMin= 5 ErrMin= 1.46D-06
 ErrMax= 1.46D-06  0.00D+00 EMaxC= 1.00D-01 BMatC= 9.06D-10 BMatP= 8.50D-09
 IDIUse=1 WtCom= 1.00D+00 WtEn= 0.00D+00
 Coeff-Com: -0.915D-03 0.145D+00 0.106D+00 0.320D+00 0.430D+00
 Coeff:     -0.915D-03 0.145D+00 0.106D+00 0.320D+00 0.430D+00
 Gap=     0.216 Goal=   None    Shift=    0.000
 RMSDP=7.45D-08 MaxDP=4.77D-06 DE=-7.43D-09 OVMax= 1.50D-05

 Cycle   8  Pass 1  IDiag  1:
 RMSU=  6.27D-08    CP:  1.00D+00  1.02D+00  4.32D-01  7.17D-01  9.10D-01
 E= -388.651232344745     Delta-E=       -0.000000000804 Rises=F Damp=F
 DIIS: error= 3.23D-07 at cycle   6 NSaved=   6.
 NSaved= 6 IEnMin= 6 EnMin= -388.651232344745     IErMin= 6 ErrMin= 3.23D-07
 ErrMax= 3.23D-07  0.00D+00 EMaxC= 1.00D-01 BMatC= 4.45D-11 BMatP= 9.06D-10
 IDIUse=1 WtCom= 1.00D+00 WtEn= 0.00D+00
 Coeff-Com: -0.420D-03 0.522D-01 0.387D-01 0.125D+00 0.236D+00 0.548D+00
 Coeff:     -0.420D-03 0.522D-01 0.387D-01 0.125D+00 0.236D+00 0.548D+00
 Gap=     0.216 Goal=   None    Shift=    0.000
 RMSDP=2.05D-08 MaxDP=7.46D-07 DE=-8.04D-10 OVMax= 2.54D-06

 Cycle   9  Pass 1  IDiag  1:
 RMSU=  1.43D-08    CP:  1.00D+00  1.02D+00  4.33D-01  7.23D-01  9.11D-01
                    CP:  8.28D-01
 E= -388.651232344790     Delta-E=       -0.000000000045 Rises=F Damp=F
 DIIS: error= 4.15D-08 at cycle   7 NSaved=   7.
 NSaved= 7 IEnMin= 7 EnMin= -388.651232344790     IErMin= 7 ErrMin= 4.15D-08
 ErrMax= 4.15D-08  0.00D+00 EMaxC= 1.00D-01 BMatC= 1.30D-12 BMatP= 4.45D-11
 IDIUse=1 WtCom= 1.00D+00 WtEn= 0.00D+00
 Coeff-Com: -0.939D-04 0.966D-02 0.722D-02 0.263D-01 0.629D-01 0.209D+00
 Coeff-Com:  0.685D+00
 Coeff:     -0.939D-04 0.966D-02 0.722D-02 0.263D-01 0.629D-01 0.209D+00
 Coeff:      0.685D+00
 Gap=     0.216 Goal=   None    Shift=    0.000
 RMSDP=5.50D-09 MaxDP=3.09D-07 DE=-4.47D-11 OVMax= 2.70D-07

 SCF Done:  E(RB3LYP) =  -388.651232345     A.U. after    9 cycles
            NFock=  9  Conv=0.55D-08     -V/T= 2.0053
 KE= 3.865949567080D+02 PE=-1.761035931356D+03 EE= 5.569090709519D+02
 Leave Link  502 at Tue Jun  4 00:15:13 2024, MaxMem= 13421772800 cpu:             735.9 elap:              23.0
 (Enter /tmpu/scunam/7/gaussian-2016.03/g1/g16/l508.exe)
 QCSCF skips out because SCF is already converged.
 Leave Link  508 at Tue Jun  4 00:15:13 2024, MaxMem= 13421772800 cpu:               0.1 elap:               0.0
 (Enter /tmpu/scunam/7/gaussian-2016.03/g1/g16/l701.exe)
 ... and contract with generalized density number  0.
 Compute integral first derivatives.
   1 Symmetry operations used in ECPInt.
 ECPInt:  NShTT=   12090 NPrTT=   35220 LenC2=   11306 LenP2D=   25534.
 LDataN:  DoStor=T MaxTD1= 7 Len=  274
 Leave Link  701 at Tue Jun  4 00:15:14 2024, MaxMem= 13421772800 cpu:               8.6 elap:               0.3
 (Enter /tmpu/scunam/7/gaussian-2016.03/g1/g16/l702.exe)
 L702 exits ... SP integral derivatives will be done elsewhere.
 Leave Link  702 at Tue Jun  4 00:15:14 2024, MaxMem= 13421772800 cpu:               1.6 elap:               0.1
 (Enter /tmpu/scunam/7/gaussian-2016.03/g1/g16/l703.exe)
 Integral derivatives from FoFJK, PRISM(SPDF).
 Compute integral first derivatives, UseDBF=F ICtDFT=           0.
 Calling FoFJK, ICntrl=      2127 FMM=F ISym2X=0 I1Cent= 0 IOpClX= 0 NMat=1 NMatS=1 NMatT=0.
 FoFJK:  IHMeth= 1 ICntrl=    2127 DoSepK=F KAlg= 0 I1Cent=           0 FoldK=F
 IRaf=         0 NMat=       1 IRICut=       1 DoRegI=T DoRafI=F ISym2E= 0 IDoP0=0 IntGTp=1.
 FoFCou: FMM=F IPFlag=           0 FMFlag=      100000 FMFlg1=         800
         NFxFlg=           0 DoJE=F BraDBF=F KetDBF=F FulRan=T
         wScrn=  0.000000 ICntrl=      2127 IOpCl=  0 I1Cent=           0 NGrid=           0
         NMat0=    1 NMatS0=      1 NMatT0=    0 NMatD0=    1 NMtDS0=    0 NMtDT0=    0
 Symmetry not used in FoFCou.
 Leave Link  703 at Tue Jun  4 00:15:24 2024, MaxMem= 13421772800 cpu:             327.6 elap:              10.3
 (Enter /tmpu/scunam/7/gaussian-2016.03/g1/g16/l716.exe)
 Dipole        =-2.91494737D-01-8.37000911D-01 6.16456814D-01
 ***** Axes restored to original set *****
 -------------------------------------------------------------------
 Center     Atomic                   Forces (Hartrees/Bohr)
 Number     Number              X              Y              Z
 -------------------------------------------------------------------
      1        8          -0.000002521    0.000022869    0.000026515
      2        6           0.000048839    0.000013432   -0.000058637
      3        6          -0.000033371    0.000012811   -0.000016319
      4        6          -0.000016032   -0.000026062    0.000071156
      5        6           0.000010534    0.000014282   -0.000011791
      6        6           0.000036232   -0.000006913   -0.000035967
      7        6          -0.000024284   -0.000003532   -0.000005042
      8        6           0.000004510    0.000018971   -0.000012917
      9        6          -0.000008163   -0.000045004   -0.000013849
     10        1           0.000014129   -0.000018317    0.000028259
     11        1          -0.000008549    0.000002640    0.000020464
     12        1           0.000015930   -0.000013463   -0.000000751
     13        1          -0.000012760   -0.000016038    0.000023989
     14        1          -0.000004923    0.000006606   -0.000009865
     15        1           0.000004586   -0.000005062   -0.000000141
     16        1          -0.000002861   -0.000003144   -0.000012377
     17        1           0.000008248    0.000003063    0.000001454
     18        1          -0.000029525   -0.000009277   -0.000007079
     19        1           0.000007797    0.000001264    0.000005007
     20        1          -0.000016874    0.000017265    0.000003286
     21        1          -0.000003819    0.000026095    0.000010127
     22        1           0.000006607    0.000000467    0.000001578
     23        1           0.000006267    0.000007049   -0.000007099
 -------------------------------------------------------------------
 Cartesian Forces:  Max     0.000071156 RMS     0.000020053
 Leave Link  716 at Tue Jun  4 00:15:24 2024, MaxMem= 13421772800 cpu:               0.7 elap:               0.0
 (Enter /tmpu/scunam/7/gaussian-2016.03/g1/g16/l103.exe)

 GradGradGradGradGradGradGradGradGradGradGradGradGradGradGradGradGradGrad
 Berny optimization.
 Using GEDIIS/GDIIS optimizer.
 FormGI is forming the generalized inverse of G from B-inverse, IUseBI=4.
 Internal  Forces:  Max     0.000074838 RMS     0.000016633
 Search for a local minimum.
 Step number  14 out of a maximum of  138
 All quantities printed in internal units (Hartrees-Bohrs-Radians)
 RMS Force = .16633D-04 SwitMx=.10000D-02 MixMth= 2
 Mixed Optimization -- En-DIIS/RFO-DIIS
 Swapping is turned off.
 Update second derivatives using D2CorX and points    4    5    6    7    8
                                                      9   10   11   12   13
                                                     14
 DE= -4.83D-07 DEPred=-3.77D-07 R= 1.28D+00
 Trust test= 1.28D+00 RLast= 3.81D-02 DXMaxT set to 6.57D-01
 ITU=  0  0  0  0  0  1  1  1  1  1 -1  1  1  0
     Eigenvalues ---    0.00021   0.00124   0.00179   0.00551   0.00629
     Eigenvalues ---    0.00958   0.01398   0.01709   0.02897   0.02928
     Eigenvalues ---    0.03977   0.04230   0.05005   0.05546   0.06917
     Eigenvalues ---    0.06997   0.07050   0.07157   0.07316   0.07406
     Eigenvalues ---    0.09303   0.09856   0.12859   0.13358   0.15872
     Eigenvalues ---    0.15960   0.15997   0.16003   0.16020   0.16068
     Eigenvalues ---    0.16131   0.16236   0.16303   0.16570   0.21783
     Eigenvalues ---    0.22463   0.22822   0.24995   0.25278   0.25503
     Eigenvalues ---    0.29816   0.30640   0.30924   0.31180   0.31912
     Eigenvalues ---    0.32996   0.33828   0.33989   0.34126   0.34133
     Eigenvalues ---    0.34233   0.34247   0.34269   0.34277   0.34340
     Eigenvalues ---    0.34466   0.34509   0.34568   0.34880   0.35419
     Eigenvalues ---    0.40415   0.62657   0.92024
 En-DIIS/RFO-DIIS/Sim-DIIS IScMMF=       -3 using points:    14   13   12   11   10    9    8    7    6    5
 RFO step:  Lambda=-8.79792688D-07.
 NNeg= 0 NGDIIS=10 SimSw=  2.50D-01 Rises=F DC= -4.83D-07 SmlDif=  1.00D-05
 NRisDI= 0 DoIntr=F SqrtH=F CThrHd= 10.0 CDAdj=  3.0
 RMS Error=  0.4855769268D-02 NUsed=10 OKEnD=F EnDIS=F
 InvSVX:  RCond= 3.04D-10 Info=           0 Equed=N FErr=  1.12D-08 BErr=  7.16D-17
 DIIS inversion failure, remove point  10.
 InvSVX:  RCond= 4.08D-10 Info=           0 Equed=N FErr=  2.07D-08 BErr=  4.34D-17
 DIIS inversion failure, remove point   9.
 InvSVX:  RCond= 5.27D-10 Info=           0 Equed=N FErr=  7.15D-09 BErr=  9.25D-17
 DIIS inversion failure, remove point   8.
 InvSVX:  RCond= 6.41D-10 Info=           0 Equed=N FErr=  5.99D-09 BErr=  4.55D-17
 DIIS inversion failure, remove point   7.
 InvSVX:  RCond= 1.26D-09 Info=           0 Equed=N FErr=  3.52D-09 BErr=  7.72D-17
 DIIS inversion failure, remove point   6.
 InvSVX:  RCond= 2.86D-09 Info=           0 Equed=N FErr=  1.06D-09 BErr=  6.74D-17
 DIIS inversion failure, remove point   5.
 InvSVX:  RCond= 2.60D-08 Info=           0 Equed=N FErr=  1.07D-10 BErr=  4.35D-17
 DIIS inversion failure, remove point   4.
 InvSVX:  RCond= 3.57D-08 Info=           0 Equed=N FErr=  4.78D-11 BErr=  5.07D-17
 DIIS inversion failure, remove point   3.
 InvSVX:  RCond= 3.58D-04 Info=           0 Equed=N FErr=  6.44D-15 BErr=  4.85D-17
 RFO-DIIS uses    2 points instead of   10
 DidBck=F Rises=F RFO-DIIS coefs:    2.29008   -1.29008    0.00000    0.00000    0.00000
                  RFO-DIIS coefs:    0.00000    0.00000    0.00000    0.00000    0.00000
 Iteration  1 RMS(Cart)=  0.00954829 RMS(Int)=  0.00009466
 Iteration  2 RMS(Cart)=  0.00010077 RMS(Int)=  0.00000031
 Iteration  3 RMS(Cart)=  0.00000001 RMS(Int)=  0.00000031
 ITry= 1 IFail=0 DXMaxC= 4.96D-02 DCOld= 1.00D+10 DXMaxT= 6.57D-01 DXLimC= 3.00D+00 Rises=F
 Variable       Old X    -DE/DX   Delta X   Delta X   Delta X     New X
                                 (Linear)    (Quad)   (Total)
    R1        2.28556  -0.00003   0.00005   0.00001   0.00007   2.28563
    R2        2.89260  -0.00001   0.00007   0.00000   0.00007   2.89267
    R3        2.83529   0.00006   0.00002   0.00008   0.00011   2.83540
    R4        2.05833  -0.00003   0.00014  -0.00002   0.00012   2.05845
    R5        2.06795  -0.00001  -0.00010  -0.00001  -0.00011   2.06784
    R6        2.87144   0.00004  -0.00001   0.00005   0.00004   2.87148
    R7        2.07282   0.00001   0.00003  -0.00000   0.00003   2.07285
    R8        2.07108  -0.00001  -0.00008  -0.00001  -0.00010   2.07098
    R9        2.52444   0.00006  -0.00007   0.00001  -0.00006   2.52437
   R10        2.05757  -0.00001   0.00002  -0.00001   0.00001   2.05758
   R11        2.84548   0.00000  -0.00002   0.00003   0.00001   2.84549
   R12        2.84288   0.00003   0.00001   0.00001   0.00003   2.84291
   R13        2.86299  -0.00001  -0.00001  -0.00003  -0.00003   2.86295
   R14        2.06923  -0.00000  -0.00003  -0.00001  -0.00004   2.06919
   R15        2.06927  -0.00001   0.00001  -0.00001   0.00001   2.06928
   R16        2.06011   0.00000   0.00001   0.00001   0.00002   2.06013
   R17        2.05564  -0.00002   0.00007  -0.00001   0.00007   2.05570
   R18        2.06872  -0.00000  -0.00004   0.00001  -0.00003   2.06869
   R19        2.06891   0.00000  -0.00000  -0.00002  -0.00002   2.06889
   R20        2.06515  -0.00000  -0.00014  -0.00001  -0.00015   2.06500
   R21        2.05554   0.00000   0.00004   0.00001   0.00005   2.05559
   R22        2.06583   0.00001   0.00010   0.00001   0.00011   2.06593
    A1        1.95720   0.00002  -0.00005   0.00002  -0.00003   1.95717
    A2        1.90416  -0.00001   0.00017  -0.00003   0.00014   1.90430
    A3        1.88850  -0.00001  -0.00007   0.00001  -0.00006   1.88843
    A4        1.95290   0.00000  -0.00028  -0.00002  -0.00029   1.95261
    A5        1.91309  -0.00001   0.00026  -0.00003   0.00023   1.91332
    A6        1.84351   0.00001  -0.00003   0.00006   0.00003   1.84354
    A7        1.99662  -0.00000   0.00007  -0.00001   0.00006   1.99668
    A8        1.93211   0.00001  -0.00044  -0.00001  -0.00045   1.93166
    A9        1.93188  -0.00000   0.00028   0.00001   0.00028   1.93216
   A10        1.87765  -0.00001  -0.00058  -0.00008  -0.00066   1.87699
   A11        1.88745   0.00001   0.00052   0.00005   0.00056   1.88802
   A12        1.82968  -0.00000   0.00016   0.00005   0.00022   1.82990
   A13        2.24556   0.00002   0.00005  -0.00003   0.00002   2.24558
   A14        1.99750  -0.00000  -0.00014   0.00003  -0.00011   1.99739
   A15        2.04013  -0.00001   0.00009   0.00000   0.00009   2.04021
   A16        2.10845  -0.00002   0.00014  -0.00002   0.00012   2.10857
   A17        2.17964   0.00007  -0.00027   0.00008  -0.00019   2.17945
   A18        1.99508  -0.00005   0.00013  -0.00006   0.00007   1.99515
   A19        2.13221   0.00000   0.00001  -0.00001   0.00000   2.13221
   A20        2.12116  -0.00001  -0.00001  -0.00002  -0.00003   2.12113
   A21        2.02982   0.00001  -0.00000   0.00003   0.00003   2.02985
   A22        1.93669  -0.00000   0.00009  -0.00005   0.00004   1.93673
   A23        1.93732   0.00000  -0.00011   0.00002  -0.00009   1.93723
   A24        1.95224  -0.00001  -0.00000  -0.00001  -0.00001   1.95222
   A25        1.85785   0.00000   0.00008   0.00003   0.00011   1.85796
   A26        1.88762   0.00000   0.00001   0.00000   0.00001   1.88762
   A27        1.88864   0.00001  -0.00006   0.00001  -0.00006   1.88858
   A28        1.97921   0.00002  -0.00013   0.00004  -0.00009   1.97912
   A29        1.92802  -0.00001   0.00006  -0.00004   0.00002   1.92804
   A30        1.92778   0.00001   0.00006   0.00001   0.00007   1.92786
   A31        1.88521  -0.00000  -0.00005  -0.00001  -0.00007   1.88514
   A32        1.88231  -0.00001  -0.00008   0.00000  -0.00008   1.88223
   A33        1.85643  -0.00001   0.00016   0.00000   0.00016   1.85659
   A34        1.92971   0.00002   0.00123   0.00010   0.00133   1.93104
   A35        1.91913   0.00001  -0.00002   0.00002   0.00000   1.91913
   A36        1.92148  -0.00001  -0.00128  -0.00008  -0.00136   1.92013
   A37        1.91596  -0.00000   0.00067   0.00002   0.00068   1.91665
   A38        1.86556  -0.00001   0.00023   0.00002   0.00025   1.86581
   A39        1.91127  -0.00001  -0.00084  -0.00009  -0.00092   1.91035
    D1        3.07836  -0.00000  -0.00580   0.00081  -0.00500   3.07336
    D2        0.95369   0.00001  -0.00475   0.00093  -0.00382   0.94987
    D3       -1.06741   0.00001  -0.00485   0.00087  -0.00399  -1.07140
    D4       -1.03129   0.00000  -0.00606   0.00077  -0.00529  -1.03659
    D5        3.12722   0.00001  -0.00501   0.00089  -0.00412   3.12311
    D6        1.10612   0.00001  -0.00512   0.00083  -0.00428   1.10184
    D7        0.96626   0.00000  -0.00605   0.00083  -0.00522   0.96104
    D8       -1.15840   0.00001  -0.00500   0.00095  -0.00405  -1.16245
    D9        3.10368   0.00001  -0.00510   0.00089  -0.00421   3.09947
   D10        2.06947   0.00000  -0.00044   0.00040  -0.00004   2.06944
   D11       -1.07129  -0.00000  -0.00060   0.00032  -0.00028  -1.07157
   D12       -0.07679   0.00000  -0.00042   0.00045   0.00002  -0.07677
   D13        3.06563   0.00000  -0.00059   0.00036  -0.00023   3.06541
   D14       -2.11586  -0.00000  -0.00038   0.00040   0.00002  -2.11584
   D15        1.02656  -0.00000  -0.00054   0.00032  -0.00023   1.02634
   D16       -0.04101  -0.00001  -0.00852  -0.00064  -0.00916  -0.05017
   D17        3.09863  -0.00001  -0.00882  -0.00060  -0.00942   3.08921
   D18        2.11324  -0.00000  -0.00948  -0.00072  -0.01021   2.10304
   D19       -1.03031  -0.00000  -0.00978  -0.00068  -0.01046  -1.04077
   D20       -2.20240  -0.00001  -0.00933  -0.00068  -0.01000  -2.21240
   D21        0.93724  -0.00001  -0.00962  -0.00064  -0.01026   0.92698
   D22        3.13772  -0.00000   0.00013  -0.00003   0.00010   3.13782
   D23        0.00329  -0.00000   0.00017  -0.00018  -0.00001   0.00329
   D24       -0.00472  -0.00000   0.00030   0.00005   0.00035  -0.00437
   D25       -3.13915   0.00000   0.00034  -0.00009   0.00025  -3.13891
   D26       -2.10820   0.00001  -0.00353   0.00086  -0.00268  -2.11088
   D27        2.11281   0.00001  -0.00362   0.00083  -0.00279   2.11002
   D28        0.00143   0.00001  -0.00346   0.00081  -0.00265  -0.00122
   D29        1.02695   0.00001  -0.00357   0.00098  -0.00259   1.02436
   D30       -1.03523   0.00001  -0.00366   0.00096  -0.00270  -1.03793
   D31        3.13658   0.00000  -0.00350   0.00094  -0.00256   3.13402
   D32       -0.03574   0.00001  -0.00513   0.00261  -0.00252  -0.03826
   D33       -2.15479   0.00001  -0.00502   0.00263  -0.00239  -2.15718
   D34        2.07938   0.00002  -0.00529   0.00265  -0.00263   2.07674
   D35        3.11260   0.00002  -0.00510   0.00248  -0.00262   3.10998
   D36        0.99355   0.00001  -0.00498   0.00250  -0.00248   0.99107
   D37       -1.05546   0.00002  -0.00525   0.00252  -0.00273  -1.05820
   D38       -2.16676  -0.00002  -0.01584  -0.00113  -0.01697  -2.18373
   D39       -0.04829  -0.00000  -0.01422  -0.00102  -0.01524  -0.06353
   D40        2.05901  -0.00001  -0.01609  -0.00117  -0.01725   2.04176
   D41        0.97678  -0.00002  -0.01555  -0.00117  -0.01672   0.96006
   D42        3.09525  -0.00000  -0.01393  -0.00106  -0.01499   3.08026
   D43       -1.08063  -0.00001  -0.01580  -0.00120  -0.01700  -1.09764
         Item               Value     Threshold  Converged?
 Maximum Force            0.000075     0.000450     YES
 RMS     Force            0.000017     0.000300     YES
 Maximum Displacement     0.049563     0.001800     NO 
 RMS     Displacement     0.009549     0.001200     NO 
 Predicted change in Energy=-4.400253D-07
 Lowest energy point so far.  Saving SCF results.
 GradGradGradGradGradGradGradGradGradGradGradGradGradGradGradGradGradGrad

 Leave Link  103 at Tue Jun  4 00:15:24 2024, MaxMem= 13421772800 cpu:               5.7 elap:               0.2
 (Enter /tmpu/scunam/7/gaussian-2016.03/g1/g16/l202.exe)
                          Input orientation:                          
 ---------------------------------------------------------------------
 Center     Atomic      Atomic             Coordinates (Angstroms)
 Number     Number       Type             X           Y           Z
 ---------------------------------------------------------------------
      1          8           0        2.775963   -0.410053   -1.053431
      2          6           0        0.048492   -0.487684   -0.337799
      3          6           0        1.117394    0.074177    0.602897
      4          6           0       -1.304633   -0.536263    0.308709
      5          6           0       -2.426374    0.091279   -0.055105
      6          6           0        2.525813    0.059607    0.032729
      7          6           0       -3.700018   -0.089866    0.727431
      8          6           0       -2.553418    1.007269   -1.241719
      9          6           0        3.607432    0.670677    0.899879
     10          1           0        0.038624    0.097614   -1.256426
     11          1           0        0.350523   -1.496732   -0.634433
     12          1           0        1.136600   -0.485921    1.545827
     13          1           0        0.876458    1.103317    0.892476
     14          1           0       -1.359999   -1.172428    1.190617
     15          1           0       -4.496070   -0.492501    0.092499
     16          1           0       -4.064395    0.868775    1.111220
     17          1           0       -3.564712   -0.765688    1.572084
     18          1           0       -1.617934    1.152107   -1.777692
     19          1           0       -2.920054    1.990213   -0.929029
     20          1           0       -3.289176    0.614752   -1.951083
     21          1           0        3.619348    0.203123    1.887479
     22          1           0        4.577729    0.550258    0.423152
     23          1           0        3.407007    1.734267    1.054118
 ---------------------------------------------------------------------
                    Distance matrix (angstroms):
                    1          2          3          4          5
     1  O    0.000000
     2  C    2.820860   0.000000
     3  C    2.393481   1.530734   0.000000
     4  C    4.303791   1.500427   2.515035   0.000000
     5  C    5.320930   2.557358   3.604380   1.335841   0.000000
     6  C    1.209503   2.563969   1.519522   3.886328   4.953068
     7  C    6.724011   3.917181   4.821813   2.472340   1.505770
     8  C    5.517840   3.133990   4.212853   2.519083   1.504404
     9  C    2.382171   3.942043   2.577654   5.092600   6.136328
    10  H    2.791407   1.089287   2.149739   2.157727   2.742158
    11  H    2.690574   1.094254   2.141689   2.133438   3.250932
    12  H    3.073990   2.175323   1.096903   2.737264   3.948535
    13  H    3.112067   2.174946   1.095918   2.790370   3.582015
    14  H    4.766881   2.188328   2.834946   1.088822   2.070250
    15  H    7.362229   4.564890   5.665034   3.199051   2.155510
    16  H    7.287771   4.566780   5.266946   3.199131   2.155905
    17  H    6.871969   4.096362   4.854566   2.599366   2.162856
    18  H    4.719240   2.745757   3.783009   2.702188   2.178587
    19  H    6.182342   3.911751   4.724296   3.244173   2.147886
    20  H    6.216262   3.867568   5.121806   3.220233   2.147832
    21  H    3.120294   4.263811   2.815413   5.223485   6.351134
    22  H    2.519694   4.708541   3.497553   5.982961   7.035400
    23  H    3.072147   4.260765   2.863883   5.283039   6.161017
                    6          7          8          9         10
     6  C    0.000000
     7  C    6.266253   0.000000
     8  C    5.321736   2.529021   0.000000
     9  C    1.515010   7.348945   6.531142   0.000000
    10  H    2.801691   4.236541   2.747066   4.208853   0.000000
    11  H    2.756661   4.498981   3.882227   4.202289   1.739567
    12  H    2.125319   4.921332   4.859657   2.803566   3.065728
    13  H    2.132808   4.732342   4.040800   2.765041   2.516184
    14  H    4.237706   2.619574   3.477296   5.306311   3.091468
    15  H    7.043808   1.094966   2.793446   8.226274   4.767733
    16  H    6.726719   1.095015   2.799742   7.677294   4.799500
    17  H    6.336026   1.090175   3.476144   7.345383   4.661522
    18  H    4.652077   3.486146   1.087831   5.891147   2.031713
    19  H    5.857447   2.771089   1.094704   6.906095   3.527449
    20  H    6.169100   2.799949   1.094809   7.462863   3.438638
    21  H    2.157896   7.416513   6.967178   1.092750   4.766220
    22  H    2.145583   8.308035   7.337160   1.087771   4.861003
    23  H    2.150401   7.344658   6.428535   1.093245   4.400370
                   11         12         13         14         15
    11  H    0.000000
    12  H    2.528476   0.000000
    13  H    3.060770   1.737878   0.000000
    14  H    2.522274   2.613517   3.204629   0.000000
    15  H    5.002636   5.817145   5.661329   3.391622   0.000000
    16  H    5.304190   5.392071   4.951251   3.389184   1.754197
    17  H    4.553263   4.709701   4.866111   2.274140   1.769528
    18  H    3.492594   4.616966   3.654335   3.779002   3.806050
    19  H    4.789806   5.358413   4.303250   4.114483   3.113072
    20  H    4.409007   5.746943   5.067251   4.097074   2.618936
    21  H    4.464836   2.599143   3.053494   5.212643   8.340614
    22  H    4.814346   3.765029   3.771677   6.230030   9.139503
    23  H    4.757379   3.213373   2.613026   5.584967   8.266912
                   16         17         18         19         20
    16  H    0.000000
    17  H    1.770183   0.000000
    18  H    3.796217   4.323064   0.000000
    19  H    2.594178   3.777055   1.765833   0.000000
    20  H    3.169099   3.793974   1.764048   1.752923   0.000000
    21  H    7.751489   7.255948   6.462443   7.340993   7.914019
    22  H    8.675322   8.327731   6.602437   7.753619   8.217625
    23  H    7.521582   7.424482   5.797248   6.635517   7.424515
                   21         22         23
    21  H    0.000000
    22  H    1.784167   0.000000
    23  H    1.756127   1.780614   0.000000
 Stoichiometry    C8H14O
 Framework group  C1[X(C8H14O)]
 Deg. of freedom    63
 Full point group                 C1      NOp   1
 RotChk:  IX=0 Diff= 1.59D-03
 Largest Abelian subgroup         C1      NOp   1
 Largest concise Abelian subgroup C1      NOp   1
                         Standard orientation:                         
 ---------------------------------------------------------------------
 Center     Atomic      Atomic             Coordinates (Angstroms)
 Number     Number       Type             X           Y           Z
 ---------------------------------------------------------------------
      1          8           0        2.751984    1.076515   -0.654949
      2          6           0        0.054473    0.252620   -0.611567
      3          6           0        1.156887   -0.545488    0.089042
      4          6           0       -1.272500   -0.445309   -0.553955
      5          6           0       -2.409683   -0.030646    0.011148
      6          6           0        2.542285    0.069285   -0.019015
      7          6           0       -3.651509   -0.880651   -0.040865
      8          6           0       -2.585716    1.279901    0.728579
      9          6           0        3.654391   -0.647994    0.718539
     10          1           0        0.007055    1.251063   -0.178659
     11          1           0        0.348423    0.397665   -1.655572
     12          1           0        1.214484   -1.563571   -0.315169
     13          1           0        0.923641   -0.678036    1.151616
     14          1           0       -1.291503   -1.418078   -1.042722
     15          1           0       -4.470040   -0.348541   -0.536663
     16          1           0       -4.004214   -1.122063    0.967290
     17          1           0       -3.481280   -1.815545   -0.575166
     18          1           0       -1.672145    1.867808    0.784549
     19          1           0       -2.943509    1.112393    1.749511
     20          1           0       -3.346909    1.889384    0.230862
     21          1           0        3.706098   -1.695822    0.412783
     22          1           0        4.605981   -0.159083    0.521847
     23          1           0        3.456277   -0.639995    1.793653
 ---------------------------------------------------------------------
 Rotational constants (GHZ):           4.0699114           0.5817240           0.5557981
 Leave Link  202 at Tue Jun  4 00:15:24 2024, MaxMem= 13421772800 cpu:               2.4 elap:               0.1
 (Enter /tmpu/scunam/7/gaussian-2016.03/g1/g16/l301.exe)
 Standard basis: def2TZVP (5D, 7F)
 Ernie: Thresh=  0.10000D-02 Tol=  0.10000D-05 Strict=F.
 There are   408 symmetry adapted cartesian basis functions of A   symmetry.
 There are   363 symmetry adapted basis functions of A   symmetry.
   363 basis functions,   571 primitive gaussians,   408 cartesian basis functions
    35 alpha electrons       35 beta electrons
       nuclear repulsion energy       428.8646253953 Hartrees.
 IExCor=  402 DFT=T Ex+Corr=B3LYP ExCW=0 ScaHFX=  0.200000
 ScaDFX=  0.800000  0.720000  1.000000  0.810000 ScalE2=  1.000000  1.000000
 IRadAn=      5 IRanWt=     -1 IRanGd=            0 ICorTp=0 IEmpDi=  4
 NAtoms=   23 NActive=   23 NUniq=   23 SFac= 1.00D+00 NAtFMM=   60 NAOKFM=F Big=F
 Integral buffers will be    131072 words long.
 Raffenetti 2 integral format.
 Two-electron integral symmetry is turned on.
 Leave Link  301 at Tue Jun  4 00:15:24 2024, MaxMem= 13421772800 cpu:               1.5 elap:               0.1
 (Enter /tmpu/scunam/7/gaussian-2016.03/g1/g16/l302.exe)
 NPDir=0 NMtPBC=     1 NCelOv=     1 NCel=       1 NClECP=     1 NCelD=      1
         NCelK=      1 NCelE2=     1 NClLst=     1 CellRange=     0.0.
 One-electron integrals computed using PRISM.
 One-electron integral symmetry used in STVInt
   1 Symmetry operations used in ECPInt.
 ECPInt:  NShTT=   12090 NPrTT=   35220 LenC2=   11307 LenP2D=   25536.
 LDataN:  DoStor=T MaxTD1= 6 Len=  172
 NBasis=   363 RedAO= T EigKep=  7.83D-05  NBF=   363
 NBsUse=   363 1.00D-06 EigRej= -1.00D+00 NBFU=   363
 Precomputing XC quadrature grid using
 IXCGrd= 4 IRadAn=           5 IRanWt=          -1 IRanGd=           0 AccXCQ= 0.00D+00.
 Generated NRdTot=       0 NPtTot=           0 NUsed=           0 NTot=          32
 NSgBfM=   405   405   405   405   405 MxSgAt=    23 MxSgA2=    23.
 Leave Link  302 at Tue Jun  4 00:15:25 2024, MaxMem= 13421772800 cpu:              12.6 elap:               0.4
 (Enter /tmpu/scunam/7/gaussian-2016.03/g1/g16/l303.exe)
 DipDrv:  MaxL=1.
 Leave Link  303 at Tue Jun  4 00:15:25 2024, MaxMem= 13421772800 cpu:               2.9 elap:               0.1
 (Enter /tmpu/scunam/7/gaussian-2016.03/g1/g16/l401.exe)
 Initial guess from the checkpoint file:  "S36.chk"
 B after Tr=     0.000000   -0.000000    0.000000
         Rot=    1.000000    0.000163    0.000065    0.000088 Ang=   0.02 deg.
 Guess basis will be translated and rotated to current coordinates.
 JPrj=2 DoOrth=T DoCkMO=T.
 Generating alternative initial guess.
 ExpMin= 9.52D-02 ExpMax= 2.70D+04 ExpMxC= 9.22D+02 IAcc=2 IRadAn=         4 AccDes= 0.00D+00
 Harris functional with IExCor=  402 and IRadAn=       4 diagonalized for initial guess.
 HarFok:  IExCor=  402 AccDes= 0.00D+00 IRadAn=         4 IDoV= 1 UseB2=F ITyADJ=14
 ICtDFT=  3500011 ScaDFX=  1.000000  1.000000  1.000000  1.000000
 FoFCou: FMM=F IPFlag=           0 FMFlag=      100000 FMFlg1=           0
         NFxFlg=           0 DoJE=T BraDBF=F KetDBF=T FulRan=T
         wScrn=  0.000000 ICntrl=       500 IOpCl=  0 I1Cent=   200000004 NGrid=           0
         NMat0=    1 NMatS0=      1 NMatT0=    0 NMatD0=    1 NMtDS0=    0 NMtDT0=    0
 Petite list used in FoFCou.
 Harris En= -388.761707617960    
 Leave Link  401 at Tue Jun  4 00:15:26 2024, MaxMem= 13421772800 cpu:              26.9 elap:               0.9
 (Enter /tmpu/scunam/7/gaussian-2016.03/g1/g16/l502.exe)
 Integral symmetry usage will be decided dynamically.
 Closed shell SCF:
 Using DIIS extrapolation, IDIIS=  1040.
 NGot= 13421772800 LenX= 13421422965 LenY= 13421256060
 Requested convergence on RMS density matrix=1.00D-08 within 128 cycles.
 Requested convergence on MAX density matrix=1.00D-06.
 Requested convergence on             energy=1.00D-06.
 No special actions if energy rises.
 Fock matrices will be formed incrementally for  20 cycles.
 Integral accuracy reduced to 1.0D-05 until final iterations.

 Cycle   1  Pass 0  IDiag  1:
 FoFJK:  IHMeth= 1 ICntrl=       0 DoSepK=F KAlg= 0 I1Cent=           0 FoldK=F
 IRaf= 890000000 NMat=       1 IRICut=       1 DoRegI=T DoRafI=F ISym2E= 0 IDoP0=0 IntGTp=1.
 FoFCou: FMM=F IPFlag=           0 FMFlag=      100000 FMFlg1=           0
         NFxFlg=           0 DoJE=F BraDBF=F KetDBF=F FulRan=T
         wScrn=  0.000000 ICntrl=         0 IOpCl=  0 I1Cent=           0 NGrid=           0
         NMat0=    1 NMatS0=      1 NMatT0=    0 NMatD0=    1 NMtDS0=    0 NMtDT0=    0
 Symmetry not used in FoFCou.
 E= -388.651059096055    
 DIIS: error= 5.91D-04 at cycle   1 NSaved=   1.
 NSaved= 1 IEnMin= 1 EnMin= -388.651059096055     IErMin= 1 ErrMin= 5.91D-04
 ErrMax= 5.91D-04  0.00D+00 EMaxC= 1.00D-01 BMatC= 1.31D-04 BMatP= 1.31D-04
 IDIUse=3 WtCom= 9.94D-01 WtEn= 5.91D-03
 Coeff-Com:  0.100D+01
 Coeff-En:   0.100D+01
 Coeff:      0.100D+01
 Gap=     0.607 Goal=   None    Shift=    0.000
 RMSDP=1.05D-04 MaxDP=4.54D-03              OVMax= 3.52D-03

 Cycle   2  Pass 0  IDiag  1:
 RMSU=  1.05D-04    CP:  1.00D+00
 E= -388.651239092385     Delta-E=       -0.000179996330 Rises=F Damp=F
 DIIS: error= 4.82D-05 at cycle   2 NSaved=   2.
 NSaved= 2 IEnMin= 2 EnMin= -388.651239092385     IErMin= 2 ErrMin= 4.82D-05
 ErrMax= 4.82D-05  0.00D+00 EMaxC= 1.00D-01 BMatC= 1.32D-06 BMatP= 1.31D-04
 IDIUse=1 WtCom= 1.00D+00 WtEn= 0.00D+00
 Coeff-Com: -0.620D-01 0.106D+01
 Coeff:     -0.620D-01 0.106D+01
 Gap=     0.216 Goal=   None    Shift=    0.000
 RMSDP=7.06D-06 MaxDP=2.63D-04 DE=-1.80D-04 OVMax= 4.77D-04

 Initial convergence to 1.0D-05 achieved.  Increase integral accuracy.
 Cycle   3  Pass 1  IDiag  1:
 E= -388.651231645574     Delta-E=        0.000007446811 Rises=F Damp=F
 DIIS: error= 9.65D-05 at cycle   1 NSaved=   1.
 NSaved= 1 IEnMin= 1 EnMin= -388.651231645574     IErMin= 1 ErrMin= 9.65D-05
 ErrMax= 9.65D-05  0.00D+00 EMaxC= 1.00D-01 BMatC= 2.37D-06 BMatP= 2.37D-06
 IDIUse=1 WtCom= 1.00D+00 WtEn= 0.00D+00
 Coeff-Com:  0.100D+01
 Coeff:      0.100D+01
 Gap=     0.216 Goal=   None    Shift=    0.000
 RMSDP=7.06D-06 MaxDP=2.63D-04 DE= 7.45D-06 OVMax= 3.38D-04

 Cycle   4  Pass 1  IDiag  1:
 RMSU=  9.95D-05    CP:  1.00D+00
 E= -388.651232403266     Delta-E=       -0.000000757692 Rises=F Damp=F
 DIIS: error= 4.45D-05 at cycle   2 NSaved=   2.
 NSaved= 2 IEnMin= 2 EnMin= -388.651232403266     IErMin= 2 ErrMin= 4.45D-05
 ErrMax= 4.45D-05  0.00D+00 EMaxC= 1.00D-01 BMatC= 8.02D-07 BMatP= 2.37D-06
 IDIUse=1 WtCom= 1.00D+00 WtEn= 0.00D+00
 Coeff-Com:  0.304D+00 0.696D+00
 Coeff:      0.304D+00 0.696D+00
 Gap=     0.216 Goal=   None    Shift=    0.000
 RMSDP=6.07D-06 MaxDP=6.55D-04 DE=-7.58D-07 OVMax= 4.80D-04

 Cycle   5  Pass 1  IDiag  1:
 RMSU=  5.92D-06    CP:  1.00D+00  1.01D+00
 E= -388.651232189491     Delta-E=        0.000000213775 Rises=F Damp=F
 DIIS: error= 5.72D-05 at cycle   3 NSaved=   3.
 NSaved= 3 IEnMin= 2 EnMin= -388.651232403266     IErMin= 2 ErrMin= 4.45D-05
 ErrMax= 5.72D-05  0.00D+00 EMaxC= 1.00D-01 BMatC= 1.13D-06 BMatP= 8.02D-07
 IDIUse=1 WtCom= 1.00D+00 WtEn= 0.00D+00
 Coeff-Com:  0.171D-01 0.538D+00 0.445D+00
 Coeff:      0.171D-01 0.538D+00 0.445D+00
 Gap=     0.216 Goal=   None    Shift=    0.000
 RMSDP=3.31D-06 MaxDP=3.64D-04 DE= 2.14D-07 OVMax= 2.85D-04

 Cycle   6  Pass 1  IDiag  1:
 RMSU=  9.30D-07    CP:  1.00D+00  1.02D+00  4.86D-01
 E= -388.651233032351     Delta-E=       -0.000000842860 Rises=F Damp=F
 DIIS: error= 5.92D-06 at cycle   4 NSaved=   4.
 NSaved= 4 IEnMin= 4 EnMin= -388.651233032351     IErMin= 4 ErrMin= 5.92D-06
 ErrMax= 5.92D-06  0.00D+00 EMaxC= 1.00D-01 BMatC= 1.26D-08 BMatP= 8.02D-07
 IDIUse=1 WtCom= 1.00D+00 WtEn= 0.00D+00
 Coeff-Com:  0.273D-04 0.253D+00 0.226D+00 0.521D+00
 Coeff:      0.273D-04 0.253D+00 0.226D+00 0.521D+00
 Gap=     0.216 Goal=   None    Shift=    0.000
 RMSDP=4.11D-07 MaxDP=1.13D-05 DE=-8.43D-07 OVMax= 4.01D-05

 Cycle   7  Pass 1  IDiag  1:
 RMSU=  2.57D-07    CP:  1.00D+00  1.02D+00  4.88D-01  6.58D-01
 E= -388.651233043464     Delta-E=       -0.000000011113 Rises=F Damp=F
 DIIS: error= 1.89D-06 at cycle   5 NSaved=   5.
 NSaved= 5 IEnMin= 5 EnMin= -388.651233043464     IErMin= 5 ErrMin= 1.89D-06
 ErrMax= 1.89D-06  0.00D+00 EMaxC= 1.00D-01 BMatC= 1.45D-09 BMatP= 1.26D-08
 IDIUse=1 WtCom= 1.00D+00 WtEn= 0.00D+00
 Coeff-Com: -0.859D-03 0.130D+00 0.117D+00 0.323D+00 0.430D+00
 Coeff:     -0.859D-03 0.130D+00 0.117D+00 0.323D+00 0.430D+00
 Gap=     0.216 Goal=   None    Shift=    0.000
 RMSDP=9.08D-08 MaxDP=5.27D-06 DE=-1.11D-08 OVMax= 1.92D-05

 Cycle   8  Pass 1  IDiag  1:
 RMSU=  7.72D-08    CP:  1.00D+00  1.02D+00  4.83D-01  6.81D-01  8.86D-01
 E= -388.651233044771     Delta-E=       -0.000000001307 Rises=F Damp=F
 DIIS: error= 3.98D-07 at cycle   6 NSaved=   6.
 NSaved= 6 IEnMin= 6 EnMin= -388.651233044771     IErMin= 6 ErrMin= 3.98D-07
 ErrMax= 3.98D-07  0.00D+00 EMaxC= 1.00D-01 BMatC= 6.61D-11 BMatP= 1.45D-09
 IDIUse=1 WtCom= 1.00D+00 WtEn= 0.00D+00
 Coeff-Com: -0.447D-03 0.472D-01 0.430D-01 0.128D+00 0.234D+00 0.548D+00
 Coeff:     -0.447D-03 0.472D-01 0.430D-01 0.128D+00 0.234D+00 0.548D+00
 Gap=     0.216 Goal=   None    Shift=    0.000
 RMSDP=2.50D-08 MaxDP=9.98D-07 DE=-1.31D-09 OVMax= 3.06D-06

 Cycle   9  Pass 1  IDiag  1:
 RMSU=  1.73D-08    CP:  1.00D+00  1.02D+00  4.84D-01  6.88D-01  8.88D-01
                    CP:  8.24D-01
 E= -388.651233044837     Delta-E=       -0.000000000066 Rises=F Damp=F
 DIIS: error= 4.95D-08 at cycle   7 NSaved=   7.
 NSaved= 7 IEnMin= 7 EnMin= -388.651233044837     IErMin= 7 ErrMin= 4.95D-08
 ErrMax= 4.95D-08  0.00D+00 EMaxC= 1.00D-01 BMatC= 1.90D-12 BMatP= 6.61D-11
 IDIUse=1 WtCom= 1.00D+00 WtEn= 0.00D+00
 Coeff-Com: -0.110D-03 0.930D-02 0.854D-02 0.281D-01 0.636D-01 0.209D+00
 Coeff-Com:  0.681D+00
 Coeff:     -0.110D-03 0.930D-02 0.854D-02 0.281D-01 0.636D-01 0.209D+00
 Coeff:      0.681D+00
 Gap=     0.216 Goal=   None    Shift=    0.000
 RMSDP=6.15D-09 MaxDP=3.24D-07 DE=-6.57D-11 OVMax= 3.71D-07

 SCF Done:  E(RB3LYP) =  -388.651233045     A.U. after    9 cycles
            NFock=  9  Conv=0.62D-08     -V/T= 2.0053
 KE= 3.865947566220D+02 PE=-1.761003341538D+03 EE= 5.568927264756D+02
 Leave Link  502 at Tue Jun  4 00:15:49 2024, MaxMem= 13421772800 cpu:             738.6 elap:              23.1
 (Enter /tmpu/scunam/7/gaussian-2016.03/g1/g16/l508.exe)
 QCSCF skips out because SCF is already converged.
 Leave Link  508 at Tue Jun  4 00:15:49 2024, MaxMem= 13421772800 cpu:               1.1 elap:               0.1
 (Enter /tmpu/scunam/7/gaussian-2016.03/g1/g16/l701.exe)
 ... and contract with generalized density number  0.
 Compute integral first derivatives.
   1 Symmetry operations used in ECPInt.
 ECPInt:  NShTT=   12090 NPrTT=   35220 LenC2=   11307 LenP2D=   25536.
 LDataN:  DoStor=T MaxTD1= 7 Len=  274
 Leave Link  701 at Tue Jun  4 00:15:49 2024, MaxMem= 13421772800 cpu:               8.5 elap:               0.3
 (Enter /tmpu/scunam/7/gaussian-2016.03/g1/g16/l702.exe)
 L702 exits ... SP integral derivatives will be done elsewhere.
 Leave Link  702 at Tue Jun  4 00:15:49 2024, MaxMem= 13421772800 cpu:               1.7 elap:               0.1
 (Enter /tmpu/scunam/7/gaussian-2016.03/g1/g16/l703.exe)
 Integral derivatives from FoFJK, PRISM(SPDF).
 Compute integral first derivatives, UseDBF=F ICtDFT=           0.
 Calling FoFJK, ICntrl=      2127 FMM=F ISym2X=0 I1Cent= 0 IOpClX= 0 NMat=1 NMatS=1 NMatT=0.
 FoFJK:  IHMeth= 1 ICntrl=    2127 DoSepK=F KAlg= 0 I1Cent=           0 FoldK=F
 IRaf=         0 NMat=       1 IRICut=       1 DoRegI=T DoRafI=F ISym2E= 0 IDoP0=0 IntGTp=1.
 FoFCou: FMM=F IPFlag=           0 FMFlag=      100000 FMFlg1=         800
         NFxFlg=           0 DoJE=F BraDBF=F KetDBF=F FulRan=T
         wScrn=  0.000000 ICntrl=      2127 IOpCl=  0 I1Cent=           0 NGrid=           0
         NMat0=    1 NMatS0=      1 NMatT0=    0 NMatD0=    1 NMtDS0=    0 NMtDT0=    0
 Symmetry not used in FoFCou.
 Leave Link  703 at Tue Jun  4 00:16:00 2024, MaxMem= 13421772800 cpu:             330.1 elap:              10.4
 (Enter /tmpu/scunam/7/gaussian-2016.03/g1/g16/l716.exe)
 Dipole        =-2.93794424D-01-8.32137889D-01 6.23942072D-01
 ***** Axes restored to original set *****
 -------------------------------------------------------------------
 Center     Atomic                   Forces (Hartrees/Bohr)
 Number     Number              X              Y              Z
 -------------------------------------------------------------------
      1        8          -0.000012236    0.000053685    0.000074281
      2        6           0.000025912    0.000044282   -0.000052680
      3        6          -0.000038183    0.000018662   -0.000067988
      4        6           0.000027707   -0.000057601    0.000064601
      5        6           0.000000458    0.000035435   -0.000029282
      6        6           0.000034757   -0.000056083   -0.000083868
      7        6          -0.000002381   -0.000012704    0.000001621
      8        6           0.000032037    0.000031387   -0.000009115
      9        6           0.000015890   -0.000050202   -0.000038495
     10        1           0.000032922   -0.000034733    0.000039734
     11        1          -0.000012591   -0.000011252    0.000030396
     12        1           0.000032960   -0.000013592    0.000014361
     13        1          -0.000022316   -0.000017484    0.000053881
     14        1          -0.000005280    0.000013560   -0.000006678
     15        1          -0.000003060   -0.000007526   -0.000002246
     16        1          -0.000013496   -0.000003070   -0.000022200
     17        1           0.000010600    0.000009709   -0.000000218
     18        1          -0.000050390   -0.000011761   -0.000001360
     19        1          -0.000001849    0.000003033    0.000001251
     20        1          -0.000031234    0.000020848    0.000005481
     21        1          -0.000013804    0.000035364    0.000018897
     22        1          -0.000004774   -0.000000328    0.000004010
     23        1          -0.000001648    0.000010371    0.000005614
 -------------------------------------------------------------------
 Cartesian Forces:  Max     0.000083868 RMS     0.000030988
 Leave Link  716 at Tue Jun  4 00:16:00 2024, MaxMem= 13421772800 cpu:               0.7 elap:               0.0
 (Enter /tmpu/scunam/7/gaussian-2016.03/g1/g16/l103.exe)

 GradGradGradGradGradGradGradGradGradGradGradGradGradGradGradGradGradGrad
 Berny optimization.
 Using GEDIIS/GDIIS optimizer.
 FormGI is forming the generalized inverse of G from B-inverse, IUseBI=4.
 GSVD:  received Info=                   1 from GESDD.
 Internal  Forces:  Max     0.000128464 RMS     0.000025729
 Search for a local minimum.
 Step number  15 out of a maximum of  138
 All quantities printed in internal units (Hartrees-Bohrs-Radians)
 RMS Force = .25729D-04 SwitMx=.10000D-02 MixMth= 2
 Mixed Optimization -- En-DIIS/RFO-DIIS
 Swapping is turned off.
 Update second derivatives using D2CorX and points    4    5    6    7    8
                                                      9   10   11   12   13
                                                     14   15
 DE= -7.00D-07 DEPred=-4.40D-07 R= 1.59D+00
 Trust test= 1.59D+00 RLast= 4.97D-02 DXMaxT set to 6.57D-01
 ITU=  0  0  0  0  0  0  1  1  1  1  1 -1  1  1  0
     Eigenvalues ---    0.00010   0.00121   0.00170   0.00550   0.00595
     Eigenvalues ---    0.00940   0.01405   0.01704   0.02896   0.02925
     Eigenvalues ---    0.03975   0.04253   0.05191   0.05542   0.06923
     Eigenvalues ---    0.07033   0.07080   0.07206   0.07354   0.07574
     Eigenvalues ---    0.09347   0.09943   0.12894   0.13439   0.15898
     Eigenvalues ---    0.15922   0.15998   0.16007   0.16017   0.16061
     Eigenvalues ---    0.16176   0.16244   0.16281   0.16510   0.21718
     Eigenvalues ---    0.22315   0.22833   0.24992   0.25229   0.25544
     Eigenvalues ---    0.29824   0.30820   0.30934   0.31312   0.31917
     Eigenvalues ---    0.33044   0.33817   0.33973   0.34122   0.34187
     Eigenvalues ---    0.34238   0.34251   0.34270   0.34283   0.34372
     Eigenvalues ---    0.34460   0.34507   0.34557   0.34878   0.35825
     Eigenvalues ---    0.42310   0.65023   0.96263
 En-DIIS/RFO-DIIS/Sim-DIIS IScMMF=       -3 using points:    15   14   13   12   11   10    9    8    7    6
 RFO step:  Lambda=-2.09109746D-06.
 NNeg= 0 NGDIIS=10 SimSw=  2.50D-01 Rises=F DC= -7.00D-07 SmlDif=  1.00D-05
 NRisDI= 0 DoIntr=F SqrtH=F CThrHd= 10.0 CDAdj=  3.0
 RMS Error=  0.1192914463D-01 NUsed=10 OKEnD=F EnDIS=F
 InvSVX:  RCond= 8.72D-11 Info=           0 Equed=N FErr=  1.58D-07 BErr=  6.71D-17
 DIIS inversion failure, remove point  10.
 InvSVX:  RCond= 2.76D-10 Info=           0 Equed=N FErr=  5.13D-08 BErr=  3.06D-17
 DIIS inversion failure, remove point   9.
 InvSVX:  RCond= 3.13D-10 Info=           0 Equed=N FErr=  5.25D-08 BErr=  6.88D-17
 DIIS inversion failure, remove point   8.
 InvSVX:  RCond= 4.61D-10 Info=           0 Equed=N FErr=  3.66D-08 BErr=  6.51D-17
 DIIS inversion failure, remove point   7.
 InvSVX:  RCond= 5.90D-10 Info=           0 Equed=N FErr=  2.34D-08 BErr=  4.23D-17
 DIIS inversion failure, remove point   6.
 InvSVX:  RCond= 1.49D-08 Info=           0 Equed=N FErr=  1.73D-09 BErr=  6.56D-17
 DIIS inversion failure, remove point   5.
 InvSVX:  RCond= 2.79D-08 Info=           0 Equed=N FErr=  4.70D-10 BErr=  2.04D-17
 DIIS inversion failure, remove point   4.
 InvSVX:  RCond= 4.78D-07 Info=           0 Equed=N FErr=  2.07D-11 BErr=  8.05D-17
 Old DIIS coefficients:      3.93373     -3.34075      0.40703      0.00000      0.00000
 Old DIIS coefficients:      0.00000      0.00000      0.00000      0.00000      0.00000
 RFO-DIIS uses    3 points instead of   10
 DidBck=F Rises=F RFO-DIIS coefs:    2.71869   -2.00000    0.28131    0.00000    0.00000
                  RFO-DIIS coefs:    0.00000    0.00000    0.00000    0.00000    0.00000
 Iteration  1 RMS(Cart)=  0.02404426 RMS(Int)=  0.00060778
 Iteration  2 RMS(Cart)=  0.00064686 RMS(Int)=  0.00000152
 Iteration  3 RMS(Cart)=  0.00000031 RMS(Int)=  0.00000150
 ITry= 1 IFail=0 DXMaxC= 1.28D-01 DCOld= 1.00D+10 DXMaxT= 6.57D-01 DXLimC= 3.00D+00 Rises=F
 Variable       Old X    -DE/DX   Delta X   Delta X   Delta X     New X
                                 (Linear)    (Quad)   (Total)
    R1        2.28563  -0.00009   0.00010   0.00003   0.00013   2.28576
    R2        2.89267  -0.00002   0.00011   0.00003   0.00014   2.89281
    R3        2.83540   0.00003   0.00018   0.00012   0.00030   2.83569
    R4        2.05845  -0.00005   0.00018   0.00009   0.00027   2.05873
    R5        2.06784  -0.00000  -0.00017  -0.00010  -0.00027   2.06757
    R6        2.87148   0.00002   0.00007   0.00004   0.00012   2.87160
    R7        2.07285   0.00002   0.00004   0.00006   0.00010   2.07295
    R8        2.07098   0.00000  -0.00015  -0.00009  -0.00024   2.07074
    R9        2.52437   0.00009  -0.00009  -0.00004  -0.00013   2.52425
   R10        2.05758  -0.00001   0.00001  -0.00001  -0.00000   2.05757
   R11        2.84549  -0.00000   0.00002   0.00002   0.00004   2.84554
   R12        2.84291   0.00003   0.00004   0.00003   0.00007   2.84298
   R13        2.86295  -0.00001  -0.00006  -0.00005  -0.00010   2.86285
   R14        2.06919   0.00001  -0.00006  -0.00003  -0.00009   2.06910
   R15        2.06928  -0.00001   0.00001  -0.00001   0.00000   2.06928
   R16        2.06013  -0.00000   0.00003   0.00001   0.00004   2.06017
   R17        2.05570  -0.00004   0.00010   0.00004   0.00014   2.05584
   R18        2.06869   0.00000  -0.00003  -0.00002  -0.00005   2.06864
   R19        2.06889   0.00001  -0.00003  -0.00001  -0.00004   2.06885
   R20        2.06500   0.00000  -0.00023  -0.00015  -0.00038   2.06462
   R21        2.05559  -0.00001   0.00008   0.00004   0.00012   2.05571
   R22        2.06593   0.00001   0.00016   0.00013   0.00030   2.06623
    A1        1.95717   0.00002  -0.00004   0.00001  -0.00003   1.95713
    A2        1.90430  -0.00002   0.00020   0.00007   0.00028   1.90458
    A3        1.88843  -0.00001  -0.00009  -0.00007  -0.00017   1.88827
    A4        1.95261   0.00001  -0.00044  -0.00024  -0.00069   1.95192
    A5        1.91332  -0.00001   0.00034   0.00018   0.00052   1.91384
    A6        1.84354   0.00001   0.00005   0.00006   0.00011   1.84365
    A7        1.99668  -0.00001   0.00008   0.00004   0.00012   1.99680
    A8        1.93166   0.00002  -0.00068  -0.00042  -0.00110   1.93055
    A9        1.93216  -0.00000   0.00043   0.00037   0.00080   1.93296
   A10        1.87699  -0.00002  -0.00101  -0.00084  -0.00185   1.87514
   A11        1.88802   0.00002   0.00086   0.00071   0.00156   1.88958
   A12        1.82990  -0.00002   0.00034   0.00014   0.00048   1.83038
   A13        2.24558   0.00004   0.00002  -0.00002   0.00000   2.24558
   A14        1.99739  -0.00001  -0.00015  -0.00004  -0.00020   1.99719
   A15        2.04021  -0.00003   0.00013   0.00006   0.00019   2.04041
   A16        2.10857  -0.00005   0.00018   0.00008   0.00027   2.10884
   A17        2.17945   0.00013  -0.00027  -0.00009  -0.00035   2.17910
   A18        1.99515  -0.00007   0.00008   0.00000   0.00009   1.99524
   A19        2.13221   0.00002   0.00001   0.00003   0.00004   2.13225
   A20        2.12113  -0.00001  -0.00005  -0.00003  -0.00008   2.12104
   A21        2.02985  -0.00001   0.00005  -0.00000   0.00004   2.02989
   A22        1.93673  -0.00000   0.00006   0.00003   0.00008   1.93681
   A23        1.93723   0.00001  -0.00013  -0.00006  -0.00019   1.93704
   A24        1.95222  -0.00001  -0.00002  -0.00002  -0.00005   1.95218
   A25        1.85796  -0.00001   0.00018   0.00007   0.00025   1.85821
   A26        1.88762   0.00001   0.00001   0.00000   0.00001   1.88763
   A27        1.88858   0.00001  -0.00008  -0.00002  -0.00010   1.88848
   A28        1.97912   0.00003  -0.00013  -0.00003  -0.00016   1.97896
   A29        1.92804  -0.00001   0.00002  -0.00000   0.00001   1.92805
   A30        1.92786   0.00000   0.00011   0.00005   0.00016   1.92801
   A31        1.88514  -0.00000  -0.00010  -0.00003  -0.00013   1.88501
   A32        1.88223  -0.00001  -0.00011  -0.00007  -0.00018   1.88205
   A33        1.85659  -0.00002   0.00024   0.00008   0.00032   1.85691
   A34        1.93104   0.00002   0.00202   0.00148   0.00349   1.93453
   A35        1.91913   0.00001   0.00001   0.00005   0.00005   1.91918
   A36        1.92013  -0.00001  -0.00205  -0.00151  -0.00356   1.91656
   A37        1.91665   0.00000   0.00103   0.00079   0.00181   1.91846
   A38        1.86581  -0.00002   0.00037   0.00017   0.00055   1.86636
   A39        1.91035  -0.00000  -0.00140  -0.00099  -0.00240   1.90794
    D1        3.07336  -0.00000  -0.00732  -0.00316  -0.01048   3.06289
    D2        0.94987   0.00001  -0.00553  -0.00176  -0.00729   0.94258
    D3       -1.07140   0.00002  -0.00580  -0.00190  -0.00770  -1.07910
    D4       -1.03659   0.00001  -0.00777  -0.00341  -0.01118  -1.04777
    D5        3.12311   0.00002  -0.00599  -0.00201  -0.00800   3.11511
    D6        1.10184   0.00003  -0.00625  -0.00215  -0.00840   1.09344
    D7        0.96104   0.00000  -0.00765  -0.00334  -0.01100   0.95005
    D8       -1.16245   0.00002  -0.00587  -0.00194  -0.00781  -1.17026
    D9        3.09947   0.00002  -0.00613  -0.00209  -0.00821   3.09125
   D10        2.06944   0.00000   0.00003   0.00028   0.00032   2.06975
   D11       -1.07157   0.00000  -0.00036   0.00003  -0.00032  -1.07189
   D12       -0.07677   0.00001   0.00013   0.00036   0.00049  -0.07628
   D13        3.06541   0.00001  -0.00026   0.00011  -0.00015   3.06526
   D14       -2.11584  -0.00000   0.00012   0.00032   0.00044  -2.11540
   D15        1.02634  -0.00000  -0.00027   0.00007  -0.00020   1.02614
   D16       -0.05017  -0.00000  -0.01389  -0.01016  -0.02405  -0.07422
   D17        3.08921  -0.00001  -0.01426  -0.01060  -0.02486   3.06435
   D18        2.10304   0.00001  -0.01547  -0.01130  -0.02677   2.07626
   D19       -1.04077  -0.00000  -0.01584  -0.01174  -0.02758  -1.06835
   D20       -2.21240  -0.00001  -0.01516  -0.01121  -0.02637  -2.23877
   D21        0.92698  -0.00002  -0.01553  -0.01165  -0.02718   0.89980
   D22        3.13782  -0.00001   0.00014  -0.00010   0.00004   3.13786
   D23        0.00329  -0.00000  -0.00005  -0.00006  -0.00011   0.00318
   D24       -0.00437  -0.00001   0.00054   0.00015   0.00069  -0.00368
   D25       -3.13891  -0.00000   0.00035   0.00019   0.00054  -3.13836
   D26       -2.11088   0.00001  -0.00383  -0.00142  -0.00526  -2.11614
   D27        2.11002   0.00002  -0.00401  -0.00149  -0.00550   2.10451
   D28       -0.00122   0.00001  -0.00380  -0.00141  -0.00522  -0.00643
   D29        1.02436   0.00001  -0.00367  -0.00146  -0.00513   1.01923
   D30       -1.03793   0.00002  -0.00384  -0.00153  -0.00537  -1.04331
   D31        3.13402   0.00001  -0.00363  -0.00145  -0.00509   3.12893
   D32       -0.03826   0.00002  -0.00322  -0.00153  -0.00475  -0.04301
   D33       -2.15718   0.00000  -0.00301  -0.00147  -0.00448  -2.16166
   D34        2.07674   0.00003  -0.00338  -0.00160  -0.00498   2.07176
   D35        3.10998   0.00002  -0.00339  -0.00149  -0.00489   3.10509
   D36        0.99107   0.00001  -0.00318  -0.00144  -0.00462   0.98645
   D37       -1.05820   0.00003  -0.00355  -0.00156  -0.00512  -1.06331
   D38       -2.18373  -0.00003  -0.02572  -0.01906  -0.04478  -2.22851
   D39       -0.06353  -0.00001  -0.02310  -0.01707  -0.04017  -0.10369
   D40        2.04176  -0.00001  -0.02615  -0.01923  -0.04537   1.99639
   D41        0.96006  -0.00002  -0.02535  -0.01862  -0.04397   0.91608
   D42        3.08026  -0.00000  -0.02273  -0.01663  -0.03936   3.04090
   D43       -1.09764  -0.00000  -0.02578  -0.01879  -0.04457  -1.14220
         Item               Value     Threshold  Converged?
 Maximum Force            0.000128     0.000450     YES
 RMS     Force            0.000026     0.000300     YES
 Maximum Displacement     0.127858     0.001800     NO 
 RMS     Displacement     0.024064     0.001200     NO 
 Predicted change in Energy=-1.048743D-06
 Lowest energy point so far.  Saving SCF results.
 GradGradGradGradGradGradGradGradGradGradGradGradGradGradGradGradGradGrad

 Leave Link  103 at Tue Jun  4 00:16:00 2024, MaxMem= 13421772800 cpu:               1.8 elap:               0.1
 (Enter /tmpu/scunam/7/gaussian-2016.03/g1/g16/l202.exe)
                          Input orientation:                          
 ---------------------------------------------------------------------
 Center     Atomic      Atomic             Coordinates (Angstroms)
 Number     Number       Type             X           Y           Z
 ---------------------------------------------------------------------
      1          8           0        2.783628   -0.446679   -1.036235
      2          6           0        0.048708   -0.485546   -0.341915
      3          6           0        1.117679    0.068448    0.603480
      4          6           0       -1.304549   -0.539427    0.304262
      5          6           0       -2.426288    0.090892   -0.054470
      6          6           0        2.528270    0.045359    0.038824
      7          6           0       -3.700104   -0.096348    0.726392
      8          6           0       -2.552879    1.016417   -1.233758
      9          6           0        3.605002    0.678445    0.896111
     10          1           0        0.038161    0.107725   -1.255577
     11          1           0        0.351071   -1.491753   -0.647212
     12          1           0        1.130925   -0.495497    1.544280
     13          1           0        0.881603    1.097783    0.895873
     14          1           0       -1.359803   -1.183194    1.180643
     15          1           0       -4.497593   -0.488836    0.087008
     16          1           0       -4.061314    0.858551    1.122318
     17          1           0       -3.566261   -0.782939    1.562579
     18          1           0       -1.616077    1.169071   -1.765389
     19          1           0       -2.923836    1.995417   -0.913968
     20          1           0       -3.284708    0.627257   -1.948978
     21          1           0        3.588403    0.266649    1.907947
     22          1           0        4.581767    0.515741    0.445726
     23          1           0        3.422795    1.752766    0.986458
 ---------------------------------------------------------------------
                    Distance matrix (angstroms):
                    1          2          3          4          5
     1  O    0.000000
     2  C    2.821946   0.000000
     3  C    2.393618   1.530810   0.000000
     4  C    4.303339   1.500584   2.515201   0.000000
     5  C    5.328797   2.557443   3.604596   1.335773   0.000000
     6  C    1.209570   2.564185   1.519583   3.886249   4.955645
     7  C    6.728177   3.917442   4.822168   2.472488   1.505792
     8  C    5.536964   3.133613   4.212729   2.518826   1.504441
     9  C    2.382125   3.941422   2.577694   5.092857   6.133946
    10  H    2.809460   1.089431   2.150115   2.157492   2.741615
    11  H    2.675977   1.094113   2.141529   2.133848   3.251128
    12  H    3.064779   2.174632   1.096957   2.733333   3.943808
    13  H    3.120273   2.175491   1.095790   2.794588   3.585963
    14  H    4.756577   2.188333   2.835074   1.088821   2.070311
    15  H    7.367471   4.566491   5.666444   3.200826   2.155552
    16  H    7.294944   4.565397   5.264544   3.197391   2.155791
    17  H    6.869352   4.096772   4.856339   2.599615   2.162860
    18  H    4.743387   2.745094   3.781049   2.701753   2.178567
    19  H    6.209181   3.913878   4.727547   3.245244   2.147907
    20  H    6.229859   3.864278   5.119407   3.218582   2.147960
    21  H    3.134439   4.261117   2.800963   5.211770   6.329177
    22  H    2.521064   4.708670   3.496407   5.981815   7.038717
    23  H    3.055712   4.261347   2.880479   5.297860   6.169046
                    6          7          8          9         10
     6  C    0.000000
     7  C    6.267812   0.000000
     8  C    5.327334   2.529142   0.000000
     9  C    1.514956   7.348040   6.524574   0.000000
    10  H    2.807134   4.236092   2.745849   4.204502   0.000000
    11  H    2.752008   4.499552   3.881737   4.204720   1.739641
    12  H    2.124028   4.916005   4.855285   2.814129   3.065487
    13  H    2.133926   4.737797   4.041982   2.755494   2.514030
    14  H    4.234407   2.620036   3.477219   5.309986   3.091268
    15  H    7.046306   1.094919   2.791437   8.226132   4.767755
    16  H    6.727395   1.095017   2.802033   7.671767   4.798314
    17  H    6.336498   1.090197   3.476222   7.348935   4.661238
    18  H    4.657630   3.486176   1.087903   5.880813   2.030484
    19  H    5.868219   2.769270   1.094676   6.901922   3.528952
    20  H    6.170954   2.802457   1.094787   7.454211   3.433974
    21  H    2.160202   7.392576   6.938862   1.092549   4.757873
    22  H    2.145619   8.309201   7.346735   1.087837   4.868805
    23  H    2.147889   7.363596   6.417184   1.093401   4.380482
                   11         12         13         14         15
    11  H    0.000000
    12  H    2.530481   0.000000
    13  H    3.060763   1.738141   0.000000
    14  H    2.522569   2.609384   3.210584   0.000000
    15  H    5.005444   5.814112   5.666337   3.394686   0.000000
    16  H    5.303235   5.382456   4.953881   3.386780   1.754325
    17  H    4.553140   4.706008   4.874947   2.274761   1.769515
    18  H    3.492846   4.612018   3.650452   3.778614   3.805675
    19  H    4.791297   5.356185   4.308438   4.115478   3.106474
    20  H    4.404962   5.741188   5.066826   4.096037   2.619541
    21  H    4.483429   2.598523   3.006966   5.207280   8.322855
    22  H    4.808672   3.760018   3.772614   6.223242   9.141807
    23  H    4.757233   3.258607   2.625807   5.615230   8.280479
                   16         17         18         19         20
    16  H    0.000000
    17  H    1.770139   0.000000
    18  H    3.796637   4.323069   0.000000
    19  H    2.594761   3.776937   1.765785   0.000000
    20  H    3.176393   3.794595   1.763972   1.753093   0.000000
    21  H    7.712699   7.239484   6.433846   7.304868   7.889586
    22  H    8.676297   8.326121   6.612801   7.769960   8.223653
    23  H    7.538565   7.457118   5.770926   6.629497   7.407709
                   21         22         23
    21  H    0.000000
    22  H    1.785192   0.000000
    23  H    1.756448   1.779280   0.000000
 Stoichiometry    C8H14O
 Framework group  C1[X(C8H14O)]
 Deg. of freedom    63
 Full point group                 C1      NOp   1
 RotChk:  IX=0 Diff= 2.70D-03
 Largest Abelian subgroup         C1      NOp   1
 Largest concise Abelian subgroup C1      NOp   1
                         Standard orientation:                         
 ---------------------------------------------------------------------
 Center     Atomic      Atomic             Coordinates (Angstroms)
 Number     Number       Type             X           Y           Z
 ---------------------------------------------------------------------
      1          8           0        2.760159    1.058348   -0.678892
      2          6           0        0.054450    0.260127   -0.605674
      3          6           0        1.156363   -0.544065    0.088909
      4          6           0       -1.272442   -0.438914   -0.556140
      5          6           0       -2.410516   -0.029837    0.011074
      6          6           0        2.544105    0.064690   -0.023892
      7          6           0       -3.652110   -0.879615   -0.050020
      8          6           0       -2.587552    1.274239    0.740037
      9          6           0        3.649945   -0.639836    0.734958
     10          1           0        0.005399    1.254462   -0.163237
     11          1           0        0.349994    0.415295   -1.647624
     12          1           0        1.209009   -1.560473   -0.320307
     13          1           0        0.926434   -0.680277    1.151610
     14          1           0       -1.290323   -1.406959   -1.054239
     15          1           0       -4.471728   -0.341439   -0.537299
     16          1           0       -4.002674   -1.134573    0.955546
     17          1           0       -3.482374   -1.807321   -0.596901
     18          1           0       -1.672871    1.859461    0.806430
     19          1           0       -2.950933    1.097816    1.757457
     20          1           0       -3.344517    1.890342    0.244073
     21          1           0        3.674730   -1.703631    0.487188
     22          1           0        4.609351   -0.182725    0.502627
     23          1           0        3.465777   -0.567496    1.810307
 ---------------------------------------------------------------------
 Rotational constants (GHZ):           4.0697179           0.5806276           0.5561489
 Leave Link  202 at Tue Jun  4 00:16:00 2024, MaxMem= 13421772800 cpu:               2.7 elap:               0.1
 (Enter /tmpu/scunam/7/gaussian-2016.03/g1/g16/l301.exe)
 Standard basis: def2TZVP (5D, 7F)
 Ernie: Thresh=  0.10000D-02 Tol=  0.10000D-05 Strict=F.
 There are   408 symmetry adapted cartesian basis functions of A   symmetry.
 There are   363 symmetry adapted basis functions of A   symmetry.
   363 basis functions,   571 primitive gaussians,   408 cartesian basis functions
    35 alpha electrons       35 beta electrons
       nuclear repulsion energy       428.8273050969 Hartrees.
 IExCor=  402 DFT=T Ex+Corr=B3LYP ExCW=0 ScaHFX=  0.200000
 ScaDFX=  0.800000  0.720000  1.000000  0.810000 ScalE2=  1.000000  1.000000
 IRadAn=      5 IRanWt=     -1 IRanGd=            0 ICorTp=0 IEmpDi=  4
 NAtoms=   23 NActive=   23 NUniq=   23 SFac= 1.00D+00 NAtFMM=   60 NAOKFM=F Big=F
 Integral buffers will be    131072 words long.
 Raffenetti 2 integral format.
 Two-electron integral symmetry is turned on.
 Leave Link  301 at Tue Jun  4 00:16:00 2024, MaxMem= 13421772800 cpu:               2.5 elap:               0.1
 (Enter /tmpu/scunam/7/gaussian-2016.03/g1/g16/l302.exe)
 NPDir=0 NMtPBC=     1 NCelOv=     1 NCel=       1 NClECP=     1 NCelD=      1
         NCelK=      1 NCelE2=     1 NClLst=     1 CellRange=     0.0.
 One-electron integrals computed using PRISM.
 One-electron integral symmetry used in STVInt
   1 Symmetry operations used in ECPInt.
 ECPInt:  NShTT=   12090 NPrTT=   35220 LenC2=   11307 LenP2D=   25536.
 LDataN:  DoStor=T MaxTD1= 6 Len=  172
 NBasis=   363 RedAO= T EigKep=  7.80D-05  NBF=   363
 NBsUse=   363 1.00D-06 EigRej= -1.00D+00 NBFU=   363
 Precomputing XC quadrature grid using
 IXCGrd= 4 IRadAn=           5 IRanWt=          -1 IRanGd=           0 AccXCQ= 0.00D+00.
 Generated NRdTot=       0 NPtTot=           0 NUsed=           0 NTot=          32
 NSgBfM=   405   405   405   405   405 MxSgAt=    23 MxSgA2=    23.
 Leave Link  302 at Tue Jun  4 00:16:01 2024, MaxMem= 13421772800 cpu:              11.7 elap:               0.4
 (Enter /tmpu/scunam/7/gaussian-2016.03/g1/g16/l303.exe)
 DipDrv:  MaxL=1.
 Leave Link  303 at Tue Jun  4 00:16:01 2024, MaxMem= 13421772800 cpu:               3.3 elap:               0.1
 (Enter /tmpu/scunam/7/gaussian-2016.03/g1/g16/l401.exe)
 Initial guess from the checkpoint file:  "S36.chk"
 B after Tr=    -0.000000    0.000000   -0.000000
         Rot=    0.999999    0.000960    0.000150    0.000237 Ang=   0.11 deg.
 Guess basis will be translated and rotated to current coordinates.
 JPrj=2 DoOrth=T DoCkMO=T.
 Generating alternative initial guess.
 ExpMin= 9.52D-02 ExpMax= 2.70D+04 ExpMxC= 9.22D+02 IAcc=2 IRadAn=         4 AccDes= 0.00D+00
 Harris functional with IExCor=  402 and IRadAn=       4 diagonalized for initial guess.
 HarFok:  IExCor=  402 AccDes= 0.00D+00 IRadAn=         4 IDoV= 1 UseB2=F ITyADJ=14
 ICtDFT=  3500011 ScaDFX=  1.000000  1.000000  1.000000  1.000000
 FoFCou: FMM=F IPFlag=           0 FMFlag=      100000 FMFlg1=           0
         NFxFlg=           0 DoJE=T BraDBF=F KetDBF=T FulRan=T
         wScrn=  0.000000 ICntrl=       500 IOpCl=  0 I1Cent=   200000004 NGrid=           0
         NMat0=    1 NMatS0=      1 NMatT0=    0 NMatD0=    1 NMtDS0=    0 NMtDT0=    0
 Petite list used in FoFCou.
 Harris En= -388.761697159399    
 Leave Link  401 at Tue Jun  4 00:16:02 2024, MaxMem= 13421772800 cpu:              27.2 elap:               0.9
 (Enter /tmpu/scunam/7/gaussian-2016.03/g1/g16/l502.exe)
 Integral symmetry usage will be decided dynamically.
 Closed shell SCF:
 Using DIIS extrapolation, IDIIS=  1040.
 NGot= 13421772800 LenX= 13421422965 LenY= 13421256060
 Requested convergence on RMS density matrix=1.00D-08 within 128 cycles.
 Requested convergence on MAX density matrix=1.00D-06.
 Requested convergence on             energy=1.00D-06.
 No special actions if energy rises.
 Fock matrices will be formed incrementally for  20 cycles.
 Integral accuracy reduced to 1.0D-05 until final iterations.

 Cycle   1  Pass 0  IDiag  1:
 FoFJK:  IHMeth= 1 ICntrl=       0 DoSepK=F KAlg= 0 I1Cent=           0 FoldK=F
 IRaf= 890000000 NMat=       1 IRICut=       1 DoRegI=T DoRafI=F ISym2E= 0 IDoP0=0 IntGTp=1.
 FoFCou: FMM=F IPFlag=           0 FMFlag=      100000 FMFlg1=           0
         NFxFlg=           0 DoJE=F BraDBF=F KetDBF=F FulRan=T
         wScrn=  0.000000 ICntrl=         0 IOpCl=  0 I1Cent=           0 NGrid=           0
         NMat0=    1 NMatS0=      1 NMatT0=    0 NMatD0=    1 NMtDS0=    0 NMtDT0=    0
 Symmetry not used in FoFCou.
 E= -388.650119295972    
 DIIS: error= 1.29D-03 at cycle   1 NSaved=   1.
 NSaved= 1 IEnMin= 1 EnMin= -388.650119295972     IErMin= 1 ErrMin= 1.29D-03
 ErrMax= 1.29D-03  0.00D+00 EMaxC= 1.00D-01 BMatC= 7.96D-04 BMatP= 7.96D-04
 IDIUse=3 WtCom= 9.87D-01 WtEn= 1.29D-02
 Coeff-Com:  0.100D+01
 Coeff-En:   0.100D+01
 Coeff:      0.100D+01
 Gap=     0.607 Goal=   None    Shift=    0.000
 GapD=    0.607 DampG=2.000 DampE=1.000 DampFc=2.0000 IDamp=-1.
 RMSDP=1.33D-04 MaxDP=4.62D-03              OVMax= 9.03D-03

 Cycle   2  Pass 0  IDiag  1:
 RMSU=  1.33D-04    CP:  9.99D-01
 E= -388.651228577523     Delta-E=       -0.001109281552 Rises=F Damp=F
 DIIS: error= 1.19D-04 at cycle   2 NSaved=   2.
 NSaved= 2 IEnMin= 2 EnMin= -388.651228577523     IErMin= 2 ErrMin= 1.19D-04
 ErrMax= 1.19D-04  0.00D+00 EMaxC= 1.00D-01 BMatC= 8.06D-06 BMatP= 7.96D-04
 IDIUse=3 WtCom= 9.99D-01 WtEn= 1.19D-03
 Coeff-Com: -0.629D-01 0.106D+01
 Coeff-En:   0.000D+00 0.100D+01
 Coeff:     -0.629D-01 0.106D+01
 Gap=     0.216 Goal=   None    Shift=    0.000
 RMSDP=1.50D-05 MaxDP=8.06D-04 DE=-1.11D-03 OVMax= 1.19D-03

 Cycle   3  Pass 0  IDiag  1:
 RMSU=  1.32D-05    CP:  9.99D-01  1.05D+00
 E= -388.651240977551     Delta-E=       -0.000012400027 Rises=F Damp=F
 DIIS: error= 6.18D-05 at cycle   3 NSaved=   3.
 NSaved= 3 IEnMin= 3 EnMin= -388.651240977551     IErMin= 3 ErrMin= 6.18D-05
 ErrMax= 6.18D-05  0.00D+00 EMaxC= 1.00D-01 BMatC= 2.22D-06 BMatP= 8.06D-06
 IDIUse=1 WtCom= 1.00D+00 WtEn= 0.00D+00
 Coeff-Com: -0.262D-01 0.389D+00 0.637D+00
 Coeff:     -0.262D-01 0.389D+00 0.637D+00
 Gap=     0.216 Goal=   None    Shift=    0.000
 RMSDP=8.87D-06 MaxDP=9.59D-04 DE=-1.24D-05 OVMax= 6.44D-04

 Initial convergence to 1.0D-05 achieved.  Increase integral accuracy.
 Cycle   4  Pass 1  IDiag  1:
 E= -388.651232038975     Delta-E=        0.000008938576 Rises=F Damp=F
 DIIS: error= 9.48D-05 at cycle   1 NSaved=   1.
 NSaved= 1 IEnMin= 1 EnMin= -388.651232038975     IErMin= 1 ErrMin= 9.48D-05
 ErrMax= 9.48D-05  0.00D+00 EMaxC= 1.00D-01 BMatC= 3.72D-06 BMatP= 3.72D-06
 IDIUse=1 WtCom= 1.00D+00 WtEn= 0.00D+00
 Coeff-Com:  0.100D+01
 Coeff:      0.100D+01
 Gap=     0.216 Goal=   None    Shift=    0.000
 RMSDP=8.87D-06 MaxDP=9.59D-04 DE= 8.94D-06 OVMax= 1.07D-03

 Cycle   5  Pass 1  IDiag  1:
 RMSU=  9.99D-05    CP:  1.00D+00
 E= -388.651228478079     Delta-E=        0.000003560896 Rises=F Damp=F
 DIIS: error= 1.53D-04 at cycle   2 NSaved=   2.
 NSaved= 2 IEnMin= 1 EnMin= -388.651232038975     IErMin= 1 ErrMin= 9.48D-05
 ErrMax= 1.53D-04  0.00D+00 EMaxC= 1.00D-01 BMatC= 8.06D-06 BMatP= 3.72D-06
 IDIUse=3 WtCom= 4.47D-01 WtEn= 5.53D-01
 Coeff-Com:  0.615D+00 0.385D+00
 Coeff-En:   0.707D+00 0.293D+00
 Coeff:      0.666D+00 0.334D+00
 Gap=     0.216 Goal=   None    Shift=    0.000
 RMSDP=9.18D-06 MaxDP=1.03D-03 DE= 3.56D-06 OVMax= 8.04D-04

 Cycle   6  Pass 1  IDiag  1:
 RMSU=  9.03D-06    CP:  1.00D+00  9.97D-01
 E= -388.651234363326     Delta-E=       -0.000005885247 Rises=F Damp=F
 DIIS: error= 1.38D-05 at cycle   3 NSaved=   3.
 NSaved= 3 IEnMin= 3 EnMin= -388.651234363326     IErMin= 3 ErrMin= 1.38D-05
 ErrMax= 1.38D-05  0.00D+00 EMaxC= 1.00D-01 BMatC= 6.54D-08 BMatP= 3.72D-06
 IDIUse=1 WtCom= 1.00D+00 WtEn= 0.00D+00
 Coeff-Com:  0.569D-02 0.792D-01 0.915D+00
 Coeff:      0.569D-02 0.792D-01 0.915D+00
 Gap=     0.216 Goal=   None    Shift=    0.000
 RMSDP=1.49D-06 MaxDP=6.79D-05 DE=-5.89D-06 OVMax= 8.18D-05

 Cycle   7  Pass 1  IDiag  1:
 RMSU=  7.86D-07    CP:  1.00D+00  1.01D+00  9.52D-01
 E= -388.651234387725     Delta-E=       -0.000000024399 Rises=F Damp=F
 DIIS: error= 7.56D-06 at cycle   4 NSaved=   4.
 NSaved= 4 IEnMin= 4 EnMin= -388.651234387725     IErMin= 4 ErrMin= 7.56D-06
 ErrMax= 7.56D-06  0.00D+00 EMaxC= 1.00D-01 BMatC= 2.40D-08 BMatP= 6.54D-08
 IDIUse=1 WtCom= 1.00D+00 WtEn= 0.00D+00
 Coeff-Com: -0.202D-02 0.465D-01 0.580D+00 0.376D+00
 Coeff:     -0.202D-02 0.465D-01 0.580D+00 0.376D+00
 Gap=     0.216 Goal=   None    Shift=    0.000
 RMSDP=3.54D-07 MaxDP=1.79D-05 DE=-2.44D-08 OVMax= 7.65D-05

 Cycle   8  Pass 1  IDiag  1:
 RMSU=  2.57D-07    CP:  1.00D+00  1.01D+00  9.54D-01  6.98D-01
 E= -388.651234410943     Delta-E=       -0.000000023218 Rises=F Damp=F
 DIIS: error= 1.14D-06 at cycle   5 NSaved=   5.
 NSaved= 5 IEnMin= 5 EnMin= -388.651234410943     IErMin= 5 ErrMin= 1.14D-06
 ErrMax= 1.14D-06  0.00D+00 EMaxC= 1.00D-01 BMatC= 5.38D-10 BMatP= 2.40D-08
 IDIUse=1 WtCom= 1.00D+00 WtEn= 0.00D+00
 Coeff-Com: -0.137D-02 0.222D-01 0.279D+00 0.209D+00 0.491D+00
 Coeff:     -0.137D-02 0.222D-01 0.279D+00 0.209D+00 0.491D+00
 Gap=     0.216 Goal=   None    Shift=    0.000
 RMSDP=7.49D-08 MaxDP=3.63D-06 DE=-2.32D-08 OVMax= 8.55D-06

 Cycle   9  Pass 1  IDiag  1:
 RMSU=  6.67D-08    CP:  1.00D+00  1.01D+00  9.52D-01  6.81D-01  9.42D-01
 E= -388.651234411467     Delta-E=       -0.000000000524 Rises=F Damp=F
 DIIS: error= 1.18D-07 at cycle   6 NSaved=   6.
 NSaved= 6 IEnMin= 6 EnMin= -388.651234411467     IErMin= 6 ErrMin= 1.18D-07
 ErrMax= 1.18D-07  0.00D+00 EMaxC= 1.00D-01 BMatC= 1.13D-11 BMatP= 5.38D-10
 IDIUse=1 WtCom= 1.00D+00 WtEn= 0.00D+00
 Coeff-Com: -0.281D-03 0.370D-02 0.473D-01 0.406D-01 0.161D+00 0.747D+00
 Coeff:     -0.281D-03 0.370D-02 0.473D-01 0.406D-01 0.161D+00 0.747D+00
 Gap=     0.216 Goal=   None    Shift=    0.000
 RMSDP=1.70D-08 MaxDP=9.07D-07 DE=-5.24D-10 OVMax= 1.20D-06

 Cycle  10  Pass 1  IDiag  1:
 RMSU=  1.08D-08    CP:  1.00D+00  1.01D+00  9.53D-01  6.87D-01  9.78D-01
                    CP:  9.85D-01
 E= -388.651234411481     Delta-E=       -0.000000000013 Rises=F Damp=F
 DIIS: error= 5.90D-08 at cycle   7 NSaved=   7.
 NSaved= 7 IEnMin= 7 EnMin= -388.651234411481     IErMin= 7 ErrMin= 5.90D-08
 ErrMax= 5.90D-08  0.00D+00 EMaxC= 1.00D-01 BMatC= 2.64D-12 BMatP= 1.13D-11
 IDIUse=1 WtCom= 1.00D+00 WtEn= 0.00D+00
 Coeff-Com:  0.753D-04-0.162D-02-0.200D-01-0.119D-01 0.487D-02 0.366D+00
 Coeff-Com:  0.663D+00
 Coeff:      0.753D-04-0.162D-02-0.200D-01-0.119D-01 0.487D-02 0.366D+00
 Coeff:      0.663D+00
 Gap=     0.216 Goal=   None    Shift=    0.000
 RMSDP=6.72D-09 MaxDP=2.89D-07 DE=-1.34D-11 OVMax= 5.33D-07

 SCF Done:  E(RB3LYP) =  -388.651234411     A.U. after   10 cycles
            NFock= 10  Conv=0.67D-08     -V/T= 2.0053
 KE= 3.865942741958D+02 PE=-1.760927537435D+03 EE= 5.568547237305D+02
 Leave Link  502 at Tue Jun  4 00:16:26 2024, MaxMem= 13421772800 cpu:             785.3 elap:              24.6
 (Enter /tmpu/scunam/7/gaussian-2016.03/g1/g16/l508.exe)
 QCSCF skips out because SCF is already converged.
 Leave Link  508 at Tue Jun  4 00:16:26 2024, MaxMem= 13421772800 cpu:               0.1 elap:               0.0
 (Enter /tmpu/scunam/7/gaussian-2016.03/g1/g16/l701.exe)
 ... and contract with generalized density number  0.
 Compute integral first derivatives.
   1 Symmetry operations used in ECPInt.
 ECPInt:  NShTT=   12090 NPrTT=   35220 LenC2=   11307 LenP2D=   25536.
 LDataN:  DoStor=T MaxTD1= 7 Len=  274
 Leave Link  701 at Tue Jun  4 00:16:27 2024, MaxMem= 13421772800 cpu:               8.8 elap:               0.3
 (Enter /tmpu/scunam/7/gaussian-2016.03/g1/g16/l702.exe)
 L702 exits ... SP integral derivatives will be done elsewhere.
 Leave Link  702 at Tue Jun  4 00:16:27 2024, MaxMem= 13421772800 cpu:               1.8 elap:               0.1
 (Enter /tmpu/scunam/7/gaussian-2016.03/g1/g16/l703.exe)
 Integral derivatives from FoFJK, PRISM(SPDF).
 Compute integral first derivatives, UseDBF=F ICtDFT=           0.
 Calling FoFJK, ICntrl=      2127 FMM=F ISym2X=0 I1Cent= 0 IOpClX= 0 NMat=1 NMatS=1 NMatT=0.
 FoFJK:  IHMeth= 1 ICntrl=    2127 DoSepK=F KAlg= 0 I1Cent=           0 FoldK=F
 IRaf=         0 NMat=       1 IRICut=       1 DoRegI=T DoRafI=F ISym2E= 0 IDoP0=0 IntGTp=1.
 FoFCou: FMM=F IPFlag=           0 FMFlag=      100000 FMFlg1=         800
         NFxFlg=           0 DoJE=F BraDBF=F KetDBF=F FulRan=T
         wScrn=  0.000000 ICntrl=      2127 IOpCl=  0 I1Cent=           0 NGrid=           0
         NMat0=    1 NMatS0=      1 NMatT0=    0 NMatD0=    1 NMtDS0=    0 NMtDT0=    0
 Symmetry not used in FoFCou.
 Leave Link  703 at Tue Jun  4 00:16:37 2024, MaxMem= 13421772800 cpu:             326.5 elap:              10.2
 (Enter /tmpu/scunam/7/gaussian-2016.03/g1/g16/l716.exe)
 Dipole        =-2.99251196D-01-8.19341635D-01 6.42643121D-01
 ***** Axes restored to original set *****
 -------------------------------------------------------------------
 Center     Atomic                   Forces (Hartrees/Bohr)
 Number     Number              X              Y              Z
 -------------------------------------------------------------------
      1        8          -0.000025893    0.000118338    0.000172174
      2        6          -0.000046572    0.000108753   -0.000020543
      3        6          -0.000037723    0.000024868   -0.000180381
      4        6           0.000136068   -0.000120380    0.000027486
      5        6          -0.000030211    0.000076565   -0.000069916
      6        6           0.000006535   -0.000151071   -0.000175110
      7        6           0.000053979   -0.000033010    0.000016920
      8        6           0.000089945    0.000055372    0.000002075
      9        6           0.000069698   -0.000063925   -0.000080594
     10        1           0.000071773   -0.000066147    0.000059217
     11        1          -0.000018249   -0.000044469    0.000049348
     12        1           0.000070929   -0.000012452    0.000052215
     13        1          -0.000036879   -0.000014450    0.000111022
     14        1          -0.000002868    0.000025852    0.000003688
     15        1          -0.000019460   -0.000012086   -0.000007210
     16        1          -0.000037784   -0.000000775   -0.000040089
     17        1           0.000013550    0.000024130   -0.000002994
     18        1          -0.000091515   -0.000015260    0.000012229
     19        1          -0.000022185    0.000008585   -0.000007795
     20        1          -0.000060717    0.000026294    0.000011387
     21        1          -0.000034016    0.000045803    0.000030610
     22        1          -0.000025604    0.000000409    0.000011151
     23        1          -0.000022802    0.000019056    0.000025111
 -------------------------------------------------------------------
 Cartesian Forces:  Max     0.000180381 RMS     0.000064628
 Leave Link  716 at Tue Jun  4 00:16:37 2024, MaxMem= 13421772800 cpu:               0.8 elap:               0.0
 (Enter /tmpu/scunam/7/gaussian-2016.03/g1/g16/l103.exe)

 GradGradGradGradGradGradGradGradGradGradGradGradGradGradGradGradGradGrad
 Berny optimization.
 Using GEDIIS/GDIIS optimizer.
 FormGI is forming the generalized inverse of G from B-inverse, IUseBI=4.
 Internal  Forces:  Max     0.000237573 RMS     0.000049752
 Search for a local minimum.
 Step number  16 out of a maximum of  138
 All quantities printed in internal units (Hartrees-Bohrs-Radians)
 RMS Force = .49752D-04 SwitMx=.10000D-02 MixMth= 2
 Mixed Optimization -- En-DIIS/RFO-DIIS
 Swapping is turned off.
 Update second derivatives using D2CorX and points    5    6    7    8    9
                                                     10   11   12   13   14
                                                     15   16
 DE= -1.37D-06 DEPred=-1.05D-06 R= 1.30D+00
 TightC=F SS=  1.41D+00  RLast= 1.28D-01 DXNew= 1.1044D+00 3.8344D-01
 Trust test= 1.30D+00 RLast= 1.28D-01 DXMaxT set to 6.57D-01
 ITU=  1  0  0  0  0  0  0  1  1  1  1  1 -1  1  1  0
     Eigenvalues ---    0.00011   0.00114   0.00161   0.00545   0.00564
     Eigenvalues ---    0.00883   0.01399   0.01712   0.02894   0.02923
     Eigenvalues ---    0.03973   0.04265   0.05199   0.05541   0.06925
     Eigenvalues ---    0.07033   0.07080   0.07211   0.07361   0.07592
     Eigenvalues ---    0.09372   0.10034   0.12906   0.13446   0.15864
     Eigenvalues ---    0.15926   0.15999   0.16008   0.16016   0.16060
     Eigenvalues ---    0.16190   0.16248   0.16268   0.16478   0.21608
     Eigenvalues ---    0.22316   0.22848   0.24983   0.25228   0.25576
     Eigenvalues ---    0.29833   0.30697   0.30936   0.31492   0.31929
     Eigenvalues ---    0.33060   0.33834   0.33957   0.34121   0.34201
     Eigenvalues ---    0.34238   0.34253   0.34270   0.34288   0.34368
     Eigenvalues ---    0.34466   0.34507   0.34549   0.34878   0.36378
     Eigenvalues ---    0.44269   0.66522   0.97452
 En-DIIS/RFO-DIIS/Sim-DIIS IScMMF=       -3 using points:    16   15   14   13   12   11   10    9    8    7
 RFO step:  Lambda=-1.32379613D-06.
 NNeg= 0 NGDIIS=10 SimSw=  2.50D-01 Rises=F DC= -1.37D-06 SmlDif=  1.00D-05
 NRisDI= 0 DoIntr=F SqrtH=F CThrHd= 10.0 CDAdj=  3.0
 RMS Error=  0.4280427373D-02 NUsed=10 OKEnD=F EnDIS=F
 InvSVX:  RCond= 1.14D-10 Info=           0 Equed=N FErr=  1.36D-07 BErr=  9.64D-17
 DIIS inversion failure, remove point  10.
 InvSVX:  RCond= 1.62D-10 Info=           0 Equed=N FErr=  9.80D-08 BErr=  1.10D-16
 DIIS inversion failure, remove point   9.
 InvSVX:  RCond= 1.82D-10 Info=           0 Equed=N FErr=  8.85D-08 BErr=  5.41D-17
 DIIS inversion failure, remove point   8.
 InvSVX:  RCond= 3.38D-10 Info=           0 Equed=N FErr=  4.71D-08 BErr=  6.11D-17
 DIIS inversion failure, remove point   7.
 InvSVX:  RCond= 2.44D-09 Info=           0 Equed=N FErr=  6.55D-09 BErr=  2.38D-17
 DIIS inversion failure, remove point   6.
 InvSVX:  RCond= 1.78D-08 Info=           0 Equed=N FErr=  1.00D-09 BErr=  5.75D-17
 DIIS inversion failure, remove point   5.
 InvSVX:  RCond= 1.70D-07 Info=           0 Equed=N FErr=  3.57D-11 BErr=  6.78D-17
 Old DIIS coefficients:      2.48658     -2.60665     -2.17819      3.29826      0.00000
 Old DIIS coefficients:      0.00000      0.00000      0.00000      0.00000      0.00000
 RFO-DIIS uses    4 points instead of   10
 DidBck=F Rises=F RFO-DIIS coefs:    2.06833   -2.00000   -1.81182    2.74348    0.00000
                  RFO-DIIS coefs:    0.00000    0.00000    0.00000    0.00000    0.00000
 Iteration  1 RMS(Cart)=  0.00513760 RMS(Int)=  0.00001506
 Iteration  2 RMS(Cart)=  0.00001832 RMS(Int)=  0.00000261
 Iteration  3 RMS(Cart)=  0.00000000 RMS(Int)=  0.00000261
 ITry= 1 IFail=0 DXMaxC= 2.02D-02 DCOld= 1.00D+10 DXMaxT= 6.57D-01 DXLimC= 3.00D+00 Rises=F
 Variable       Old X    -DE/DX   Delta X   Delta X   Delta X     New X
                                 (Linear)    (Quad)   (Total)
    R1        2.28576  -0.00021  -0.00004  -0.00007  -0.00011   2.28565
    R2        2.89281  -0.00005  -0.00006   0.00002  -0.00004   2.89277
    R3        2.83569  -0.00005   0.00017  -0.00009   0.00008   2.83577
    R4        2.05873  -0.00009  -0.00013   0.00005  -0.00009   2.05864
    R5        2.06757   0.00002   0.00003  -0.00004  -0.00001   2.06757
    R6        2.87160  -0.00002   0.00011  -0.00009   0.00002   2.87161
    R7        2.07295   0.00005   0.00003   0.00010   0.00012   2.07307
    R8        2.07074   0.00002   0.00001  -0.00001  -0.00000   2.07074
    R9        2.52425   0.00017   0.00007   0.00001   0.00008   2.52433
   R10        2.05757  -0.00001  -0.00005   0.00000  -0.00005   2.05753
   R11        2.84554  -0.00002   0.00008  -0.00004   0.00004   2.84558
   R12        2.84298   0.00004   0.00002   0.00001   0.00003   2.84301
   R13        2.86285  -0.00001  -0.00006  -0.00001  -0.00007   2.86278
   R14        2.06910   0.00002   0.00001   0.00001   0.00002   2.06912
   R15        2.06928  -0.00000  -0.00003   0.00001  -0.00002   2.06926
   R16        2.06017  -0.00002  -0.00000  -0.00001  -0.00001   2.06016
   R17        2.05584  -0.00009  -0.00007  -0.00001  -0.00008   2.05575
   R18        2.06864   0.00001   0.00005   0.00001   0.00006   2.06870
   R19        2.06885   0.00002  -0.00002   0.00001  -0.00001   2.06883
   R20        2.06462   0.00001   0.00003  -0.00008  -0.00004   2.06458
   R21        2.05571  -0.00003   0.00001   0.00001   0.00002   2.05573
   R22        2.06623   0.00003   0.00000   0.00009   0.00009   2.06632
    A1        1.95713   0.00002   0.00009   0.00004   0.00013   1.95726
    A2        1.90458  -0.00003  -0.00021  -0.00002  -0.00023   1.90435
    A3        1.88827  -0.00001   0.00003  -0.00014  -0.00011   1.88816
    A4        1.95192   0.00003   0.00013  -0.00003   0.00010   1.95202
    A5        1.91384  -0.00002  -0.00020   0.00010  -0.00011   1.91374
    A6        1.84365   0.00001   0.00016   0.00006   0.00021   1.84386
    A7        1.99680  -0.00002  -0.00007   0.00007   0.00000   1.99680
    A8        1.93055   0.00006   0.00018  -0.00011   0.00007   1.93063
    A9        1.93296   0.00001  -0.00000   0.00031   0.00031   1.93327
   A10        1.87514  -0.00004  -0.00013  -0.00055  -0.00068   1.87446
   A11        1.88958   0.00003   0.00005   0.00038   0.00042   1.89000
   A12        1.83038  -0.00004  -0.00004  -0.00012  -0.00016   1.83021
   A13        2.24558   0.00011  -0.00012   0.00009  -0.00003   2.24555
   A14        1.99719  -0.00005   0.00018  -0.00008   0.00009   1.99729
   A15        2.04041  -0.00006  -0.00006  -0.00000  -0.00006   2.04035
   A16        2.10884  -0.00012  -0.00013  -0.00000  -0.00013   2.10871
   A17        2.17910   0.00024   0.00037  -0.00001   0.00036   2.17945
   A18        1.99524  -0.00012  -0.00024   0.00001  -0.00023   1.99500
   A19        2.13225   0.00005   0.00001   0.00015   0.00017   2.13242
   A20        2.12104  -0.00000  -0.00004  -0.00004  -0.00008   2.12097
   A21        2.02989  -0.00005   0.00002  -0.00012  -0.00009   2.02980
   A22        1.93681   0.00000  -0.00015   0.00004  -0.00011   1.93670
   A23        1.93704   0.00002   0.00011  -0.00001   0.00010   1.93714
   A24        1.95218  -0.00001  -0.00003   0.00001  -0.00002   1.95215
   A25        1.85821  -0.00003  -0.00001  -0.00007  -0.00008   1.85813
   A26        1.88763   0.00001  -0.00000   0.00003   0.00002   1.88766
   A27        1.88848   0.00001   0.00008   0.00001   0.00009   1.88857
   A28        1.97896   0.00005   0.00020   0.00001   0.00021   1.97917
   A29        1.92805   0.00000  -0.00014   0.00003  -0.00010   1.92795
   A30        1.92801  -0.00001  -0.00003  -0.00001  -0.00004   1.92798
   A31        1.88501  -0.00000   0.00004   0.00000   0.00004   1.88505
   A32        1.88205  -0.00000   0.00005   0.00003   0.00008   1.88213
   A33        1.85691  -0.00004  -0.00014  -0.00008  -0.00021   1.85670
   A34        1.93453   0.00001  -0.00011   0.00074   0.00063   1.93516
   A35        1.91918   0.00001   0.00008   0.00014   0.00023   1.91941
   A36        1.91656  -0.00002   0.00017  -0.00094  -0.00077   1.91580
   A37        1.91846   0.00002  -0.00012   0.00047   0.00037   1.91882
   A38        1.86636  -0.00004  -0.00014   0.00007  -0.00007   1.86629
   A39        1.90794   0.00001   0.00007  -0.00050  -0.00042   1.90752
    D1        3.06289  -0.00001   0.00580  -0.00171   0.00409   3.06697
    D2        0.94258   0.00001   0.00588  -0.00096   0.00492   0.94750
    D3       -1.07910   0.00002   0.00582  -0.00092   0.00489  -1.07420
    D4       -1.04777   0.00002   0.00588  -0.00174   0.00413  -1.04364
    D5        3.11511   0.00005   0.00596  -0.00099   0.00497   3.12008
    D6        1.09344   0.00005   0.00589  -0.00096   0.00494   1.09837
    D7        0.95005   0.00001   0.00597  -0.00176   0.00421   0.95426
    D8       -1.17026   0.00004   0.00605  -0.00101   0.00504  -1.16521
    D9        3.09125   0.00004   0.00599  -0.00097   0.00501   3.09627
   D10        2.06975  -0.00000   0.00130  -0.00171  -0.00042   2.06934
   D11       -1.07189   0.00001   0.00119  -0.00152  -0.00033  -1.07222
   D12       -0.07628   0.00001   0.00140  -0.00169  -0.00028  -0.07656
   D13        3.06526   0.00001   0.00130  -0.00150  -0.00020   3.06506
   D14       -2.11540  -0.00001   0.00126  -0.00180  -0.00054  -2.11594
   D15        1.02614  -0.00001   0.00116  -0.00161  -0.00045   1.02569
   D16       -0.07422   0.00000   0.00098  -0.00504  -0.00406  -0.07827
   D17        3.06435  -0.00001   0.00097  -0.00524  -0.00427   3.06008
   D18        2.07626   0.00003   0.00107  -0.00554  -0.00447   2.07179
   D19       -1.06835   0.00001   0.00106  -0.00574  -0.00468  -1.07304
   D20       -2.23877  -0.00002   0.00098  -0.00577  -0.00479  -2.24356
   D21        0.89980  -0.00004   0.00097  -0.00597  -0.00500   0.89479
   D22        3.13786  -0.00001  -0.00033   0.00009  -0.00024   3.13762
   D23        0.00318  -0.00000  -0.00047   0.00008  -0.00039   0.00279
   D24       -0.00368  -0.00002  -0.00023  -0.00010  -0.00033  -0.00401
   D25       -3.13836  -0.00001  -0.00036  -0.00011  -0.00048  -3.13884
   D26       -2.11614   0.00002   0.00440  -0.00040   0.00400  -2.11214
   D27        2.10451   0.00004   0.00443  -0.00032   0.00411   2.10862
   D28       -0.00643   0.00002   0.00427  -0.00033   0.00394  -0.00250
   D29        1.01923   0.00002   0.00452  -0.00039   0.00413   1.02336
   D30       -1.04331   0.00004   0.00456  -0.00032   0.00424  -1.03907
   D31        3.12893   0.00002   0.00439  -0.00032   0.00407   3.13300
   D32       -0.04301   0.00002   0.00819  -0.00009   0.00810  -0.03491
   D33       -2.16166  -0.00001   0.00811  -0.00012   0.00798  -2.15368
   D34        2.07176   0.00004   0.00838  -0.00005   0.00833   2.08009
   D35        3.10509   0.00003   0.00806  -0.00010   0.00797   3.11306
   D36        0.98645  -0.00000   0.00798  -0.00013   0.00785   0.99429
   D37       -1.06331   0.00005   0.00825  -0.00005   0.00819  -1.05512
   D38       -2.22851  -0.00005   0.00167  -0.01063  -0.00895  -2.23747
   D39       -0.10369  -0.00001   0.00153  -0.00945  -0.00792  -0.11161
   D40        1.99639   0.00000   0.00182  -0.01058  -0.00877   1.98761
   D41        0.91608  -0.00003   0.00168  -0.01043  -0.00874   0.90734
   D42        3.04090   0.00000   0.00154  -0.00925  -0.00771   3.03320
   D43       -1.14220   0.00002   0.00183  -0.01038  -0.00856  -1.15077
         Item               Value     Threshold  Converged?
 Maximum Force            0.000238     0.000450     YES
 RMS     Force            0.000050     0.000300     YES
 Maximum Displacement     0.020228     0.001800     NO 
 RMS     Displacement     0.005138     0.001200     NO 
 Predicted change in Energy=-3.228539D-06
 Lowest energy point so far.  Saving SCF results.
 GradGradGradGradGradGradGradGradGradGradGradGradGradGradGradGradGradGrad

 Leave Link  103 at Tue Jun  4 00:16:37 2024, MaxMem= 13421772800 cpu:               2.2 elap:               0.1
 (Enter /tmpu/scunam/7/gaussian-2016.03/g1/g16/l202.exe)
                          Input orientation:                          
 ---------------------------------------------------------------------
 Center     Atomic      Atomic             Coordinates (Angstroms)
 Number     Number       Type             X           Y           Z
 ---------------------------------------------------------------------
      1          8           0        2.783761   -0.446122   -1.036467
      2          6           0        0.048768   -0.488079   -0.341348
      3          6           0        1.117857    0.064153    0.604906
      4          6           0       -1.304937   -0.541165    0.304051
      5          6           0       -2.425785    0.090867   -0.054620
      6          6           0        2.527900    0.045257    0.038708
      7          6           0       -3.700264   -0.096149    0.725254
      8          6           0       -2.551043    1.018322   -1.232556
      9          6           0        3.603468    0.682044    0.894649
     10          1           0        0.039426    0.105961   -1.254468
     11          1           0        0.350300   -1.494397   -0.647084
     12          1           0        1.133583   -0.503667    1.543410
     13          1           0        0.880364    1.091793    0.902070
     14          1           0       -1.361470   -1.185758    1.179712
     15          1           0       -4.496576   -0.490783    0.085707
     16          1           0       -4.063052    0.859120    1.118804
     17          1           0       -3.566589   -0.780949    1.562926
     18          1           0       -1.615720    1.164841   -1.768409
     19          1           0       -2.913637    1.999634   -0.910167
     20          1           0       -3.289039    0.635145   -1.944651
     21          1           0        3.583989    0.277354    1.909272
     22          1           0        4.581148    0.515679    0.447574
     23          1           0        3.422149    1.757197    0.977126
 ---------------------------------------------------------------------
                    Distance matrix (angstroms):
                    1          2          3          4          5
     1  O    0.000000
     2  C    2.822257   0.000000
     3  C    2.393684   1.530787   0.000000
     4  C    4.303891   1.500625   2.515324   0.000000
     5  C    5.328391   2.557499   3.604592   1.335818   0.000000
     6  C    1.209513   2.564174   1.519592   3.886508   4.954774
     7  C    6.728204   3.917460   4.822289   2.472457   1.505814
     8  C    5.535629   3.134089   4.212782   2.519115   1.504458
     9  C    2.381993   3.941164   2.577597   5.092887   6.132088
    10  H    2.807792   1.089384   2.149892   2.157560   2.741738
    11  H    2.678102   1.094109   2.141426   2.133804   3.251265
    12  H    3.063032   2.174714   1.097022   2.735653   3.946679
    13  H    3.121863   2.175692   1.095788   2.792798   3.584373
    14  H    4.758304   2.188414   2.835444   1.088797   2.070293
    15  H    7.366449   4.565362   5.665631   3.199495   2.155501
    16  H    7.295731   4.566624   5.266676   3.198721   2.155871
    17  H    6.869927   4.096687   4.855516   2.599487   2.162858
    18  H    4.741980   2.745754   3.783725   2.702246   2.178692
    19  H    6.201453   3.910002   4.721703   3.243132   2.147872
    20  H    6.234809   3.869518   5.123184   3.221340   2.147944
    21  H    3.137063   4.260160   2.797969   5.210404   6.325269
    22  H    2.521515   4.708757   3.496142   5.981932   7.037739
    23  H    3.052329   4.261378   2.883524   5.299137   6.167617
                    6          7          8          9         10
     6  C    0.000000
     7  C    6.267485   0.000000
     8  C    5.325283   2.528987   0.000000
     9  C    1.514919   7.347025   6.520437   0.000000
    10  H    2.805084   4.236204   2.746527   4.201545   0.000000
    11  H    2.753687   4.499498   3.882567   4.206773   1.739743
    12  H    2.123574   4.919505   4.857871   2.815517   3.065445
    13  H    2.134246   4.735464   4.041854   2.753770   2.515889
    14  H    4.236094   2.619873   3.477368   5.312303   3.091324
    15  H    7.045056   1.094929   2.792904   8.224392   4.767335
    16  H    6.728271   1.095005   2.800073   7.671840   4.798957
    17  H    6.336297   1.090190   3.476123   7.348243   4.661294
    18  H    4.657116   3.486227   1.087858   5.879192   2.030977
    19  H    5.859205   2.772308   1.094707   6.889562   3.524928
    20  H    6.174016   2.798624   1.094780   7.454562   3.440213
    21  H    2.160602   7.389299   6.932441   1.092526   4.754215
    22  H    2.145761   8.308623   7.344633   1.087847   4.867448
    23  H    2.147335   7.363905   6.411526   1.093450   4.376004
                   11         12         13         14         15
    11  H    0.000000
    12  H    2.528506   0.000000
    13  H    3.060919   1.738082   0.000000
    14  H    2.522420   2.612052   3.207825   0.000000
    15  H    5.003642   5.815819   5.664139   3.392451   0.000000
    16  H    5.304251   5.389109   4.953632   3.388773   1.754271
    17  H    4.553590   4.708385   4.870245   2.274483   1.769533
    18  H    3.492013   4.616355   3.656122   3.779071   3.805019
    19  H    4.788607   5.354115   4.301491   4.113823   3.114424
    20  H    4.411737   5.746569   5.069149   4.097909   2.616910
    21  H    4.486736   2.597756   2.997892   5.208696   8.319312
    22  H    4.810276   3.758407   3.772834   6.224598   9.140513
    23  H    4.758905   3.266454   2.628511   5.620057   8.279749
                   16         17         18         19         20
    16  H    0.000000
    17  H    1.770182   0.000000
    18  H    3.797222   4.323168   0.000000
    19  H    2.595891   3.778118   1.765800   0.000000
    20  H    3.167652   3.792817   1.763984   1.752973   0.000000
    21  H    7.709768   7.236762   6.430392   7.289350   7.887918
    22  H    8.677021   8.325315   6.613105   7.759986   8.226595
    23  H    7.540216   7.458406   5.767926   6.615349   7.405122
                   21         22         23
    21  H    0.000000
    22  H    1.785409   0.000000
    23  H    1.756424   1.779064   0.000000
 Stoichiometry    C8H14O
 Framework group  C1[X(C8H14O)]
 Deg. of freedom    63
 Full point group                 C1      NOp   1
 RotChk:  IX=0 Diff= 2.60D-03
 Largest Abelian subgroup         C1      NOp   1
 Largest concise Abelian subgroup C1      NOp   1
                         Standard orientation:                         
 ---------------------------------------------------------------------
 Center     Atomic      Atomic             Coordinates (Angstroms)
 Number     Number       Type             X           Y           Z
 ---------------------------------------------------------------------
      1          8           0        2.760359    1.056951   -0.680497
      2          6           0        0.054492    0.258061   -0.608407
      3          6           0        1.156509   -0.546178    0.085904
      4          6           0       -1.272998   -0.439778   -0.556771
      5          6           0       -2.410045   -0.029217    0.011537
      6          6           0        2.543718    0.064290   -0.024286
      7          6           0       -3.652498   -0.877903   -0.047785
      8          6           0       -2.585386    1.275243    0.740257
      9          6           0        3.648293   -0.637173    0.739154
     10          1           0        0.006892    1.252846   -0.166938
     11          1           0        0.349088    0.411656   -1.650854
     12          1           0        1.211336   -1.561595   -0.325654
     13          1           0        0.925466   -0.685438    1.147966
     14          1           0       -1.292413   -1.408199   -1.054026
     15          1           0       -4.470901   -0.340608   -0.538091
     16          1           0       -4.004654   -1.128619    0.958278
     17          1           0       -3.483114   -1.807824   -0.590987
     18          1           0       -1.672204    1.863558    0.798741
     19          1           0       -2.940227    1.098872    1.760729
     20          1           0       -3.348376    1.888200    0.249673
     21          1           0        3.670054   -1.703156    0.500785
     22          1           0        4.608812   -0.184468    0.502779
     23          1           0        3.464852   -0.554904    1.813963
 ---------------------------------------------------------------------
 Rotational constants (GHZ):           4.0662562           0.5807179           0.5563942
 Leave Link  202 at Tue Jun  4 00:16:37 2024, MaxMem= 13421772800 cpu:               2.7 elap:               0.1
 (Enter /tmpu/scunam/7/gaussian-2016.03/g1/g16/l301.exe)
 Standard basis: def2TZVP (5D, 7F)
 Ernie: Thresh=  0.10000D-02 Tol=  0.10000D-05 Strict=F.
 There are   408 symmetry adapted cartesian basis functions of A   symmetry.
 There are   363 symmetry adapted basis functions of A   symmetry.
   363 basis functions,   571 primitive gaussians,   408 cartesian basis functions
    35 alpha electrons       35 beta electrons
       nuclear repulsion energy       428.8328602301 Hartrees.
 IExCor=  402 DFT=T Ex+Corr=B3LYP ExCW=0 ScaHFX=  0.200000
 ScaDFX=  0.800000  0.720000  1.000000  0.810000 ScalE2=  1.000000  1.000000
 IRadAn=      5 IRanWt=     -1 IRanGd=            0 ICorTp=0 IEmpDi=  4
 NAtoms=   23 NActive=   23 NUniq=   23 SFac= 1.00D+00 NAtFMM=   60 NAOKFM=F Big=F
 Integral buffers will be    131072 words long.
 Raffenetti 2 integral format.
 Two-electron integral symmetry is turned on.
 Leave Link  301 at Tue Jun  4 00:16:37 2024, MaxMem= 13421772800 cpu:               2.5 elap:               0.1
 (Enter /tmpu/scunam/7/gaussian-2016.03/g1/g16/l302.exe)
 NPDir=0 NMtPBC=     1 NCelOv=     1 NCel=       1 NClECP=     1 NCelD=      1
         NCelK=      1 NCelE2=     1 NClLst=     1 CellRange=     0.0.
 One-electron integrals computed using PRISM.
 One-electron integral symmetry used in STVInt
   1 Symmetry operations used in ECPInt.
 ECPInt:  NShTT=   12090 NPrTT=   35220 LenC2=   11308 LenP2D=   25537.
 LDataN:  DoStor=T MaxTD1= 6 Len=  172
 NBasis=   363 RedAO= T EigKep=  7.80D-05  NBF=   363
 NBsUse=   363 1.00D-06 EigRej= -1.00D+00 NBFU=   363
 Precomputing XC quadrature grid using
 IXCGrd= 4 IRadAn=           5 IRanWt=          -1 IRanGd=           0 AccXCQ= 0.00D+00.
 Generated NRdTot=       0 NPtTot=           0 NUsed=           0 NTot=          32
 NSgBfM=   405   405   405   405   405 MxSgAt=    23 MxSgA2=    23.
 Leave Link  302 at Tue Jun  4 00:16:38 2024, MaxMem= 13421772800 cpu:              12.6 elap:               0.4
 (Enter /tmpu/scunam/7/gaussian-2016.03/g1/g16/l303.exe)
 DipDrv:  MaxL=1.
 Leave Link  303 at Tue Jun  4 00:16:38 2024, MaxMem= 13421772800 cpu:               2.5 elap:               0.1
 (Enter /tmpu/scunam/7/gaussian-2016.03/g1/g16/l401.exe)
 Initial guess from the checkpoint file:  "S36.chk"
 B after Tr=     0.000000   -0.000000    0.000000
         Rot=    1.000000    0.000831   -0.000034    0.000088 Ang=   0.10 deg.
 Guess basis will be translated and rotated to current coordinates.
 JPrj=2 DoOrth=T DoCkMO=T.
 Generating alternative initial guess.
 ExpMin= 9.52D-02 ExpMax= 2.70D+04 ExpMxC= 9.22D+02 IAcc=2 IRadAn=         4 AccDes= 0.00D+00
 Harris functional with IExCor=  402 and IRadAn=       4 diagonalized for initial guess.
 HarFok:  IExCor=  402 AccDes= 0.00D+00 IRadAn=         4 IDoV= 1 UseB2=F ITyADJ=14
 ICtDFT=  3500011 ScaDFX=  1.000000  1.000000  1.000000  1.000000
 FoFCou: FMM=F IPFlag=           0 FMFlag=      100000 FMFlg1=           0
         NFxFlg=           0 DoJE=T BraDBF=F KetDBF=T FulRan=T
         wScrn=  0.000000 ICntrl=       500 IOpCl=  0 I1Cent=   200000004 NGrid=           0
         NMat0=    1 NMatS0=      1 NMatT0=    0 NMatD0=    1 NMtDS0=    0 NMtDT0=    0
 Petite list used in FoFCou.
 Harris En= -388.761691498769    
 Leave Link  401 at Tue Jun  4 00:16:39 2024, MaxMem= 13421772800 cpu:              27.0 elap:               0.9
 (Enter /tmpu/scunam/7/gaussian-2016.03/g1/g16/l502.exe)
 Integral symmetry usage will be decided dynamically.
 Closed shell SCF:
 Using DIIS extrapolation, IDIIS=  1040.
 NGot= 13421772800 LenX= 13421422965 LenY= 13421256060
 Requested convergence on RMS density matrix=1.00D-08 within 128 cycles.
 Requested convergence on MAX density matrix=1.00D-06.
 Requested convergence on             energy=1.00D-06.
 No special actions if energy rises.
 Fock matrices will be formed incrementally for  20 cycles.
 Integral accuracy reduced to 1.0D-05 until final iterations.

 Cycle   1  Pass 0  IDiag  1:
 FoFJK:  IHMeth= 1 ICntrl=       0 DoSepK=F KAlg= 0 I1Cent=           0 FoldK=F
 IRaf= 890000000 NMat=       1 IRICut=       1 DoRegI=T DoRafI=F ISym2E= 0 IDoP0=0 IntGTp=1.
 FoFCou: FMM=F IPFlag=           0 FMFlag=      100000 FMFlg1=           0
         NFxFlg=           0 DoJE=F BraDBF=F KetDBF=F FulRan=T
         wScrn=  0.000000 ICntrl=         0 IOpCl=  0 I1Cent=           0 NGrid=           0
         NMat0=    1 NMatS0=      1 NMatT0=    0 NMatD0=    1 NMtDS0=    0 NMtDT0=    0
 Symmetry not used in FoFCou.
 E= -388.651207123912    
 DIIS: error= 1.83D-04 at cycle   1 NSaved=   1.
 NSaved= 1 IEnMin= 1 EnMin= -388.651207123912     IErMin= 1 ErrMin= 1.83D-04
 ErrMax= 1.83D-04  0.00D+00 EMaxC= 1.00D-01 BMatC= 2.68D-05 BMatP= 2.68D-05
 IDIUse=3 WtCom= 9.98D-01 WtEn= 1.83D-03
 Coeff-Com:  0.100D+01
 Coeff-En:   0.100D+01
 Coeff:      0.100D+01
 Gap=     0.607 Goal=   None    Shift=    0.000
 RMSDP=1.02D-04 MaxDP=4.62D-03              OVMax= 1.49D-03

 Cycle   2  Pass 0  IDiag  1:
 RMSU=  1.02D-04    CP:  1.00D+00
 E= -388.651243873508     Delta-E=       -0.000036749596 Rises=F Damp=F
 DIIS: error= 1.87D-05 at cycle   2 NSaved=   2.
 NSaved= 2 IEnMin= 2 EnMin= -388.651243873508     IErMin= 2 ErrMin= 1.87D-05
 ErrMax= 1.87D-05  0.00D+00 EMaxC= 1.00D-01 BMatC= 1.80D-07 BMatP= 2.68D-05
 IDIUse=1 WtCom= 1.00D+00 WtEn= 0.00D+00
 Coeff-Com: -0.606D-01 0.106D+01
 Coeff:     -0.606D-01 0.106D+01
 Gap=     0.216 Goal=   None    Shift=    0.000
 RMSDP=4.86D-06 MaxDP=1.40D-04 DE=-3.67D-05 OVMax= 2.25D-04

 Initial convergence to 1.0D-05 achieved.  Increase integral accuracy.
 Cycle   3  Pass 1  IDiag  1:
 E= -388.651236545607     Delta-E=        0.000007327901 Rises=F Damp=F
 DIIS: error= 9.36D-05 at cycle   1 NSaved=   1.
 NSaved= 1 IEnMin= 1 EnMin= -388.651236545607     IErMin= 1 ErrMin= 9.36D-05
 ErrMax= 9.36D-05  0.00D+00 EMaxC= 1.00D-01 BMatC= 2.09D-06 BMatP= 2.09D-06
 IDIUse=1 WtCom= 1.00D+00 WtEn= 0.00D+00
 Coeff-Com:  0.100D+01
 Coeff:      0.100D+01
 Gap=     0.216 Goal=   None    Shift=    0.000
 RMSDP=4.86D-06 MaxDP=1.40D-04 DE= 7.33D-06 OVMax= 2.41D-04

 Cycle   4  Pass 1  IDiag  1:
 RMSU=  9.90D-05    CP:  1.00D+00
 E= -388.651237683807     Delta-E=       -0.000001138200 Rises=F Damp=F
 DIIS: error= 4.14D-06 at cycle   2 NSaved=   2.
 NSaved= 2 IEnMin= 2 EnMin= -388.651237683807     IErMin= 2 ErrMin= 4.14D-06
 ErrMax= 4.14D-06  0.00D+00 EMaxC= 1.00D-01 BMatC= 1.18D-08 BMatP= 2.09D-06
 IDIUse=1 WtCom= 1.00D+00 WtEn= 0.00D+00
 Coeff-Com:  0.394D-02 0.996D+00
 Coeff:      0.394D-02 0.996D+00
 Gap=     0.216 Goal=   None    Shift=    0.000
 RMSDP=2.01D-06 MaxDP=8.29D-05 DE=-1.14D-06 OVMax= 6.59D-05

 Cycle   5  Pass 1  IDiag  1:
 RMSU=  1.02D-06    CP:  1.00D+00  1.02D+00
 E= -388.651237666052     Delta-E=        0.000000017755 Rises=F Damp=F
 DIIS: error= 8.39D-06 at cycle   3 NSaved=   3.
 NSaved= 3 IEnMin= 2 EnMin= -388.651237683807     IErMin= 2 ErrMin= 4.14D-06
 ErrMax= 8.39D-06  0.00D+00 EMaxC= 1.00D-01 BMatC= 3.55D-08 BMatP= 1.18D-08
 IDIUse=1 WtCom= 1.00D+00 WtEn= 0.00D+00
 Coeff-Com: -0.273D-02 0.641D+00 0.362D+00
 Coeff:     -0.273D-02 0.641D+00 0.362D+00
 Gap=     0.216 Goal=   None    Shift=    0.000
 RMSDP=5.24D-07 MaxDP=5.17D-05 DE= 1.78D-08 OVMax= 4.87D-05

 Cycle   6  Pass 1  IDiag  1:
 RMSU=  4.22D-07    CP:  1.00D+00  1.02D+00  7.08D-01
 E= -388.651237693727     Delta-E=       -0.000000027675 Rises=F Damp=F
 DIIS: error= 1.51D-06 at cycle   4 NSaved=   4.
 NSaved= 4 IEnMin= 4 EnMin= -388.651237693727     IErMin= 4 ErrMin= 1.51D-06
 ErrMax= 1.51D-06  0.00D+00 EMaxC= 1.00D-01 BMatC= 1.14D-09 BMatP= 1.18D-08
 IDIUse=1 WtCom= 1.00D+00 WtEn= 0.00D+00
 Coeff-Com: -0.184D-02 0.319D+00 0.215D+00 0.468D+00
 Coeff:     -0.184D-02 0.319D+00 0.215D+00 0.468D+00
 Gap=     0.216 Goal=   None    Shift=    0.000
 RMSDP=1.21D-07 MaxDP=1.17D-05 DE=-2.77D-08 OVMax= 8.50D-06

 Cycle   7  Pass 1  IDiag  1:
 RMSU=  8.90D-08    CP:  1.00D+00  1.02D+00  7.29D-01  8.20D-01
 E= -388.651237694649     Delta-E=       -0.000000000922 Rises=F Damp=F
 DIIS: error= 2.17D-07 at cycle   5 NSaved=   5.
 NSaved= 5 IEnMin= 5 EnMin= -388.651237694649     IErMin= 5 ErrMin= 2.17D-07
 ErrMax= 2.17D-07  0.00D+00 EMaxC= 1.00D-01 BMatC= 4.02D-11 BMatP= 1.14D-09
 IDIUse=1 WtCom= 1.00D+00 WtEn= 0.00D+00
 Coeff-Com: -0.711D-03 0.112D+00 0.805D-01 0.230D+00 0.578D+00
 Coeff:     -0.711D-03 0.112D+00 0.805D-01 0.230D+00 0.578D+00
 Gap=     0.216 Goal=   None    Shift=    0.000
 RMSDP=2.77D-08 MaxDP=1.94D-06 DE=-9.22D-10 OVMax= 2.44D-06

 Cycle   8  Pass 1  IDiag  1:
 RMSU=  1.85D-08    CP:  1.00D+00  1.02D+00  7.29D-01  8.60D-01  9.19D-01
 E= -388.651237694683     Delta-E=       -0.000000000034 Rises=F Damp=F
 DIIS: error= 1.30D-07 at cycle   6 NSaved=   6.
 NSaved= 6 IEnMin= 6 EnMin= -388.651237694683     IErMin= 6 ErrMin= 1.30D-07
 ErrMax= 1.30D-07  0.00D+00 EMaxC= 1.00D-01 BMatC= 5.86D-12 BMatP= 4.02D-11
 IDIUse=1 WtCom= 1.00D+00 WtEn= 0.00D+00
 Coeff-Com: -0.135D-03 0.180D-01 0.151D-01 0.633D-01 0.307D+00 0.596D+00
 Coeff:     -0.135D-03 0.180D-01 0.151D-01 0.633D-01 0.307D+00 0.596D+00
 Gap=     0.216 Goal=   None    Shift=    0.000
 RMSDP=1.04D-08 MaxDP=5.08D-07 DE=-3.40D-11 OVMax= 1.55D-06

 Cycle   9  Pass 1  IDiag  1:
 RMSU=  7.41D-09    CP:  1.00D+00  1.02D+00  7.34D-01  8.64D-01  9.48D-01
                    CP:  8.64D-01
 E= -388.651237694692     Delta-E=       -0.000000000010 Rises=F Damp=F
 DIIS: error= 5.62D-08 at cycle   7 NSaved=   7.
 NSaved= 7 IEnMin= 7 EnMin= -388.651237694692     IErMin= 7 ErrMin= 5.62D-08
 ErrMax= 5.62D-08  0.00D+00 EMaxC= 1.00D-01 BMatC= 1.53D-12 BMatP= 5.86D-12
 IDIUse=1 WtCom= 1.00D+00 WtEn= 0.00D+00
 Coeff-Com:  0.789D-04-0.146D-01-0.879D-02-0.114D-01 0.692D-01 0.382D+00
 Coeff-Com:  0.583D+00
 Coeff:      0.789D-04-0.146D-01-0.879D-02-0.114D-01 0.692D-01 0.382D+00
 Coeff:      0.583D+00
 Gap=     0.216 Goal=   None    Shift=    0.000
 RMSDP=4.80D-09 MaxDP=2.10D-07 DE=-9.66D-12 OVMax= 6.15D-07

 SCF Done:  E(RB3LYP) =  -388.651237695     A.U. after    9 cycles
            NFock=  9  Conv=0.48D-08     -V/T= 2.0053
 KE= 3.865942570484D+02 PE=-1.760938397196D+03 EE= 5.568600422228D+02
 Leave Link  502 at Tue Jun  4 00:17:02 2024, MaxMem= 13421772800 cpu:             732.0 elap:              22.9
 (Enter /tmpu/scunam/7/gaussian-2016.03/g1/g16/l508.exe)
 QCSCF skips out because SCF is already converged.
 Leave Link  508 at Tue Jun  4 00:17:02 2024, MaxMem= 13421772800 cpu:               0.2 elap:               0.0
 (Enter /tmpu/scunam/7/gaussian-2016.03/g1/g16/l701.exe)
 ... and contract with generalized density number  0.
 Compute integral first derivatives.
   1 Symmetry operations used in ECPInt.
 ECPInt:  NShTT=   12090 NPrTT=   35220 LenC2=   11308 LenP2D=   25537.
 LDataN:  DoStor=T MaxTD1= 7 Len=  274
 Leave Link  701 at Tue Jun  4 00:17:02 2024, MaxMem= 13421772800 cpu:               8.6 elap:               0.3
 (Enter /tmpu/scunam/7/gaussian-2016.03/g1/g16/l702.exe)
 L702 exits ... SP integral derivatives will be done elsewhere.
 Leave Link  702 at Tue Jun  4 00:17:02 2024, MaxMem= 13421772800 cpu:               0.7 elap:               0.0
 (Enter /tmpu/scunam/7/gaussian-2016.03/g1/g16/l703.exe)
 Integral derivatives from FoFJK, PRISM(SPDF).
 Compute integral first derivatives, UseDBF=F ICtDFT=           0.
 Calling FoFJK, ICntrl=      2127 FMM=F ISym2X=0 I1Cent= 0 IOpClX= 0 NMat=1 NMatS=1 NMatT=0.
 FoFJK:  IHMeth= 1 ICntrl=    2127 DoSepK=F KAlg= 0 I1Cent=           0 FoldK=F
 IRaf=         0 NMat=       1 IRICut=       1 DoRegI=T DoRafI=F ISym2E= 0 IDoP0=0 IntGTp=1.
 FoFCou: FMM=F IPFlag=           0 FMFlag=      100000 FMFlg1=         800
         NFxFlg=           0 DoJE=F BraDBF=F KetDBF=F FulRan=T
         wScrn=  0.000000 ICntrl=      2127 IOpCl=  0 I1Cent=           0 NGrid=           0
         NMat0=    1 NMatS0=      1 NMatT0=    0 NMatD0=    1 NMtDS0=    0 NMtDT0=    0
 Symmetry not used in FoFCou.
 Leave Link  703 at Tue Jun  4 00:17:12 2024, MaxMem= 13421772800 cpu:             325.5 elap:              10.2
 (Enter /tmpu/scunam/7/gaussian-2016.03/g1/g16/l716.exe)
 Dipole        =-2.99750353D-01-8.18279762D-01 6.44173228D-01
 ***** Axes restored to original set *****
 -------------------------------------------------------------------
 Center     Atomic                   Forces (Hartrees/Bohr)
 Number     Number              X              Y              Z
 -------------------------------------------------------------------
      1        8          -0.000034972    0.000075921    0.000089676
      2        6          -0.000057405    0.000088175    0.000020367
      3        6          -0.000010448    0.000013292   -0.000121676
      4        6           0.000129093   -0.000077590   -0.000021401
      5        6          -0.000032654    0.000055433   -0.000054623
      6        6           0.000001669   -0.000119309   -0.000109432
      7        6           0.000058967   -0.000023054    0.000015813
      8        6           0.000067114    0.000033841    0.000010743
      9        6           0.000070641   -0.000037886   -0.000033286
     10        1           0.000050134   -0.000050444    0.000030382
     11        1          -0.000014291   -0.000035946    0.000024862
     12        1           0.000041263   -0.000005646    0.000032089
     13        1          -0.000028190   -0.000010459    0.000077127
     14        1           0.000000288    0.000015690    0.000010432
     15        1          -0.000017853   -0.000010371   -0.000005901
     16        1          -0.000029838    0.000001334   -0.000024703
     17        1           0.000006476    0.000019667   -0.000002610
     18        1          -0.000059503   -0.000008687    0.000013718
     19        1          -0.000018980    0.000008640   -0.000006923
     20        1          -0.000040211    0.000012801    0.000009239
     21        1          -0.000028139    0.000042539    0.000023401
     22        1          -0.000036064   -0.000002993    0.000003238
     23        1          -0.000017098    0.000015053    0.000019470
 -------------------------------------------------------------------
 Cartesian Forces:  Max     0.000129093 RMS     0.000046255
 Leave Link  716 at Tue Jun  4 00:17:13 2024, MaxMem= 13421772800 cpu:               0.7 elap:               0.0
 (Enter /tmpu/scunam/7/gaussian-2016.03/g1/g16/l103.exe)

 GradGradGradGradGradGradGradGradGradGradGradGradGradGradGradGradGradGrad
 Berny optimization.
 Using GEDIIS/GDIIS optimizer.
 FormGI is forming the generalized inverse of G from B-inverse, IUseBI=4.
 Internal  Forces:  Max     0.000158164 RMS     0.000034662
 Search for a local minimum.
 Step number  17 out of a maximum of  138
 All quantities printed in internal units (Hartrees-Bohrs-Radians)
 RMS Force = .34662D-04 SwitMx=.10000D-02 MixMth= 2
 Mixed Optimization -- En-DIIS/RFO-DIIS
 Swapping is turned off.
 Update second derivatives using D2CorX and points    5    6    7    8    9
                                                     10   11   12   13   14
                                                     15   16   17
 DE= -3.28D-06 DEPred=-3.23D-06 R= 1.02D+00
 TightC=F SS=  1.41D+00  RLast= 3.53D-02 DXNew= 1.1044D+00 1.0598D-01
 Trust test= 1.02D+00 RLast= 3.53D-02 DXMaxT set to 6.57D-01
 ITU=  1  1  0  0  0  0  0  0  1  1  1  1  1 -1  1  1  0
     Eigenvalues ---    0.00004   0.00125   0.00146   0.00220   0.00550
     Eigenvalues ---    0.00661   0.01376   0.01716   0.02905   0.02926
     Eigenvalues ---    0.03939   0.04222   0.04944   0.05547   0.06909
     Eigenvalues ---    0.06927   0.07041   0.07089   0.07293   0.07373
     Eigenvalues ---    0.09269   0.09831   0.12817   0.13232   0.15823
     Eigenvalues ---    0.15961   0.16002   0.16010   0.16036   0.16077
     Eigenvalues ---    0.16101   0.16248   0.16271   0.16465   0.21659
     Eigenvalues ---    0.22346   0.22894   0.24973   0.25396   0.25570
     Eigenvalues ---    0.29644   0.29956   0.30903   0.31452   0.31917
     Eigenvalues ---    0.32983   0.33861   0.33972   0.34088   0.34159
     Eigenvalues ---    0.34233   0.34246   0.34266   0.34276   0.34314
     Eigenvalues ---    0.34454   0.34507   0.34564   0.34880   0.35672
     Eigenvalues ---    0.37820   0.59944   0.90187
 Eigenvalue     1 is   4.23D-05 Eigenvector:
                          D40       D38       D43       D41       D39
   1                    0.36616   0.36507   0.35765   0.35656   0.32612
                          D42       D21       D19       D20       D18
   1                    0.31760   0.21940   0.21861   0.21082   0.21003
 En-DIIS/RFO-DIIS/Sim-DIIS IScMMF=       -3 using points:    17   16   15   14   13   12   11   10    9    8
 RFO step:  Lambda=-9.94459587D-06.
 NNeg= 0 NGDIIS=10 SimSw=  2.50D-01 Rises=F DC= -3.28D-06 SmlDif=  1.00D-05
 NRisDI= 0 DoIntr=F SqrtH=F CThrHd= 10.0 CDAdj=  3.0
 RMS Error=  0.2349028986D-01 NUsed=10 OKEnD=F EnDIS=F
 InvSVX:  RCond= 1.25D-10 Info=           0 Equed=N FErr=  2.17D-07 BErr=  4.76D-17
 DIIS inversion failure, remove point  10.
 InvSVX:  RCond= 1.51D-10 Info=           0 Equed=N FErr=  1.71D-07 BErr=  7.80D-17
 DIIS inversion failure, remove point   9.
 InvSVX:  RCond= 2.66D-10 Info=           0 Equed=N FErr=  1.06D-07 BErr=  4.09D-17
 DIIS inversion failure, remove point   8.
 InvSVX:  RCond= 6.73D-10 Info=           0 Equed=N FErr=  5.82D-08 BErr=  4.98D-17
 DIIS inversion failure, remove point   7.
 InvSVX:  RCond= 1.27D-09 Info=           0 Equed=N FErr=  2.15D-08 BErr=  4.52D-17
 DIIS inversion failure, remove point   6.
 InvSVX:  RCond= 4.70D-08 Info=           0 Equed=N FErr=  5.82D-10 BErr=  2.05D-17
 DIIS inversion failure, remove point   5.
 InvSVX:  RCond= 2.07D-06 Info=           0 Equed=N FErr=  1.40D-11 BErr=  6.98D-17
 Point number   3 has DIIS coefficient -1.07D+01 and has been removed
 InvSVX:  RCond= 1.07D-04 Info=           0 Equed=N FErr=  2.33D-13 BErr=  1.06D-16
 Old DIIS coefficients:      8.67145     -3.44621      0.00000     -4.22524      0.00000
 Old DIIS coefficients:      0.00000      0.00000      0.00000      0.00000      0.00000
 RFO-DIIS uses    3 points instead of   10
 DidBck=F Rises=F RFO-DIIS coefs:    3.00000   -0.99462    0.00000   -1.00538    0.00000
                  RFO-DIIS coefs:    0.00000    0.00000    0.00000    0.00000    0.00000
 Iteration  1 RMS(Cart)=  0.06955937 RMS(Int)=  0.00499928
 Iteration  2 RMS(Cart)=  0.00534715 RMS(Int)=  0.00002606
 Iteration  3 RMS(Cart)=  0.00002460 RMS(Int)=  0.00001750
 Iteration  4 RMS(Cart)=  0.00000000 RMS(Int)=  0.00001750
 ITry= 1 IFail=0 DXMaxC= 3.86D-01 DCOld= 1.00D+10 DXMaxT= 6.57D-01 DXLimC= 3.00D+00 Rises=F
 Variable       Old X    -DE/DX   Delta X   Delta X   Delta X     New X
                                 (Linear)    (Quad)   (Total)
    R1        2.28565  -0.00012  -0.00002  -0.00018  -0.00021   2.28544
    R2        2.89277  -0.00005   0.00013  -0.00029  -0.00016   2.89260
    R3        2.83577  -0.00008   0.00056  -0.00058  -0.00002   2.83575
    R4        2.05864  -0.00005   0.00022   0.00010   0.00032   2.05896
    R5        2.06757   0.00002  -0.00039  -0.00006  -0.00046   2.06711
    R6        2.87161  -0.00004   0.00019  -0.00036  -0.00017   2.87144
    R7        2.07307   0.00003   0.00037   0.00048   0.00086   2.07393
    R8        2.07074   0.00002  -0.00035  -0.00016  -0.00050   2.07024
    R9        2.52433   0.00011  -0.00002   0.00010   0.00008   2.52441
   R10        2.05753  -0.00000  -0.00009   0.00001  -0.00007   2.05745
   R11        2.84558  -0.00002   0.00013  -0.00006   0.00008   2.84565
   R12        2.84301   0.00001   0.00016  -0.00010   0.00006   2.84307
   R13        2.86278   0.00001  -0.00028   0.00012  -0.00016   2.86263
   R14        2.06912   0.00002  -0.00009   0.00011   0.00002   2.06913
   R15        2.06926   0.00000  -0.00004   0.00001  -0.00002   2.06924
   R16        2.06016  -0.00001   0.00003  -0.00007  -0.00004   2.06012
   R17        2.05575  -0.00006   0.00003  -0.00015  -0.00011   2.05564
   R18        2.06870   0.00001   0.00004   0.00006   0.00010   2.06879
   R19        2.06883   0.00002  -0.00009   0.00008  -0.00001   2.06883
   R20        2.06458   0.00001  -0.00062  -0.00046  -0.00108   2.06350
   R21        2.05573  -0.00003   0.00021  -0.00012   0.00010   2.05583
   R22        2.06632   0.00002   0.00059   0.00058   0.00117   2.06749
    A1        1.95726  -0.00001   0.00019  -0.00000   0.00019   1.95746
    A2        1.90435  -0.00001  -0.00004   0.00004   0.00000   1.90435
    A3        1.88816   0.00000  -0.00044  -0.00038  -0.00083   1.88734
    A4        1.95202   0.00003  -0.00080   0.00017  -0.00062   1.95139
    A5        1.91374  -0.00001   0.00054   0.00008   0.00062   1.91436
    A6        1.84386  -0.00000   0.00057   0.00008   0.00064   1.84450
    A7        1.99680  -0.00003   0.00018  -0.00005   0.00010   1.99691
    A8        1.93063   0.00004  -0.00142  -0.00081  -0.00225   1.92838
    A9        1.93327   0.00001   0.00170   0.00166   0.00334   1.93661
   A10        1.87446  -0.00002  -0.00388  -0.00329  -0.00718   1.86728
   A11        1.89000   0.00003   0.00299   0.00291   0.00588   1.89588
   A12        1.83021  -0.00003   0.00038  -0.00052  -0.00013   1.83008
   A13        2.24555   0.00009  -0.00005   0.00042   0.00038   2.24593
   A14        1.99729  -0.00004  -0.00012  -0.00022  -0.00033   1.99695
   A15        2.04035  -0.00005   0.00016  -0.00021  -0.00004   2.04031
   A16        2.10871  -0.00009   0.00014  -0.00032  -0.00018   2.10853
   A17        2.17945   0.00016   0.00017   0.00054   0.00071   2.18016
   A18        1.99500  -0.00007  -0.00031  -0.00022  -0.00052   1.99448
   A19        2.13242   0.00002   0.00037   0.00024   0.00062   2.13303
   A20        2.12097   0.00003  -0.00027   0.00030   0.00003   2.12100
   A21        2.02980  -0.00004  -0.00011  -0.00055  -0.00067   2.02913
   A22        1.93670   0.00000  -0.00009  -0.00001  -0.00011   1.93660
   A23        1.93714   0.00002  -0.00008   0.00019   0.00011   1.93725
   A24        1.95215  -0.00001  -0.00011   0.00003  -0.00008   1.95207
   A25        1.85813  -0.00002   0.00021  -0.00033  -0.00012   1.85802
   A26        1.88766   0.00000   0.00007  -0.00002   0.00005   1.88770
   A27        1.88857   0.00000   0.00003   0.00012   0.00015   1.88872
   A28        1.97917   0.00003   0.00017   0.00024   0.00040   1.97957
   A29        1.92795   0.00001  -0.00018   0.00003  -0.00015   1.92781
   A30        1.92798  -0.00001   0.00016  -0.00021  -0.00005   1.92793
   A31        1.88505  -0.00000  -0.00012   0.00021   0.00009   1.88514
   A32        1.88213   0.00000  -0.00009   0.00010   0.00001   1.88214
   A33        1.85670  -0.00002   0.00006  -0.00040  -0.00035   1.85635
   A34        1.93516   0.00002   0.00611   0.00524   0.01132   1.94649
   A35        1.91941  -0.00001   0.00052   0.00024   0.00068   1.92009
   A36        1.91580  -0.00001  -0.00648  -0.00562  -0.01212   1.90368
   A37        1.91882   0.00002   0.00324   0.00325   0.00641   1.92523
   A38        1.86629  -0.00003   0.00066  -0.00024   0.00046   1.86675
   A39        1.90752   0.00002  -0.00418  -0.00303  -0.00728   1.90024
    D1        3.06697  -0.00001  -0.00738   0.00149  -0.00589   3.06108
    D2        0.94750   0.00001  -0.00133   0.00647   0.00513   0.95263
    D3       -1.07420   0.00001  -0.00196   0.00660   0.00464  -1.06956
    D4       -1.04364   0.00002  -0.00830   0.00174  -0.00656  -1.05019
    D5        3.12008   0.00003  -0.00225   0.00672   0.00447   3.12455
    D6        1.09837   0.00004  -0.00288   0.00685   0.00398   1.10235
    D7        0.95426   0.00001  -0.00788   0.00165  -0.00623   0.94802
    D8       -1.16521   0.00002  -0.00183   0.00663   0.00479  -1.16042
    D9        3.09627   0.00003  -0.00246   0.00676   0.00430   3.10057
   D10        2.06934  -0.00000  -0.00055   0.00183   0.00128   2.07061
   D11       -1.07222   0.00001  -0.00127   0.00234   0.00107  -1.07115
   D12       -0.07656  -0.00000  -0.00005   0.00165   0.00160  -0.07497
   D13        3.06506   0.00001  -0.00077   0.00215   0.00139   3.06645
   D14       -2.11594  -0.00001  -0.00062   0.00140   0.00078  -2.11516
   D15        1.02569  -0.00000  -0.00133   0.00191   0.00057   1.02626
   D16       -0.07827   0.00000  -0.04150  -0.03371  -0.07521  -0.15349
   D17        3.06008  -0.00001  -0.04300  -0.03613  -0.07913   2.98095
   D18        2.07179   0.00002  -0.04612  -0.03725  -0.08335   1.98844
   D19       -1.07304   0.00000  -0.04761  -0.03967  -0.08727  -1.16031
   D20       -2.24356  -0.00001  -0.04615  -0.03808  -0.08424  -2.32780
   D21        0.89479  -0.00003  -0.04765  -0.04050  -0.08816   0.80664
   D22        3.13762  -0.00000  -0.00034  -0.00033  -0.00067   3.13695
   D23        0.00279  -0.00000  -0.00089   0.00013  -0.00076   0.00203
   D24       -0.00401  -0.00001   0.00039  -0.00085  -0.00046  -0.00447
   D25       -3.13884  -0.00001  -0.00016  -0.00039  -0.00054  -3.13938
   D26       -2.11214   0.00001   0.00002   0.00493   0.00495  -2.10719
   D27        2.10862   0.00003  -0.00013   0.00522   0.00510   2.11371
   D28       -0.00250   0.00002  -0.00004   0.00491   0.00488   0.00238
   D29        1.02336   0.00001   0.00051   0.00452   0.00503   1.02840
   D30       -1.03907   0.00003   0.00036   0.00482   0.00518  -1.03389
   D31        3.13300   0.00001   0.00046   0.00451   0.00496   3.13797
   D32       -0.03491   0.00001   0.00890   0.00188   0.01077  -0.02413
   D33       -2.15368  -0.00001   0.00906   0.00142   0.01048  -2.14319
   D34        2.08009   0.00003   0.00901   0.00202   0.01103   2.09112
   D35        3.11306   0.00001   0.00838   0.00231   0.01069   3.12375
   D36        0.99429  -0.00001   0.00855   0.00185   0.01040   1.00469
   D37       -1.05512   0.00003   0.00849   0.00245   0.01094  -1.04418
   D38       -2.23747  -0.00004  -0.07999  -0.06826  -0.14830  -2.38576
   D39       -0.11161  -0.00001  -0.07154  -0.06052  -0.13207  -0.24368
   D40        1.98761  -0.00000  -0.08051  -0.06766  -0.14813   1.83948
   D41        0.90734  -0.00003  -0.07851  -0.06586  -0.14441   0.76293
   D42        3.03320   0.00001  -0.07006  -0.05812  -0.12818   2.90502
   D43       -1.15077   0.00001  -0.07903  -0.06526  -0.14424  -1.29501
         Item               Value     Threshold  Converged?
 Maximum Force            0.000158     0.000450     YES
 RMS     Force            0.000035     0.000300     YES
 Maximum Displacement     0.386396     0.001800     NO 
 RMS     Displacement     0.069928     0.001200     NO 
 Predicted change in Energy=-8.854567D-06
 Lowest energy point so far.  Saving SCF results.
 GradGradGradGradGradGradGradGradGradGradGradGradGradGradGradGradGradGrad

 Leave Link  103 at Tue Jun  4 00:17:13 2024, MaxMem= 13421772800 cpu:               1.8 elap:               0.1
 (Enter /tmpu/scunam/7/gaussian-2016.03/g1/g16/l202.exe)
                          Input orientation:                          
 ---------------------------------------------------------------------
 Center     Atomic      Atomic             Coordinates (Angstroms)
 Number     Number       Type             X           Y           Z
 ---------------------------------------------------------------------
      1          8           0        2.801905   -0.527161   -0.995073
      2          6           0        0.049877   -0.492079   -0.348090
      3          6           0        1.119479    0.031052    0.613851
      4          6           0       -1.305716   -0.554128    0.292505
      5          6           0       -2.423031    0.091115   -0.053598
      6          6           0        2.531790    0.011312    0.053611
      7          6           0       -3.700220   -0.109556    0.718490
      8          6           0       -2.542368    1.047580   -1.208770
      9          6           0        3.589932    0.714684    0.878434
     10          1           0        0.045297    0.124849   -1.246145
     11          1           0        0.347811   -1.491688   -0.677575
     12          1           0        1.131758   -0.564736    1.535447
     13          1           0        0.887200    1.050330    0.941394
     14          1           0       -1.367140   -1.219110    1.152400
     15          1           0       -4.495068   -0.490065    0.068628
     16          1           0       -4.062984    0.838139    1.129935
     17          1           0       -3.570076   -0.811274    1.542580
     18          1           0       -1.608027    1.195727   -1.745765
     19          1           0       -2.891874    2.025198   -0.861493
     20          1           0       -3.288368    0.690308   -1.925971
     21          1           0        3.490329    0.481825    1.940612
     22          1           0        4.581305    0.441509    0.523360
     23          1           0        3.462787    1.796467    0.775633
 ---------------------------------------------------------------------
                    Distance matrix (angstroms):
                    1          2          3          4          5
     1  O    0.000000
     2  C    2.827274   0.000000
     3  C    2.393908   1.530701   0.000000
     4  C    4.304780   1.500614   2.515406   0.000000
     5  C    5.344960   2.557756   3.605339   1.335859   0.000000
     6  C    1.209402   2.564110   1.519501   3.886289   4.956623
     7  C    6.737086   3.917543   4.822885   2.472399   1.505855
     8  C    5.575548   3.135451   4.214784   2.519644   1.504490
     9  C    2.381847   3.936068   2.576916   5.091224   6.116637
    10  H    2.843772   1.089552   2.149942   2.157241   2.741523
    11  H    2.655879   1.093866   2.140558   2.134063   3.251489
    12  H    3.032216   2.173352   1.097475   2.736110   3.948636
    13  H    3.147138   2.177822   1.095521   2.793604   3.587163
    14  H    4.740398   2.188145   2.834822   1.088758   2.070272
    15  H    7.374188   4.564009   5.664977   3.197842   2.155469
    16  H    7.314807   4.568332   5.270261   3.200347   2.155977
    17  H    6.864586   4.096410   4.854274   2.599258   2.162823
    18  H    4.793681   2.747877   3.789926   2.703318   2.178951
    19  H    6.241114   3.905658   4.716377   3.240452   2.147833
    20  H    6.280145   3.877063   5.129759   3.225083   2.147934
    21  H    3.179659   4.245392   2.753983   5.176050   6.252787
    22  H    2.531843   4.707957   3.487249   5.975082   7.036788
    23  H    2.995232   4.260065   2.938360   5.338289   6.183745
                    6          7          8          9         10
     6  C    0.000000
     7  C    6.268543   0.000000
     8  C    5.330529   2.528620   0.000000
     9  C    1.514836   7.338343   6.486320   0.000000
    10  H    2.808007   4.235993   2.747515   4.174468   0.000000
    11  H    2.750165   4.499538   3.883708   4.219075   1.740108
    12  H    2.118433   4.921648   4.861018   2.848017   3.064829
    13  H    2.138316   4.737030   4.047858   2.724221   2.520049
    14  H    4.233549   2.619666   3.477667   5.327962   3.090990
    15  H    7.044738   1.094938   2.794483   8.214282   4.766724
    16  H    6.732991   1.094993   2.797442   7.658043   4.799220
    17  H    6.334544   1.090170   3.475839   7.350874   4.660927
    18  H    4.666763   3.486200   1.087798   5.842653   2.032210
    19  H    5.857413   2.776139   1.094757   6.838026   3.519412
    20  H    6.184983   2.793310   1.094776   7.428074   3.448946
    21  H    2.168168   7.317602   6.828772   1.091956   4.706496
    22  H    2.146217   8.302133   7.356244   1.087898   4.879221
    23  H    2.138890   7.412480   6.368718   1.094070   4.308263
                   11         12         13         14         15
    11  H    0.000000
    12  H    2.524140   0.000000
    13  H    3.061676   1.738144   0.000000
    14  H    2.522730   2.611403   3.205766   0.000000
    15  H    5.001354   5.815351   5.665982   3.389690   0.000000
    16  H    5.305685   5.396095   4.958316   3.391217   1.754193
    17  H    4.554327   4.708299   4.867680   2.274093   1.769554
    18  H    3.491207   4.622986   3.669894   3.780056   3.803804
    19  H    4.785172   5.351887   4.299090   4.111704   3.124405
    20  H    4.420564   5.752744   5.078067   4.100409   2.613012
    21  H    4.541484   2.611954   2.845683   5.206675   8.259264
    22  H    4.806451   3.733125   3.767204   6.207846   9.135379
    23  H    4.756769   3.403864   2.686604   5.706475   8.309966
                   16         17         18         19         20
    16  H    0.000000
    17  H    1.770253   0.000000
    18  H    3.797938   4.323298   0.000000
    19  H    2.597382   3.779564   1.765849   0.000000
    20  H    3.156017   3.790113   1.763936   1.752784   0.000000
    21  H    7.605044   7.188870   6.331845   7.139069   7.806706
    22  H    8.674617   8.309831   6.635179   7.763652   8.245779
    23  H    7.594811   7.539873   5.694865   6.566141   7.355293
                   21         22         23
    21  H    0.000000
    22  H    1.788983   0.000000
    23  H    1.756764   1.775004   0.000000
 Stoichiometry    C8H14O
 Framework group  C1[X(C8H14O)]
 Deg. of freedom    63
 Full point group                 C1      NOp   1
 RotChk:  IX=0 Diff= 1.62D-02
 Largest Abelian subgroup         C1      NOp   1
 Largest concise Abelian subgroup C1      NOp   1
                         Standard orientation:                         
 ---------------------------------------------------------------------
 Center     Atomic      Atomic             Coordinates (Angstroms)
 Number     Number       Type             X           Y           Z
 ---------------------------------------------------------------------
      1          8           0        2.780421    1.002962   -0.745580
      2          6           0        0.055045    0.263748   -0.606406
      3          6           0        1.156270   -0.552843    0.074422
      4          6           0       -1.274391   -0.430815   -0.561395
      5          6           0       -2.409624   -0.024478    0.013629
      6          6           0        2.546162    0.050953   -0.037445
      7          6           0       -3.654490   -0.868949   -0.055506
      8          6           0       -2.581349    1.270526    0.759931
      9          6           0        3.629137   -0.600508    0.797715
     10          1           0        0.010750    1.252505   -0.150859
     11          1           0        0.348630    0.430451   -1.646868
     12          1           0        1.208983   -1.560895   -0.356282
     13          1           0        0.928048   -0.711722    1.134063
     14          1           0       -1.297103   -1.392730   -1.070901
     15          1           0       -4.470414   -0.324711   -0.542294
     16          1           0       -4.009267   -1.127706    0.947583
     17          1           0       -3.486842   -1.794312   -0.606928
     18          1           0       -1.669598    1.861125    0.816555
     19          1           0       -2.925596    1.080550    1.781643
     20          1           0       -3.351246    1.886932    0.284705
     21          1           0        3.572353   -1.689867    0.748323
     22          1           0        4.608449   -0.258238    0.470114
     23          1           0        3.488922   -0.320885    1.846113
 ---------------------------------------------------------------------
 Rotational constants (GHZ):           4.0498155           0.5786978           0.5584132
 Leave Link  202 at Tue Jun  4 00:17:13 2024, MaxMem= 13421772800 cpu:               0.5 elap:               0.0
 (Enter /tmpu/scunam/7/gaussian-2016.03/g1/g16/l301.exe)
 Standard basis: def2TZVP (5D, 7F)
 Ernie: Thresh=  0.10000D-02 Tol=  0.10000D-05 Strict=F.
 There are   408 symmetry adapted cartesian basis functions of A   symmetry.
 There are   363 symmetry adapted basis functions of A   symmetry.
   363 basis functions,   571 primitive gaussians,   408 cartesian basis functions
    35 alpha electrons       35 beta electrons
       nuclear repulsion energy       428.7956918831 Hartrees.
 IExCor=  402 DFT=T Ex+Corr=B3LYP ExCW=0 ScaHFX=  0.200000
 ScaDFX=  0.800000  0.720000  1.000000  0.810000 ScalE2=  1.000000  1.000000
 IRadAn=      5 IRanWt=     -1 IRanGd=            0 ICorTp=0 IEmpDi=  4
 NAtoms=   23 NActive=   23 NUniq=   23 SFac= 1.00D+00 NAtFMM=   60 NAOKFM=F Big=F
 Integral buffers will be    131072 words long.
 Raffenetti 2 integral format.
 Two-electron integral symmetry is turned on.
 Leave Link  301 at Tue Jun  4 00:17:13 2024, MaxMem= 13421772800 cpu:               2.7 elap:               0.1
 (Enter /tmpu/scunam/7/gaussian-2016.03/g1/g16/l302.exe)
 NPDir=0 NMtPBC=     1 NCelOv=     1 NCel=       1 NClECP=     1 NCelD=      1
         NCelK=      1 NCelE2=     1 NClLst=     1 CellRange=     0.0.
 One-electron integrals computed using PRISM.
 One-electron integral symmetry used in STVInt
   1 Symmetry operations used in ECPInt.
 ECPInt:  NShTT=   12090 NPrTT=   35220 LenC2=   11310 LenP2D=   25547.
 LDataN:  DoStor=T MaxTD1= 6 Len=  172
 NBasis=   363 RedAO= T EigKep=  7.75D-05  NBF=   363
 NBsUse=   363 1.00D-06 EigRej= -1.00D+00 NBFU=   363
 Precomputing XC quadrature grid using
 IXCGrd= 4 IRadAn=           5 IRanWt=          -1 IRanGd=           0 AccXCQ= 0.00D+00.
 Generated NRdTot=       0 NPtTot=           0 NUsed=           0 NTot=          32
 NSgBfM=   405   405   405   405   405 MxSgAt=    23 MxSgA2=    23.
 Leave Link  302 at Tue Jun  4 00:17:13 2024, MaxMem= 13421772800 cpu:              16.3 elap:               0.5
 (Enter /tmpu/scunam/7/gaussian-2016.03/g1/g16/l303.exe)
 DipDrv:  MaxL=1.
 Leave Link  303 at Tue Jun  4 00:17:13 2024, MaxMem= 13421772800 cpu:               1.5 elap:               0.1
 (Enter /tmpu/scunam/7/gaussian-2016.03/g1/g16/l401.exe)
 Initial guess from the checkpoint file:  "S36.chk"
 B after Tr=    -0.000000    0.000000   -0.000000
         Rot=    0.999965    0.008342    0.000328    0.000913 Ang=   0.96 deg.
 Guess basis will be translated and rotated to current coordinates.
 JPrj=2 DoOrth=T DoCkMO=T.
 Generating alternative initial guess.
 ExpMin= 9.52D-02 ExpMax= 2.70D+04 ExpMxC= 9.22D+02 IAcc=2 IRadAn=         4 AccDes= 0.00D+00
 Harris functional with IExCor=  402 and IRadAn=       4 diagonalized for initial guess.
 HarFok:  IExCor=  402 AccDes= 0.00D+00 IRadAn=         4 IDoV= 1 UseB2=F ITyADJ=14
 ICtDFT=  3500011 ScaDFX=  1.000000  1.000000  1.000000  1.000000
 FoFCou: FMM=F IPFlag=           0 FMFlag=      100000 FMFlg1=           0
         NFxFlg=           0 DoJE=T BraDBF=F KetDBF=T FulRan=T
         wScrn=  0.000000 ICntrl=       500 IOpCl=  0 I1Cent=   200000004 NGrid=           0
         NMat0=    1 NMatS0=      1 NMatT0=    0 NMatD0=    1 NMtDS0=    0 NMtDT0=    0
 Petite list used in FoFCou.
 Harris En= -388.761639159089    
 Leave Link  401 at Tue Jun  4 00:17:14 2024, MaxMem= 13421772800 cpu:              26.8 elap:               0.9
 (Enter /tmpu/scunam/7/gaussian-2016.03/g1/g16/l502.exe)
 Integral symmetry usage will be decided dynamically.
 Closed shell SCF:
 Using DIIS extrapolation, IDIIS=  1040.
 NGot= 13421772800 LenX= 13421422965 LenY= 13421256060
 Requested convergence on RMS density matrix=1.00D-08 within 128 cycles.
 Requested convergence on MAX density matrix=1.00D-06.
 Requested convergence on             energy=1.00D-06.
 No special actions if energy rises.
 Fock matrices will be formed incrementally for  20 cycles.
 Integral accuracy reduced to 1.0D-05 until final iterations.

 Cycle   1  Pass 0  IDiag  1:
 FoFJK:  IHMeth= 1 ICntrl=       0 DoSepK=F KAlg= 0 I1Cent=           0 FoldK=F
 IRaf= 890000000 NMat=       1 IRICut=       1 DoRegI=T DoRafI=F ISym2E= 0 IDoP0=0 IntGTp=1.
 FoFCou: FMM=F IPFlag=           0 FMFlag=      100000 FMFlg1=           0
         NFxFlg=           0 DoJE=F BraDBF=F KetDBF=F FulRan=T
         wScrn=  0.000000 ICntrl=         0 IOpCl=  0 I1Cent=           0 NGrid=           0
         NMat0=    1 NMatS0=      1 NMatT0=    0 NMatD0=    1 NMtDS0=    0 NMtDT0=    0
 Symmetry not used in FoFCou.
 E= -388.642748198406    
 DIIS: error= 3.89D-03 at cycle   1 NSaved=   1.
 NSaved= 1 IEnMin= 1 EnMin= -388.642748198406     IErMin= 1 ErrMin= 3.89D-03
 ErrMax= 3.89D-03  0.00D+00 EMaxC= 1.00D-01 BMatC= 5.91D-03 BMatP= 5.91D-03
 IDIUse=3 WtCom= 9.61D-01 WtEn= 3.89D-02
 Coeff-Com:  0.100D+01
 Coeff-En:   0.100D+01
 Coeff:      0.100D+01
 Gap=     0.607 Goal=   None    Shift=    0.000
 GapD=    0.607 DampG=2.000 DampE=1.000 DampFc=2.0000 IDamp=-1.
 RMSDP=2.74D-04 MaxDP=1.35D-02              OVMax= 2.68D-02

 Cycle   2  Pass 0  IDiag  1:
 RMSU=  2.74D-04    CP:  9.97D-01
 E= -388.651131667399     Delta-E=       -0.008383468993 Rises=F Damp=F
 DIIS: error= 3.23D-04 at cycle   2 NSaved=   2.
 NSaved= 2 IEnMin= 2 EnMin= -388.651131667399     IErMin= 2 ErrMin= 3.23D-04
 ErrMax= 3.23D-04  0.00D+00 EMaxC= 1.00D-01 BMatC= 5.67D-05 BMatP= 5.91D-03
 IDIUse=3 WtCom= 9.97D-01 WtEn= 3.23D-03
 Coeff-Com: -0.634D-01 0.106D+01
 Coeff-En:   0.000D+00 0.100D+01
 Coeff:     -0.632D-01 0.106D+01
 Gap=     0.216 Goal=   None    Shift=    0.000
 RMSDP=4.21D-05 MaxDP=2.82D-03 DE=-8.38D-03 OVMax= 3.27D-03

 Cycle   3  Pass 0  IDiag  1:
 RMSU=  3.46D-05    CP:  9.97D-01  1.09D+00
 E= -388.651215884737     Delta-E=       -0.000084217338 Rises=F Damp=F
 DIIS: error= 2.15D-04 at cycle   3 NSaved=   3.
 NSaved= 3 IEnMin= 3 EnMin= -388.651215884737     IErMin= 3 ErrMin= 2.15D-04
 ErrMax= 2.15D-04  0.00D+00 EMaxC= 1.00D-01 BMatC= 2.58D-05 BMatP= 5.67D-05
 IDIUse=3 WtCom= 9.98D-01 WtEn= 2.15D-03
 Coeff-Com: -0.318D-01 0.477D+00 0.555D+00
 Coeff-En:   0.000D+00 0.000D+00 0.100D+01
 Coeff:     -0.318D-01 0.476D+00 0.556D+00
 Gap=     0.216 Goal=   None    Shift=    0.000
 RMSDP=2.82D-05 MaxDP=3.17D-03 DE=-8.42D-05 OVMax= 2.18D-03

 Cycle   4  Pass 0  IDiag  1:
 RMSU=  1.99D-05    CP:  9.97D-01  1.07D+00  4.46D-01
 E= -388.651226499397     Delta-E=       -0.000010614660 Rises=F Damp=F
 DIIS: error= 1.70D-04 at cycle   4 NSaved=   4.
 NSaved= 4 IEnMin= 4 EnMin= -388.651226499397     IErMin= 4 ErrMin= 1.70D-04
 ErrMax= 1.70D-04  0.00D+00 EMaxC= 1.00D-01 BMatC= 1.39D-05 BMatP= 2.58D-05
 IDIUse=3 WtCom= 9.98D-01 WtEn= 1.70D-03
 Coeff-Com: -0.910D-02 0.117D+00 0.409D+00 0.483D+00
 Coeff-En:   0.000D+00 0.000D+00 0.354D+00 0.646D+00
 Coeff:     -0.908D-02 0.117D+00 0.409D+00 0.483D+00
 Gap=     0.216 Goal=   None    Shift=    0.000
 RMSDP=1.12D-05 MaxDP=1.19D-03 DE=-1.06D-05 OVMax= 1.02D-03

 Cycle   5  Pass 0  IDiag  1:
 RMSU=  4.31D-06    CP:  9.97D-01  1.08D+00  6.18D-01  6.06D-01
 E= -388.651235943777     Delta-E=       -0.000009444380 Rises=F Damp=F
 DIIS: error= 2.17D-05 at cycle   5 NSaved=   5.
 NSaved= 5 IEnMin= 5 EnMin= -388.651235943777     IErMin= 5 ErrMin= 2.17D-05
 ErrMax= 2.17D-05  0.00D+00 EMaxC= 1.00D-01 BMatC= 2.92D-07 BMatP= 1.39D-05
 IDIUse=1 WtCom= 1.00D+00 WtEn= 0.00D+00
 Coeff-Com: -0.258D-03-0.674D-02 0.105D+00 0.191D+00 0.711D+00
 Coeff:     -0.258D-03-0.674D-02 0.105D+00 0.191D+00 0.711D+00
 Gap=     0.216 Goal=   None    Shift=    0.000
 RMSDP=2.15D-06 MaxDP=5.86D-05 DE=-9.44D-06 OVMax= 1.75D-04

 Initial convergence to 1.0D-05 achieved.  Increase integral accuracy.
 Cycle   6  Pass 1  IDiag  1:
 E= -388.651226828717     Delta-E=        0.000009115060 Rises=F Damp=F
 DIIS: error= 9.42D-05 at cycle   1 NSaved=   1.
 NSaved= 1 IEnMin= 1 EnMin= -388.651226828717     IErMin= 1 ErrMin= 9.42D-05
 ErrMax= 9.42D-05  0.00D+00 EMaxC= 1.00D-01 BMatC= 2.12D-06 BMatP= 2.12D-06
 IDIUse=1 WtCom= 1.00D+00 WtEn= 0.00D+00
 Coeff-Com:  0.100D+01
 Coeff:      0.100D+01
 Gap=     0.216 Goal=   None    Shift=    0.000
 RMSDP=2.15D-06 MaxDP=5.86D-05 DE= 9.12D-06 OVMax= 2.81D-04

 Cycle   7  Pass 1  IDiag  1:
 RMSU=  9.95D-05    CP:  1.00D+00
 E= -388.651227890154     Delta-E=       -0.000001061437 Rises=F Damp=F
 DIIS: error= 1.59D-05 at cycle   2 NSaved=   2.
 NSaved= 2 IEnMin= 2 EnMin= -388.651227890154     IErMin= 2 ErrMin= 1.59D-05
 ErrMax= 1.59D-05  0.00D+00 EMaxC= 1.00D-01 BMatC= 1.26D-07 BMatP= 2.12D-06
 IDIUse=1 WtCom= 1.00D+00 WtEn= 0.00D+00
 Coeff-Com:  0.788D-01 0.921D+00
 Coeff:      0.788D-01 0.921D+00
 Gap=     0.216 Goal=   None    Shift=    0.000
 RMSDP=2.63D-06 MaxDP=9.84D-05 DE=-1.06D-06 OVMax= 4.15D-04

 Cycle   8  Pass 1  IDiag  1:
 RMSU=  2.03D-06    CP:  1.00D+00  1.02D+00
 E= -388.651227670572     Delta-E=        0.000000219582 Rises=F Damp=F
 DIIS: error= 2.92D-05 at cycle   3 NSaved=   3.
 NSaved= 3 IEnMin= 2 EnMin= -388.651227890154     IErMin= 2 ErrMin= 1.59D-05
 ErrMax= 2.92D-05  0.00D+00 EMaxC= 1.00D-01 BMatC= 3.55D-07 BMatP= 1.26D-07
 IDIUse=1 WtCom= 1.00D+00 WtEn= 0.00D+00
 Coeff-Com: -0.429D-03 0.628D+00 0.372D+00
 Coeff:     -0.429D-03 0.628D+00 0.372D+00
 Gap=     0.216 Goal=   None    Shift=    0.000
 RMSDP=1.20D-06 MaxDP=6.22D-05 DE= 2.20D-07 OVMax= 2.67D-04

 Cycle   9  Pass 1  IDiag  1:
 RMSU=  5.78D-07    CP:  1.00D+00  1.02D+00  4.85D-01
 E= -388.651228011177     Delta-E=       -0.000000340605 Rises=F Damp=F
 DIIS: error= 2.44D-06 at cycle   4 NSaved=   4.
 NSaved= 4 IEnMin= 4 EnMin= -388.651228011177     IErMin= 4 ErrMin= 2.44D-06
 ErrMax= 2.44D-06  0.00D+00 EMaxC= 1.00D-01 BMatC= 4.37D-09 BMatP= 1.26D-07
 IDIUse=1 WtCom= 1.00D+00 WtEn= 0.00D+00
 Coeff-Com: -0.204D-02 0.349D+00 0.217D+00 0.436D+00
 Coeff:     -0.204D-02 0.349D+00 0.217D+00 0.436D+00
 Gap=     0.216 Goal=   None    Shift=    0.000
 RMSDP=2.85D-07 MaxDP=2.95D-05 DE=-3.41D-07 OVMax= 1.47D-05

 Cycle  10  Pass 1  IDiag  1:
 RMSU=  2.13D-07    CP:  1.00D+00  1.02D+00  4.82D-01  6.82D-01
 E= -388.651228014822     Delta-E=       -0.000000003645 Rises=F Damp=F
 DIIS: error= 5.06D-07 at cycle   5 NSaved=   5.
 NSaved= 5 IEnMin= 5 EnMin= -388.651228014822     IErMin= 5 ErrMin= 5.06D-07
 ErrMax= 5.06D-07  0.00D+00 EMaxC= 1.00D-01 BMatC= 1.59D-10 BMatP= 4.37D-09
 IDIUse=1 WtCom= 1.00D+00 WtEn= 0.00D+00
 Coeff-Com: -0.120D-02 0.189D+00 0.118D+00 0.261D+00 0.432D+00
 Coeff:     -0.120D-02 0.189D+00 0.118D+00 0.261D+00 0.432D+00
 Gap=     0.216 Goal=   None    Shift=    0.000
 RMSDP=3.78D-08 MaxDP=2.92D-06 DE=-3.65D-09 OVMax= 3.57D-06

 Cycle  11  Pass 1  IDiag  1:
 RMSU=  3.19D-08    CP:  1.00D+00  1.02D+00  4.82D-01  7.08D-01  9.49D-01
 E= -388.651228014934     Delta-E=       -0.000000000111 Rises=F Damp=F
 DIIS: error= 1.26D-07 at cycle   6 NSaved=   6.
 NSaved= 6 IEnMin= 6 EnMin= -388.651228014934     IErMin= 6 ErrMin= 1.26D-07
 ErrMax= 1.26D-07  0.00D+00 EMaxC= 1.00D-01 BMatC= 1.38D-11 BMatP= 1.59D-10
 IDIUse=1 WtCom= 1.00D+00 WtEn= 0.00D+00
 Coeff-Com: -0.348D-03 0.496D-01 0.312D-01 0.755D-01 0.245D+00 0.599D+00
 Coeff:     -0.348D-03 0.496D-01 0.312D-01 0.755D-01 0.245D+00 0.599D+00
 Gap=     0.216 Goal=   None    Shift=    0.000
 RMSDP=1.50D-08 MaxDP=1.04D-06 DE=-1.11D-10 OVMax= 1.15D-06

 Cycle  12  Pass 1  IDiag  1:
 RMSU=  1.00D-08    CP:  1.00D+00  1.02D+00  4.82D-01  7.09D-01  9.93D-01
                    CP:  9.53D-01
 E= -388.651228014947     Delta-E=       -0.000000000013 Rises=F Damp=F
 DIIS: error= 4.13D-08 at cycle   7 NSaved=   7.
 NSaved= 7 IEnMin= 7 EnMin= -388.651228014947     IErMin= 7 ErrMin= 4.13D-08
 ErrMax= 4.13D-08  0.00D+00 EMaxC= 1.00D-01 BMatC= 1.16D-12 BMatP= 1.38D-11
 IDIUse=1 WtCom= 1.00D+00 WtEn= 0.00D+00
 Coeff-Com:  0.590D-04-0.115D-01-0.721D-02-0.134D-01 0.296D-01 0.258D+00
 Coeff-Com:  0.745D+00
 Coeff:      0.590D-04-0.115D-01-0.721D-02-0.134D-01 0.296D-01 0.258D+00
 Coeff:      0.745D+00
 Gap=     0.216 Goal=   None    Shift=    0.000
 RMSDP=6.46D-09 MaxDP=2.90D-07 DE=-1.34D-11 OVMax= 7.15D-07

 SCF Done:  E(RB3LYP) =  -388.651228015     A.U. after   12 cycles
            NFock= 12  Conv=0.65D-08     -V/T= 2.0053
 KE= 3.865943217580D+02 PE=-1.760861233346D+03 EE= 5.568199916899D+02
 Leave Link  502 at Tue Jun  4 00:17:42 2024, MaxMem= 13421772800 cpu:             872.2 elap:              27.3
 (Enter /tmpu/scunam/7/gaussian-2016.03/g1/g16/l508.exe)
 QCSCF skips out because SCF is already converged.
 Leave Link  508 at Tue Jun  4 00:17:42 2024, MaxMem= 13421772800 cpu:               1.1 elap:               0.1
 (Enter /tmpu/scunam/7/gaussian-2016.03/g1/g16/l701.exe)
 ... and contract with generalized density number  0.
 Compute integral first derivatives.
   1 Symmetry operations used in ECPInt.
 ECPInt:  NShTT=   12090 NPrTT=   35220 LenC2=   11310 LenP2D=   25547.
 LDataN:  DoStor=T MaxTD1= 7 Len=  274
 Leave Link  701 at Tue Jun  4 00:17:42 2024, MaxMem= 13421772800 cpu:               8.6 elap:               0.3
 (Enter /tmpu/scunam/7/gaussian-2016.03/g1/g16/l702.exe)
 L702 exits ... SP integral derivatives will be done elsewhere.
 Leave Link  702 at Tue Jun  4 00:17:42 2024, MaxMem= 13421772800 cpu:               0.6 elap:               0.0
 (Enter /tmpu/scunam/7/gaussian-2016.03/g1/g16/l703.exe)
 Integral derivatives from FoFJK, PRISM(SPDF).
 Compute integral first derivatives, UseDBF=F ICtDFT=           0.
 Calling FoFJK, ICntrl=      2127 FMM=F ISym2X=0 I1Cent= 0 IOpClX= 0 NMat=1 NMatS=1 NMatT=0.
 FoFJK:  IHMeth= 1 ICntrl=    2127 DoSepK=F KAlg= 0 I1Cent=           0 FoldK=F
 IRaf=         0 NMat=       1 IRICut=       1 DoRegI=T DoRafI=F ISym2E= 0 IDoP0=0 IntGTp=1.
 FoFCou: FMM=F IPFlag=           0 FMFlag=      100000 FMFlg1=         800
         NFxFlg=           0 DoJE=F BraDBF=F KetDBF=F FulRan=T
         wScrn=  0.000000 ICntrl=      2127 IOpCl=  0 I1Cent=           0 NGrid=           0
         NMat0=    1 NMatS0=      1 NMatT0=    0 NMatD0=    1 NMtDS0=    0 NMtDT0=    0
 Symmetry not used in FoFCou.
 Leave Link  703 at Tue Jun  4 00:17:52 2024, MaxMem= 13421772800 cpu:             327.2 elap:              10.3
 (Enter /tmpu/scunam/7/gaussian-2016.03/g1/g16/l716.exe)
 Dipole        =-3.14436876D-01-7.78385538D-01 6.94808835D-01
 ***** Axes restored to original set *****
 -------------------------------------------------------------------
 Center     Atomic                   Forces (Hartrees/Bohr)
 Number     Number              X              Y              Z
 -------------------------------------------------------------------
      1        8           0.000064812    0.000048391    0.000056633
      2        6          -0.000156604    0.000017952    0.000098213
      3        6           0.000056281   -0.000020547   -0.000096975
      4        6           0.000111026   -0.000026011   -0.000121897
      5        6          -0.000062671    0.000027140   -0.000027513
      6        6          -0.000252042    0.000023990    0.000100730
      7        6           0.000074270   -0.000008115    0.000016798
      8        6           0.000026404    0.000005808    0.000027933
      9        6           0.000029914    0.000073279   -0.000034449
     10        1           0.000028156   -0.000001752   -0.000012451
     11        1           0.000007180   -0.000051724   -0.000010004
     12        1           0.000052769    0.000011307    0.000062803
     13        1           0.000018695    0.000038550   -0.000044910
     14        1           0.000009276    0.000000804    0.000023655
     15        1          -0.000014324   -0.000013334   -0.000004125
     16        1          -0.000019643    0.000003917   -0.000002162
     17        1          -0.000008280    0.000012644    0.000003989
     18        1          -0.000000065    0.000004694    0.000013756
     19        1          -0.000007940    0.000008977   -0.000008459
     20        1          -0.000004593   -0.000009204    0.000006509
     21        1           0.000003485   -0.000148413   -0.000047770
     22        1           0.000053555    0.000015413    0.000035224
     23        1          -0.000009662   -0.000013765   -0.000035527
 -------------------------------------------------------------------
 Cartesian Forces:  Max     0.000252042 RMS     0.000057302
 Leave Link  716 at Tue Jun  4 00:17:52 2024, MaxMem= 13421772800 cpu:               1.7 elap:               0.1
 (Enter /tmpu/scunam/7/gaussian-2016.03/g1/g16/l103.exe)

 GradGradGradGradGradGradGradGradGradGradGradGradGradGradGradGradGradGrad
 Berny optimization.
 Using GEDIIS/GDIIS optimizer.
 FormGI is forming the generalized inverse of G from B-inverse, IUseBI=4.
 Internal  Forces:  Max     0.000152033 RMS     0.000038454
 Search for a local minimum.
 Step number  18 out of a maximum of  138
 All quantities printed in internal units (Hartrees-Bohrs-Radians)
 RMS Force = .38454D-04 SwitMx=.10000D-02 MixMth= 2
 Mixed Optimization -- En-DIIS/RFO-DIIS
 Swapping is turned off.
 Update second derivatives using D2CorX and points   14   15   16   17   18
 DE=  9.68D-06 DEPred=-8.85D-06 R=-1.09D+00
 Trust test=-1.09D+00 RLast= 4.03D-01 DXMaxT set to 3.28D-01
 ITU= -1  1  1  0  0  0  0  0  0  1  1  1  1  1 -1  1  1  0
     Eigenvalues ---    0.00037   0.00114   0.00132   0.00217   0.00556
     Eigenvalues ---    0.00662   0.01376   0.01716   0.02905   0.02925
     Eigenvalues ---    0.03938   0.04223   0.04944   0.05548   0.06870
     Eigenvalues ---    0.06920   0.07041   0.07099   0.07304   0.07397
     Eigenvalues ---    0.09270   0.09838   0.12816   0.13234   0.15854
     Eigenvalues ---    0.15960   0.16002   0.16012   0.16039   0.16074
     Eigenvalues ---    0.16101   0.16245   0.16304   0.16467   0.21655
     Eigenvalues ---    0.22350   0.22890   0.24988   0.25395   0.25580
     Eigenvalues ---    0.29629   0.29956   0.30908   0.31438   0.31916
     Eigenvalues ---    0.32982   0.33860   0.33968   0.34091   0.34159
     Eigenvalues ---    0.34232   0.34246   0.34268   0.34276   0.34314
     Eigenvalues ---    0.34460   0.34507   0.34565   0.34880   0.35640
     Eigenvalues ---    0.37722   0.59880   0.90134
 En-DIIS/RFO-DIIS/Sim-DIIS IScMMF=       -3 using points:    18   17   16   15   14   13   12   11   10    9
 RFO step:  Lambda=-3.74760938D-05.
 NNeg= 0 NGDIIS=10 SimSw=  2.50D-03 Rises=T DC=  9.68D-06 SmlDif=  1.00D-05
 NRisDI= 1 DoIntr=F SqrtH=F CThrHd= 10.0 CDAdj=  3.0
 RMS Error=  0.2933614904D-01 NUsed=10 OKEnD=T EnDIS=T
 InvSVX:  RCond= 1.46D-10 Info=           0 Equed=N FErr=  1.41D-08 BErr=  8.52D-17
 DIIS inversion failure, remove point  10.
 InvSVX:  RCond= 3.61D-10 Info=           0 Equed=N FErr=  6.76D-09 BErr=  3.78D-17
 DIIS inversion failure, remove point   9.
 InvSVX:  RCond= 4.29D-10 Info=           0 Equed=N FErr=  9.38D-09 BErr=  1.00D-16
 DIIS inversion failure, remove point   8.
 InvSVX:  RCond= 6.99D-10 Info=           0 Equed=N FErr=  1.74D-09 BErr=  7.10D-17
 DIIS inversion failure, remove point   7.
 InvSVX:  RCond= 1.29D-09 Info=           0 Equed=N FErr=  2.96D-09 BErr=  1.06D-16
 DIIS inversion failure, remove point   6.
 InvSVX:  RCond= 4.97D-09 Info=           0 Equed=N FErr=  9.59D-10 BErr=  9.62D-17
 DIIS inversion failure, remove point   5.
 InvSVX:  RCond= 9.24D-05 Info=           0 Equed=N FErr=  6.15D-13 BErr=  4.33D-17
 RFO-DIIS uses    4 points instead of   10
 EnCoef did   100 forward-backward iterations
 IWarn =    2
 Energies =   -388.651229829      -388.651230497      -388.651231227      -388.651231469      -388.651231862    
 Energies =   -388.651232345      -388.651233045      -388.651234411      -388.651237695      -388.651228015    
 Point number   1 has energy  -0.3886512298D+03 and has been removed
 EnCoef did   100 forward-backward iterations
 IWarn =    2
 Energies =   -388.651230497      -388.651231227      -388.651231469      -388.651231862      -388.651232345    
 Energies =   -388.651233045      -388.651234411      -388.651237695      -388.651228015    
 Point number   1 has energy  -0.3886512305D+03 and has been removed
 EnCoef did   100 forward-backward iterations
 IWarn =    2
 Energies =   -388.651231227      -388.651231469      -388.651231862      -388.651232345      -388.651233045    
 Energies =   -388.651234411      -388.651237695      -388.651228015    
 Point number   1 has energy  -0.3886512312D+03 and has been removed
 EnCoef did   100 forward-backward iterations
 IWarn =    2
 Energies =   -388.651231469      -388.651231862      -388.651232345      -388.651233045      -388.651234411    
 Energies =   -388.651237695      -388.651228015    
 Point number   1 has energy  -0.3886512315D+03 and has been removed
 EnCoef did   100 forward-backward iterations
 IWarn =    2
 Energies =   -388.651231862      -388.651232345      -388.651233045      -388.651234411      -388.651237695    
 Energies =   -388.651228015    
 Point number   1 has energy  -0.3886512319D+03 and has been removed
 EnCoef did   100 forward-backward iterations
 IWarn =    2
 Energies =   -388.651232345      -388.651233045      -388.651234411      -388.651237695      -388.651228015    
 Point number   1 has energy  -0.3886512323D+03 and has been removed
 EnCoef did   100 forward-backward iterations
 IWarn =    2
 Energies =   -388.651233045      -388.651234411      -388.651237695      -388.651228015    
 Point number   1 has energy  -0.3886512330D+03 and has been removed
 EnCoef did   100 forward-backward iterations
 IWarn =    2
 Energies =   -388.651234411      -388.651237695      -388.651228015    
 Point number   1 has energy  -0.3886512344D+03 and has been removed
 IWarn =    0
 DidBck=T Rises=T En-DIIS coefs:    0.42446    0.57554    0.00000    0.00000    0.00000
                  En-DIIS coefs:    0.00000    0.00000    0.00000    0.00000    0.00000
 Iteration  1 RMS(Cart)=  0.05749858 RMS(Int)=  0.00347381
 Iteration  2 RMS(Cart)=  0.00372512 RMS(Int)=  0.00000907
 Iteration  3 RMS(Cart)=  0.00001203 RMS(Int)=  0.00000074
 Iteration  4 RMS(Cart)=  0.00000000 RMS(Int)=  0.00000074
 ITry= 1 IFail=0 DXMaxC= 3.16D-01 DCOld= 1.00D+10 DXMaxT= 3.28D-01 DXLimC= 3.00D+00 Rises=F
 Variable       Old X    -DE/DX   Delta X   Delta X   Delta X     New X
                                 (Linear)    (Quad)   (Total)
    R1        2.28544  -0.00006   0.00012  -0.00011   0.00001   2.28545
    R2        2.89260   0.00002   0.00009  -0.00011  -0.00002   2.89259
    R3        2.83575  -0.00013   0.00001  -0.00020  -0.00019   2.83556
    R4        2.05896   0.00001  -0.00018  -0.00025  -0.00044   2.05852
    R5        2.06711   0.00005   0.00026   0.00022   0.00048   2.06759
    R6        2.87144  -0.00013   0.00010  -0.00011  -0.00001   2.87143
    R7        2.07393   0.00005  -0.00049  -0.00004  -0.00053   2.07340
    R8        2.07024   0.00002   0.00029   0.00017   0.00046   2.07070
    R9        2.52441   0.00002  -0.00004   0.00014   0.00009   2.52450
   R10        2.05745   0.00002   0.00004  -0.00001   0.00003   2.05749
   R11        2.84565  -0.00002  -0.00004  -0.00001  -0.00005   2.84560
   R12        2.84307  -0.00002  -0.00003  -0.00005  -0.00009   2.84299
   R13        2.86263  -0.00002   0.00009   0.00006   0.00015   2.86278
   R14        2.06913   0.00002  -0.00001   0.00008   0.00007   2.06920
   R15        2.06924   0.00001   0.00001  -0.00001  -0.00000   2.06923
   R16        2.06012  -0.00001   0.00002  -0.00004  -0.00001   2.06011
   R17        2.05564  -0.00001   0.00007  -0.00014  -0.00007   2.05557
   R18        2.06879   0.00001  -0.00005   0.00008   0.00002   2.06881
   R19        2.06883   0.00000   0.00000   0.00001   0.00001   2.06884
   R20        2.06350  -0.00001   0.00062   0.00025   0.00087   2.06437
   R21        2.05583   0.00003  -0.00006  -0.00007  -0.00013   2.05570
   R22        2.06749  -0.00001  -0.00067  -0.00020  -0.00087   2.06662
    A1        1.95746   0.00001  -0.00011   0.00005  -0.00006   1.95739
    A2        1.90435  -0.00002  -0.00000  -0.00031  -0.00031   1.90404
    A3        1.88734   0.00000   0.00048   0.00011   0.00059   1.88792
    A4        1.95139   0.00002   0.00036   0.00060   0.00096   1.95235
    A5        1.91436  -0.00001  -0.00036  -0.00046  -0.00082   1.91354
    A6        1.84450  -0.00000  -0.00037  -0.00001  -0.00038   1.84413
    A7        1.99691   0.00004  -0.00006  -0.00010  -0.00016   1.99674
    A8        1.92838   0.00002   0.00129   0.00089   0.00218   1.93056
    A9        1.93661   0.00001  -0.00192  -0.00054  -0.00246   1.93415
   A10        1.86728  -0.00004   0.00413   0.00119   0.00532   1.87260
   A11        1.89588  -0.00004  -0.00338  -0.00109  -0.00447   1.89141
   A12        1.83008   0.00001   0.00007  -0.00033  -0.00026   1.82983
   A13        2.24593   0.00005  -0.00022   0.00003  -0.00018   2.24574
   A14        1.99695  -0.00003   0.00019   0.00017   0.00036   1.99731
   A15        2.04031  -0.00002   0.00002  -0.00020  -0.00017   2.04013
   A16        2.10853  -0.00004   0.00011  -0.00028  -0.00018   2.10835
   A17        2.18016   0.00001  -0.00041   0.00045   0.00004   2.18020
   A18        1.99448   0.00003   0.00030  -0.00016   0.00014   1.99462
   A19        2.13303   0.00007  -0.00035  -0.00001  -0.00037   2.13267
   A20        2.12100  -0.00012  -0.00002  -0.00002  -0.00003   2.12097
   A21        2.02913   0.00005   0.00038   0.00003   0.00041   2.02955
   A22        1.93660   0.00000   0.00006  -0.00013  -0.00007   1.93653
   A23        1.93725   0.00001  -0.00006   0.00021   0.00015   1.93740
   A24        1.95207   0.00001   0.00005   0.00002   0.00007   1.95214
   A25        1.85802  -0.00001   0.00007  -0.00019  -0.00012   1.85789
   A26        1.88770  -0.00001  -0.00003  -0.00002  -0.00004   1.88766
   A27        1.88872  -0.00001  -0.00009   0.00010   0.00001   1.88874
   A28        1.97957  -0.00001  -0.00023   0.00020  -0.00004   1.97953
   A29        1.92781   0.00002   0.00008  -0.00006   0.00002   1.92783
   A30        1.92793  -0.00002   0.00003  -0.00013  -0.00010   1.92782
   A31        1.88514  -0.00000  -0.00005   0.00009   0.00004   1.88518
   A32        1.88214   0.00001  -0.00000   0.00018   0.00018   1.88231
   A33        1.85635  -0.00000   0.00020  -0.00030  -0.00010   1.85625
   A34        1.94649  -0.00015  -0.00652  -0.00252  -0.00904   1.93745
   A35        1.92009   0.00010  -0.00039   0.00010  -0.00030   1.91979
   A36        1.90368  -0.00001   0.00697   0.00251   0.00948   1.91316
   A37        1.92523  -0.00003  -0.00369  -0.00132  -0.00501   1.92022
   A38        1.86675   0.00011  -0.00027  -0.00028  -0.00054   1.86621
   A39        1.90024  -0.00001   0.00419   0.00166   0.00585   1.90609
    D1        3.06108  -0.00000   0.00339   0.00994   0.01333   3.07441
    D2        0.95263   0.00001  -0.00295   0.00779   0.00484   0.95747
    D3       -1.06956  -0.00002  -0.00267   0.00798   0.00531  -1.06425
    D4       -1.05019   0.00002   0.00377   0.01052   0.01429  -1.03590
    D5        3.12455   0.00002  -0.00257   0.00838   0.00580   3.13035
    D6        1.10235  -0.00000  -0.00229   0.00856   0.00628   1.10863
    D7        0.94802   0.00001   0.00359   0.01041   0.01400   0.96202
    D8       -1.16042   0.00001  -0.00276   0.00827   0.00551  -1.15491
    D9        3.10057  -0.00001  -0.00247   0.00846   0.00598   3.10655
   D10        2.07061  -0.00001  -0.00074  -0.00030  -0.00103   2.06958
   D11       -1.07115   0.00000  -0.00062   0.00024  -0.00037  -1.07152
   D12       -0.07497  -0.00000  -0.00092  -0.00038  -0.00129  -0.07626
   D13        3.06645   0.00001  -0.00080   0.00016  -0.00063   3.06582
   D14       -2.11516  -0.00001  -0.00045  -0.00044  -0.00089  -2.11605
   D15        1.02626   0.00000  -0.00033   0.00010  -0.00023   1.02603
   D16       -0.15349   0.00003   0.04329   0.01826   0.06155  -0.09194
   D17        2.98095   0.00005   0.04554   0.01880   0.06434   3.04529
   D18        1.98844   0.00005   0.04797   0.02020   0.06817   2.05661
   D19       -1.16031   0.00007   0.05023   0.02074   0.07097  -1.08934
   D20       -2.32780   0.00002   0.04848   0.01989   0.06837  -2.25943
   D21        0.80664   0.00004   0.05074   0.02043   0.07117   0.87780
   D22        3.13695   0.00000   0.00039  -0.00011   0.00028   3.13722
   D23        0.00203   0.00000   0.00044  -0.00016   0.00027   0.00231
   D24       -0.00447  -0.00001   0.00026  -0.00066  -0.00040  -0.00487
   D25       -3.13938  -0.00001   0.00031  -0.00071  -0.00040  -3.13978
   D26       -2.10719   0.00001  -0.00285   0.00649   0.00364  -2.10354
   D27        2.11371   0.00001  -0.00293   0.00668   0.00375   2.11746
   D28        0.00238   0.00001  -0.00281   0.00639   0.00359   0.00597
   D29        1.02840   0.00001  -0.00290   0.00654   0.00364   1.03204
   D30       -1.03389   0.00001  -0.00298   0.00673   0.00375  -1.03014
   D31        3.13797   0.00001  -0.00286   0.00644   0.00359   3.14155
   D32       -0.02413  -0.00000  -0.00620   0.00905   0.00284  -0.02129
   D33       -2.14319  -0.00001  -0.00603   0.00883   0.00280  -2.14039
   D34        2.09112  -0.00000  -0.00635   0.00932   0.00297   2.09409
   D35        3.12375  -0.00001  -0.00615   0.00900   0.00284   3.12660
   D36        1.00469  -0.00001  -0.00599   0.00878   0.00280   1.00749
   D37       -1.04418  -0.00001  -0.00630   0.00927   0.00297  -1.04121
   D38       -2.38576   0.00007   0.08535   0.03124   0.11659  -2.26917
   D39       -0.24368   0.00000   0.07601   0.02789   0.10390  -0.13978
   D40        1.83948   0.00004   0.08525   0.03151   0.11677   1.95625
   D41        0.76293   0.00006   0.08311   0.03070   0.11382   0.87675
   D42        2.90502  -0.00001   0.07377   0.02735   0.10112   3.00614
   D43       -1.29501   0.00002   0.08302   0.03098   0.11400  -1.18101
         Item               Value     Threshold  Converged?
 Maximum Force            0.000152     0.000450     YES
 RMS     Force            0.000038     0.000300     YES
 Maximum Displacement     0.315977     0.001800     NO 
 RMS     Displacement     0.057825     0.001200     NO 
 Predicted change in Energy=-2.057211D-05
 GradGradGradGradGradGradGradGradGradGradGradGradGradGradGradGradGradGrad

 Leave Link  103 at Tue Jun  4 00:17:53 2024, MaxMem= 13421772800 cpu:               1.7 elap:               0.1
 (Enter /tmpu/scunam/7/gaussian-2016.03/g1/g16/l202.exe)
                          Input orientation:                          
 ---------------------------------------------------------------------
 Center     Atomic      Atomic             Coordinates (Angstroms)
 Number     Number       Type             X           Y           Z
 ---------------------------------------------------------------------
      1          8           0        2.785152   -0.450797   -1.034230
      2          6           0        0.049010   -0.492551   -0.341224
      3          6           0        1.118467    0.052998    0.608329
      4          6           0       -1.305463   -0.544907    0.302366
      5          6           0       -2.424573    0.091164   -0.054925
      6          6           0        2.527485    0.042245    0.039633
      7          6           0       -3.700142   -0.096761    0.722973
      8          6           0       -2.547453    1.024203   -1.228677
      9          6           0        3.599512    0.690980    0.891028
     10          1           0        0.042578    0.105240   -1.251842
     11          1           0        0.348333   -1.498492   -0.650398
     12          1           0        1.138603   -0.525269    1.540550
     13          1           0        0.878856    1.076420    0.917999
     14          1           0       -1.364468   -1.192435    1.175668
     15          1           0       -4.494123   -0.495216    0.082819
     16          1           0       -4.066415    0.858626    1.112956
     17          1           0       -3.566460   -0.778904    1.562773
     18          1           0       -1.614833    1.161259   -1.771501
     19          1           0       -2.895709    2.008701   -0.900039
     20          1           0       -3.295938    0.652738   -1.936017
     21          1           0        3.566628    0.314617    1.916037
     22          1           0        4.580363    0.507044    0.458042
     23          1           0        3.425188    1.769395    0.942081
 ---------------------------------------------------------------------
                    Distance matrix (angstroms):
                    1          2          3          4          5
     1  O    0.000000
     2  C    2.822849   0.000000
     3  C    2.393669   1.530690   0.000000
     4  C    4.304472   1.500516   2.515261   0.000000
     5  C    5.328602   2.557597   3.604788   1.335908   0.000000
     6  C    1.209407   2.563961   1.519494   3.886549   4.953202
     7  C    6.728458   3.917309   4.822299   2.472293   1.505828
     8  C    5.536255   3.135241   4.213882   2.519670   1.504445
     9  C    2.381901   3.940210   2.577310   5.092418   6.127333
    10  H    2.806821   1.089321   2.149535   2.157653   2.742197
    11  H    2.680127   1.094120   2.141172   2.133571   3.251246
    12  H    3.057149   2.174709   1.097194   2.739880   3.952437
    13  H    3.126909   2.176226   1.095765   2.789077   3.581892
    14  H    4.759519   2.188314   2.835126   1.088775   2.070220
    15  H    7.364620   4.562881   5.663733   3.196596   2.155424
    16  H    7.298559   4.569140   5.271307   3.201533   2.156059
    17  H    6.869866   4.096197   4.852995   2.599132   2.162839
    18  H    4.743645   2.747573   3.789823   2.703264   2.178856
    19  H    6.191875   3.903832   4.713125   3.239687   2.147820
    20  H    6.245852   3.878625   5.130337   3.225942   2.147824
    21  H    3.146528   4.256805   2.787838   5.203844   6.311031
    22  H    2.523315   4.708628   3.494778   5.981119   7.035995
    23  H    3.040510   4.261672   2.894541   5.305118   6.166861
                    6          7          8          9         10
     6  C    0.000000
     7  C    6.266547   0.000000
     8  C    5.322391   2.528674   0.000000
     9  C    1.514917   7.343959   6.510712   0.000000
    10  H    2.801184   4.236585   2.748325   4.193657   0.000000
    11  H    2.756576   4.499017   3.883809   4.211881   1.739878
    12  H    2.122220   4.926003   4.863794   2.820853   3.065333
    13  H    2.135187   4.730921   4.043580   2.747956   2.520071
    14  H    4.238196   2.619314   3.477616   5.316895   3.091366
    15  H    7.042280   1.094975   2.796101   8.219927   4.766920
    16  H    6.730380   1.094992   2.796052   7.670971   4.800384
    17  H    6.334856   1.090163   3.475884   7.345948   4.661429
    18  H    4.657381   3.486192   1.087760   5.873638   2.032790
    19  H    5.844737   2.777454   1.094770   6.865290   3.518587
    20  H    6.179656   2.792017   1.094781   7.452575   3.451600
    21  H    2.162152   7.375540   6.911927   1.092417   4.743229
    22  H    2.146023   8.306716   7.342904   1.087831   4.865865
    23  H    2.145537   7.368913   6.398432   1.093607   4.361737
                   11         12         13         14         15
    11  H    0.000000
    12  H    2.524270   0.000000
    13  H    3.061290   1.737944   0.000000
    14  H    2.522275   2.616030   3.201031   0.000000
    15  H    4.999356   5.818376   5.660077   3.387503   0.000000
    16  H    5.306168   5.402797   4.953902   3.392831   1.754140
    17  H    4.554288   4.711947   4.859917   2.273681   1.769550
    18  H    3.490726   4.625524   3.668663   3.779995   3.804303
    19  H    4.783987   5.352864   4.292056   4.111025   3.128983
    20  H    4.422818   5.756681   5.074822   4.100954   2.613263
    21  H    4.497930   2.596479   2.966571   5.209132   8.306157
    22  H    4.812576   3.752760   3.773183   6.224486   9.137375
    23  H    4.762573   3.294255   2.639053   5.636293   8.281442
                   16         17         18         19         20
    16  H    0.000000
    17  H    1.770254   0.000000
    18  H    3.797622   4.323247   0.000000
    19  H    2.597185   3.779695   1.765855   0.000000
    20  H    3.151549   3.790029   1.764022   1.752732   0.000000
    21  H    7.694429   7.225062   6.415784   7.249966   7.877021
    22  H    8.678669   8.321347   6.616594   7.745386   8.233399
    23  H    7.548695   7.467411   5.756315   6.588202   7.396209
                   21         22         23
    21  H    0.000000
    22  H    1.786179   0.000000
    23  H    1.756410   1.778273   0.000000
 Stoichiometry    C8H14O
 Framework group  C1[X(C8H14O)]
 Deg. of freedom    63
 Full point group                 C1      NOp   1
 RotChk:  IX=0 Diff= 1.08D-02
 Largest Abelian subgroup         C1      NOp   1
 Largest concise Abelian subgroup C1      NOp   1
                         Standard orientation:                         
 ---------------------------------------------------------------------
 Center     Atomic      Atomic             Coordinates (Angstroms)
 Number     Number       Type             X           Y           Z
 ---------------------------------------------------------------------
      1          8           0        2.761984    1.050928   -0.687836
      2          6           0        0.054663    0.255147   -0.612864
      3          6           0        1.156934   -0.550894    0.078737
      4          6           0       -1.273862   -0.440243   -0.558073
      5          6           0       -2.409073   -0.027705    0.012681
      6          6           0        2.543156    0.062493   -0.026190
      7          6           0       -3.652913   -0.874527   -0.044513
      8          6           0       -2.581607    1.276626    0.742275
      9          6           0        3.643707   -0.629878    0.751230
     10          1           0        0.010285    1.249984   -0.171333
     11          1           0        0.347041    0.407795   -1.656086
     12          1           0        1.215735   -1.563323   -0.340029
     13          1           0        0.924154   -0.698878    1.139216
     14          1           0       -1.296048   -1.408915   -1.054673
     15          1           0       -4.468806   -0.338936   -0.540932
     16          1           0       -4.008835   -1.117661    0.962072
     17          1           0       -3.483664   -1.808357   -0.580956
     18          1           0       -1.671189    1.870152    0.787975
     19          1           0       -2.922025    1.099406    1.767569
     20          1           0       -3.354750    1.884607    0.261489
     21          1           0        3.652054   -1.702973    0.546849
     22          1           0        4.608166   -0.195026    0.498051
     23          1           0        3.465971   -0.511416    1.823775
 ---------------------------------------------------------------------
 Rotational constants (GHZ):           4.0582947           0.5807848           0.5570087
 Leave Link  202 at Tue Jun  4 00:17:53 2024, MaxMem= 13421772800 cpu:               2.7 elap:               0.1
 (Enter /tmpu/scunam/7/gaussian-2016.03/g1/g16/l301.exe)
 Standard basis: def2TZVP (5D, 7F)
 Ernie: Thresh=  0.10000D-02 Tol=  0.10000D-05 Strict=F.
 There are   408 symmetry adapted cartesian basis functions of A   symmetry.
 There are   363 symmetry adapted basis functions of A   symmetry.
   363 basis functions,   571 primitive gaussians,   408 cartesian basis functions
    35 alpha electrons       35 beta electrons
       nuclear repulsion energy       428.8481100421 Hartrees.
 IExCor=  402 DFT=T Ex+Corr=B3LYP ExCW=0 ScaHFX=  0.200000
 ScaDFX=  0.800000  0.720000  1.000000  0.810000 ScalE2=  1.000000  1.000000
 IRadAn=      5 IRanWt=     -1 IRanGd=            0 ICorTp=0 IEmpDi=  4
 NAtoms=   23 NActive=   23 NUniq=   23 SFac= 1.00D+00 NAtFMM=   60 NAOKFM=F Big=F
 Integral buffers will be    131072 words long.
 Raffenetti 2 integral format.
 Two-electron integral symmetry is turned on.
 Leave Link  301 at Tue Jun  4 00:17:53 2024, MaxMem= 13421772800 cpu:               2.5 elap:               0.1
 (Enter /tmpu/scunam/7/gaussian-2016.03/g1/g16/l302.exe)
 NPDir=0 NMtPBC=     1 NCelOv=     1 NCel=       1 NClECP=     1 NCelD=      1
         NCelK=      1 NCelE2=     1 NClLst=     1 CellRange=     0.0.
 One-electron integrals computed using PRISM.
 One-electron integral symmetry used in STVInt
   1 Symmetry operations used in ECPInt.
 ECPInt:  NShTT=   12090 NPrTT=   35220 LenC2=   11307 LenP2D=   25536.
 LDataN:  DoStor=T MaxTD1= 6 Len=  172
 NBasis=   363 RedAO= T EigKep=  7.81D-05  NBF=   363
 NBsUse=   363 1.00D-06 EigRej= -1.00D+00 NBFU=   363
 Precomputing XC quadrature grid using
 IXCGrd= 4 IRadAn=           5 IRanWt=          -1 IRanGd=           0 AccXCQ= 0.00D+00.
 Generated NRdTot=       0 NPtTot=           0 NUsed=           0 NTot=          32
 NSgBfM=   405   405   405   405   405 MxSgAt=    23 MxSgA2=    23.
 Leave Link  302 at Tue Jun  4 00:17:53 2024, MaxMem= 13421772800 cpu:              13.6 elap:               0.5
 (Enter /tmpu/scunam/7/gaussian-2016.03/g1/g16/l303.exe)
 DipDrv:  MaxL=1.
 Leave Link  303 at Tue Jun  4 00:17:53 2024, MaxMem= 13421772800 cpu:               1.6 elap:               0.1
 (Enter /tmpu/scunam/7/gaussian-2016.03/g1/g16/l401.exe)
 Initial guess from the checkpoint file:  "S36.chk"
 B after Tr=    -0.000000    0.000000   -0.000000
         Rot=    0.999980   -0.006327   -0.000354   -0.000704 Ang=  -0.73 deg.
 Guess basis will be translated and rotated to current coordinates.
 JPrj=2 DoOrth=T DoCkMO=T.
 Generating alternative initial guess.
 ExpMin= 9.52D-02 ExpMax= 2.70D+04 ExpMxC= 9.22D+02 IAcc=2 IRadAn=         4 AccDes= 0.00D+00
 Harris functional with IExCor=  402 and IRadAn=       4 diagonalized for initial guess.
 HarFok:  IExCor=  402 AccDes= 0.00D+00 IRadAn=         4 IDoV= 1 UseB2=F ITyADJ=14
 ICtDFT=  3500011 ScaDFX=  1.000000  1.000000  1.000000  1.000000
 FoFCou: FMM=F IPFlag=           0 FMFlag=      100000 FMFlg1=           0
         NFxFlg=           0 DoJE=T BraDBF=F KetDBF=T FulRan=T
         wScrn=  0.000000 ICntrl=       500 IOpCl=  0 I1Cent=   200000004 NGrid=           0
         NMat0=    1 NMatS0=      1 NMatT0=    0 NMatD0=    1 NMtDS0=    0 NMtDT0=    0
 Petite list used in FoFCou.
 Harris En= -388.761687157564    
 Leave Link  401 at Tue Jun  4 00:17:54 2024, MaxMem= 13421772800 cpu:              28.3 elap:               0.9
 (Enter /tmpu/scunam/7/gaussian-2016.03/g1/g16/l502.exe)
 Integral symmetry usage will be decided dynamically.
 Closed shell SCF:
 Using DIIS extrapolation, IDIIS=  1040.
 NGot= 13421772800 LenX= 13421422965 LenY= 13421256060
 Requested convergence on RMS density matrix=1.00D-08 within 128 cycles.
 Requested convergence on MAX density matrix=1.00D-06.
 Requested convergence on             energy=1.00D-06.
 No special actions if energy rises.
 Fock matrices will be formed incrementally for  20 cycles.
 Integral accuracy reduced to 1.0D-05 until final iterations.

 Cycle   1  Pass 0  IDiag  1:
 FoFJK:  IHMeth= 1 ICntrl=       0 DoSepK=F KAlg= 0 I1Cent=           0 FoldK=F
 IRaf= 890000000 NMat=       1 IRICut=       1 DoRegI=T DoRafI=F ISym2E= 0 IDoP0=0 IntGTp=1.
 FoFCou: FMM=F IPFlag=           0 FMFlag=      100000 FMFlg1=           0
         NFxFlg=           0 DoJE=F BraDBF=F KetDBF=F FulRan=T
         wScrn=  0.000000 ICntrl=         0 IOpCl=  0 I1Cent=           0 NGrid=           0
         NMat0=    1 NMatS0=      1 NMatT0=    0 NMatD0=    1 NMtDS0=    0 NMtDT0=    0
 Symmetry not used in FoFCou.
 E= -388.645149919380    
 DIIS: error= 2.59D-03 at cycle   1 NSaved=   1.
 NSaved= 1 IEnMin= 1 EnMin= -388.645149919380     IErMin= 1 ErrMin= 2.59D-03
 ErrMax= 2.59D-03  0.00D+00 EMaxC= 1.00D-01 BMatC= 4.28D-03 BMatP= 4.28D-03
 IDIUse=3 WtCom= 9.74D-01 WtEn= 2.59D-02
 Coeff-Com:  0.100D+01
 Coeff-En:   0.100D+01
 Coeff:      0.100D+01
 Gap=     0.607 Goal=   None    Shift=    0.000
 GapD=    0.607 DampG=2.000 DampE=1.000 DampFc=2.0000 IDamp=-1.
 RMSDP=2.35D-04 MaxDP=1.12D-02              OVMax= 2.19D-02

 Cycle   2  Pass 0  IDiag  1:
 RMSU=  2.35D-04    CP:  1.00D+00
 E= -388.651175771418     Delta-E=       -0.006025852038 Rises=F Damp=F
 DIIS: error= 2.91D-04 at cycle   2 NSaved=   2.
 NSaved= 2 IEnMin= 2 EnMin= -388.651175771418     IErMin= 2 ErrMin= 2.91D-04
 ErrMax= 2.91D-04  0.00D+00 EMaxC= 1.00D-01 BMatC= 3.96D-05 BMatP= 4.28D-03
 IDIUse=3 WtCom= 9.97D-01 WtEn= 2.91D-03
 Coeff-Com: -0.645D-01 0.106D+01
 Coeff-En:   0.000D+00 0.100D+01
 Coeff:     -0.643D-01 0.106D+01
 Gap=     0.216 Goal=   None    Shift=    0.000
 RMSDP=2.86D-05 MaxDP=1.05D-03 DE=-6.03D-03 OVMax= 2.79D-03

 Cycle   3  Pass 0  IDiag  1:
 RMSU=  2.41D-05    CP:  1.00D+00  1.07D+00
 E= -388.651244982972     Delta-E=       -0.000069211554 Rises=F Damp=F
 DIIS: error= 1.06D-04 at cycle   3 NSaved=   3.
 NSaved= 3 IEnMin= 3 EnMin= -388.651244982972     IErMin= 3 ErrMin= 1.06D-04
 ErrMax= 1.06D-04  0.00D+00 EMaxC= 1.00D-01 BMatC= 3.84D-06 BMatP= 3.96D-05
 IDIUse=3 WtCom= 9.99D-01 WtEn= 1.06D-03
 Coeff-Com: -0.183D-01 0.257D+00 0.761D+00
 Coeff-En:   0.000D+00 0.000D+00 0.100D+01
 Coeff:     -0.183D-01 0.257D+00 0.761D+00
 Gap=     0.216 Goal=   None    Shift=    0.000
 RMSDP=9.50D-06 MaxDP=2.69D-04 DE=-6.92D-05 OVMax= 8.87D-04

 Initial convergence to 1.0D-05 achieved.  Increase integral accuracy.
 Cycle   4  Pass 1  IDiag  1:
 E= -388.651238652150     Delta-E=        0.000006330822 Rises=F Damp=F
 DIIS: error= 9.33D-05 at cycle   1 NSaved=   1.
 NSaved= 1 IEnMin= 1 EnMin= -388.651238652150     IErMin= 1 ErrMin= 9.33D-05
 ErrMax= 9.33D-05  0.00D+00 EMaxC= 1.00D-01 BMatC= 3.53D-06 BMatP= 3.53D-06
 IDIUse=1 WtCom= 1.00D+00 WtEn= 0.00D+00
 Coeff-Com:  0.100D+01
 Coeff:      0.100D+01
 Gap=     0.216 Goal=   None    Shift=    0.000
 RMSDP=9.50D-06 MaxDP=2.69D-04 DE= 6.33D-06 OVMax= 1.41D-03

 Cycle   5  Pass 1  IDiag  1:
 RMSU=  9.84D-05    CP:  1.00D+00
 E= -388.651236426218     Delta-E=        0.000002225932 Rises=F Damp=F
 DIIS: error= 1.06D-04 at cycle   2 NSaved=   2.
 NSaved= 2 IEnMin= 1 EnMin= -388.651238652150     IErMin= 1 ErrMin= 9.33D-05
 ErrMax= 1.06D-04  0.00D+00 EMaxC= 1.00D-01 BMatC= 5.12D-06 BMatP= 3.53D-06
 IDIUse=3 WtCom= 4.93D-01 WtEn= 5.07D-01
 Coeff-Com:  0.557D+00 0.443D+00
 Coeff-En:   0.651D+00 0.349D+00
 Coeff:      0.605D+00 0.395D+00
 Gap=     0.216 Goal=   None    Shift=    0.000
 RMSDP=6.57D-06 MaxDP=4.27D-04 DE= 2.23D-06 OVMax= 1.10D-03

 Cycle   6  Pass 1  IDiag  1:
 RMSU=  6.51D-06    CP:  1.00D+00  1.00D+00
 E= -388.651241048747     Delta-E=       -0.000004622529 Rises=F Damp=F
 DIIS: error= 2.06D-05 at cycle   3 NSaved=   3.
 NSaved= 3 IEnMin= 3 EnMin= -388.651241048747     IErMin= 3 ErrMin= 2.06D-05
 ErrMax= 2.06D-05  0.00D+00 EMaxC= 1.00D-01 BMatC= 2.59D-07 BMatP= 3.53D-06
 IDIUse=1 WtCom= 1.00D+00 WtEn= 0.00D+00
 Coeff-Com:  0.531D-01 0.182D+00 0.765D+00
 Coeff:      0.531D-01 0.182D+00 0.765D+00
 Gap=     0.216 Goal=   None    Shift=    0.000
 RMSDP=2.12D-06 MaxDP=1.70D-04 DE=-4.62D-06 OVMax= 1.59D-04

 Cycle   7  Pass 1  IDiag  1:
 RMSU=  1.61D-06    CP:  1.00D+00  1.01D+00  8.69D-01
 E= -388.651241216598     Delta-E=       -0.000000167850 Rises=F Damp=F
 DIIS: error= 1.11D-05 at cycle   4 NSaved=   4.
 NSaved= 4 IEnMin= 4 EnMin= -388.651241216598     IErMin= 4 ErrMin= 1.11D-05
 ErrMax= 1.11D-05  0.00D+00 EMaxC= 1.00D-01 BMatC= 7.08D-08 BMatP= 2.59D-07
 IDIUse=1 WtCom= 1.00D+00 WtEn= 0.00D+00
 Coeff-Com:  0.200D-02 0.854D-01 0.457D+00 0.456D+00
 Coeff:      0.200D-02 0.854D-01 0.457D+00 0.456D+00
 Gap=     0.216 Goal=   None    Shift=    0.000
 RMSDP=8.35D-07 MaxDP=7.51D-05 DE=-1.68D-07 OVMax= 6.69D-05

 Cycle   8  Pass 1  IDiag  1:
 RMSU=  3.75D-07    CP:  1.00D+00  1.02D+00  8.95D-01  5.54D-01
 E= -388.651241274005     Delta-E=       -0.000000057408 Rises=F Damp=F
 DIIS: error= 3.15D-06 at cycle   5 NSaved=   5.
 NSaved= 5 IEnMin= 5 EnMin= -388.651241274005     IErMin= 5 ErrMin= 3.15D-06
 ErrMax= 3.15D-06  0.00D+00 EMaxC= 1.00D-01 BMatC= 5.78D-09 BMatP= 7.08D-08
 IDIUse=1 WtCom= 1.00D+00 WtEn= 0.00D+00
 Coeff-Com: -0.150D-02 0.467D-01 0.260D+00 0.298D+00 0.397D+00
 Coeff:     -0.150D-02 0.467D-01 0.260D+00 0.298D+00 0.397D+00
 Gap=     0.216 Goal=   None    Shift=    0.000
 RMSDP=2.27D-07 MaxDP=1.99D-05 DE=-5.74D-08 OVMax= 2.16D-05

 Cycle   9  Pass 1  IDiag  1:
 RMSU=  1.48D-07    CP:  1.00D+00  1.02D+00  8.79D-01  5.58D-01  6.44D-01
 E= -388.651241278764     Delta-E=       -0.000000004759 Rises=F Damp=F
 DIIS: error= 3.18D-07 at cycle   6 NSaved=   6.
 NSaved= 6 IEnMin= 6 EnMin= -388.651241278764     IErMin= 6 ErrMin= 3.18D-07
 ErrMax= 3.18D-07  0.00D+00 EMaxC= 1.00D-01 BMatC= 9.73D-11 BMatP= 5.78D-09
 IDIUse=1 WtCom= 1.00D+00 WtEn= 0.00D+00
 Coeff-Com: -0.847D-03 0.183D-01 0.102D+00 0.121D+00 0.189D+00 0.570D+00
 Coeff:     -0.847D-03 0.183D-01 0.102D+00 0.121D+00 0.189D+00 0.570D+00
 Gap=     0.216 Goal=   None    Shift=    0.000
 RMSDP=4.02D-08 MaxDP=3.36D-06 DE=-4.76D-09 OVMax= 3.01D-06

 Cycle  10  Pass 1  IDiag  1:
 RMSU=  3.10D-08    CP:  1.00D+00  1.02D+00  8.80D-01  5.51D-01  6.91D-01
                    CP:  9.33D-01
 E= -388.651241278860     Delta-E=       -0.000000000096 Rises=F Damp=F
 DIIS: error= 9.34D-08 at cycle   7 NSaved=   7.
 NSaved= 7 IEnMin= 7 EnMin= -388.651241278860     IErMin= 7 ErrMin= 9.34D-08
 ErrMax= 9.34D-08  0.00D+00 EMaxC= 1.00D-01 BMatC= 8.19D-12 BMatP= 9.73D-11
 IDIUse=1 WtCom= 1.00D+00 WtEn= 0.00D+00
 Coeff-Com: -0.668D-05-0.318D-02-0.174D-01-0.185D-01-0.164D-01 0.186D+00
 Coeff-Com:  0.869D+00
 Coeff:     -0.668D-05-0.318D-02-0.174D-01-0.185D-01-0.164D-01 0.186D+00
 Coeff:      0.869D+00
 Gap=     0.216 Goal=   None    Shift=    0.000
 RMSDP=1.61D-08 MaxDP=8.51D-07 DE=-9.60D-11 OVMax= 2.46D-06

 Cycle  11  Pass 1  IDiag  1:
 RMSU=  1.24D-08    CP:  1.00D+00  1.02D+00  8.80D-01  5.56D-01  6.96D-01
                    CP:  9.79D-01  9.43D-01
 E= -388.651241278873     Delta-E=       -0.000000000013 Rises=F Damp=F
 DIIS: error= 3.81D-08 at cycle   8 NSaved=   8.
 NSaved= 8 IEnMin= 8 EnMin= -388.651241278873     IErMin= 8 ErrMin= 3.81D-08
 ErrMax= 3.81D-08  0.00D+00 EMaxC= 1.00D-01 BMatC= 7.33D-13 BMatP= 8.19D-12
 IDIUse=1 WtCom= 1.00D+00 WtEn= 0.00D+00
 Coeff-Com:  0.759D-04-0.265D-02-0.146D-01-0.165D-01-0.212D-01 0.161D-01
 Coeff-Com:  0.312D+00 0.727D+00
 Coeff:      0.759D-04-0.265D-02-0.146D-01-0.165D-01-0.212D-01 0.161D-01
 Coeff:      0.312D+00 0.727D+00
 Gap=     0.216 Goal=   None    Shift=    0.000
 RMSDP=3.38D-09 MaxDP=1.01D-07 DE=-1.28D-11 OVMax= 6.18D-07

 SCF Done:  E(RB3LYP) =  -388.651241279     A.U. after   11 cycles
            NFock= 11  Conv=0.34D-08     -V/T= 2.0053
 KE= 3.865946504776D+02 PE=-1.760968613169D+03 EE= 5.568746113708D+02
 Leave Link  502 at Tue Jun  4 00:18:22 2024, MaxMem= 13421772800 cpu:             873.9 elap:              27.4
 (Enter /tmpu/scunam/7/gaussian-2016.03/g1/g16/l508.exe)
 QCSCF skips out because SCF is already converged.
 Leave Link  508 at Tue Jun  4 00:18:22 2024, MaxMem= 13421772800 cpu:               0.2 elap:               0.0
 (Enter /tmpu/scunam/7/gaussian-2016.03/g1/g16/l701.exe)
 ... and contract with generalized density number  0.
 Compute integral first derivatives.
   1 Symmetry operations used in ECPInt.
 ECPInt:  NShTT=   12090 NPrTT=   35220 LenC2=   11307 LenP2D=   25536.
 LDataN:  DoStor=T MaxTD1= 7 Len=  274
 Leave Link  701 at Tue Jun  4 00:18:22 2024, MaxMem= 13421772800 cpu:               9.7 elap:               0.3
 (Enter /tmpu/scunam/7/gaussian-2016.03/g1/g16/l702.exe)
 L702 exits ... SP integral derivatives will be done elsewhere.
 Leave Link  702 at Tue Jun  4 00:18:22 2024, MaxMem= 13421772800 cpu:               0.6 elap:               0.0
 (Enter /tmpu/scunam/7/gaussian-2016.03/g1/g16/l703.exe)
 Integral derivatives from FoFJK, PRISM(SPDF).
 Compute integral first derivatives, UseDBF=F ICtDFT=           0.
 Calling FoFJK, ICntrl=      2127 FMM=F ISym2X=0 I1Cent= 0 IOpClX= 0 NMat=1 NMatS=1 NMatT=0.
 FoFJK:  IHMeth= 1 ICntrl=    2127 DoSepK=F KAlg= 0 I1Cent=           0 FoldK=F
 IRaf=         0 NMat=       1 IRICut=       1 DoRegI=T DoRafI=F ISym2E= 0 IDoP0=0 IntGTp=1.
 FoFCou: FMM=F IPFlag=           0 FMFlag=      100000 FMFlg1=         800
         NFxFlg=           0 DoJE=F BraDBF=F KetDBF=F FulRan=T
         wScrn=  0.000000 ICntrl=      2127 IOpCl=  0 I1Cent=           0 NGrid=           0
         NMat0=    1 NMatS0=      1 NMatT0=    0 NMatD0=    1 NMtDS0=    0 NMtDT0=    0
 Symmetry not used in FoFCou.
 Leave Link  703 at Tue Jun  4 00:18:32 2024, MaxMem= 13421772800 cpu:             328.1 elap:              10.3
 (Enter /tmpu/scunam/7/gaussian-2016.03/g1/g16/l716.exe)
 Dipole        =-3.01542834D-01-8.13705028D-01 6.50297102D-01
 ***** Axes restored to original set *****
 -------------------------------------------------------------------
 Center     Atomic                   Forces (Hartrees/Bohr)
 Number     Number              X              Y              Z
 -------------------------------------------------------------------
      1        8          -0.000009894   -0.000002714   -0.000039520
      2        6          -0.000036119    0.000012901    0.000042188
      3        6           0.000031714   -0.000027056    0.000015871
      4        6           0.000033919    0.000009801   -0.000050420
      5        6          -0.000020022   -0.000000399    0.000001803
      6        6          -0.000006392   -0.000005993    0.000016970
      7        6           0.000025555    0.000001088    0.000005443
      8        6           0.000002878   -0.000002900    0.000012671
      9        6           0.000030443   -0.000008106    0.000028475
     10        1          -0.000001201   -0.000002799   -0.000018760
     11        1          -0.000000212   -0.000004278   -0.000014739
     12        1          -0.000016563    0.000009882   -0.000008774
     13        1          -0.000000817    0.000006682    0.000000377
     14        1           0.000001860   -0.000003370    0.000009488
     15        1          -0.000004601   -0.000003058   -0.000000427
     16        1          -0.000003918    0.000002101    0.000003594
     17        1          -0.000004837    0.000002669    0.000001766
     18        1           0.000012287    0.000003575    0.000004913
     19        1          -0.000002721    0.000002540   -0.000002719
     20        1           0.000004885   -0.000007258    0.000000621
     21        1          -0.000010635    0.000020266    0.000004597
     22        1          -0.000020052   -0.000004455   -0.000010818
     23        1          -0.000005558    0.000000880   -0.000002602
 -------------------------------------------------------------------
 Cartesian Forces:  Max     0.000050420 RMS     0.000015618
 Leave Link  716 at Tue Jun  4 00:18:32 2024, MaxMem= 13421772800 cpu:               0.7 elap:               0.0
 (Enter /tmpu/scunam/7/gaussian-2016.03/g1/g16/l103.exe)

 GradGradGradGradGradGradGradGradGradGradGradGradGradGradGradGradGradGrad
 Berny optimization.
 Using GEDIIS/GDIIS optimizer.
 FormGI is forming the generalized inverse of G from B-inverse, IUseBI=4.
 Internal  Forces:  Max     0.000048347 RMS     0.000010799
 Search for a local minimum.
 Step number  19 out of a maximum of  138
 All quantities printed in internal units (Hartrees-Bohrs-Radians)
 RMS Force = .10799D-04 SwitMx=.10000D-02 MixMth= 2
 Mixed Optimization -- En-DIIS/RFO-DIIS
 Swapping is turned off.
 Update second derivatives using D2CorX and points    5    6    7    8    9
                                                     10   11   12   13   14
                                                     15   16   17   18   19
 DE= -1.33D-05 DEPred=-2.06D-05 R= 6.45D-01
 TightC=F SS=  1.41D+00  RLast= 3.21D-01 DXNew= 5.5220D-01 9.6163D-01
 Trust test= 6.45D-01 RLast= 3.21D-01 DXMaxT set to 5.52D-01
 ITU=  1 -1  1  1  0  0  0  0  0  0  1  1  1  1  1 -1  1  1  0
     Eigenvalues ---    0.00043   0.00135   0.00143   0.00224   0.00545
     Eigenvalues ---    0.00646   0.01377   0.01717   0.02911   0.02952
     Eigenvalues ---    0.03952   0.04211   0.04921   0.05544   0.06885
     Eigenvalues ---    0.06929   0.07040   0.07103   0.07293   0.07383
     Eigenvalues ---    0.09283   0.09881   0.12810   0.13241   0.15820
     Eigenvalues ---    0.15950   0.16002   0.16010   0.16042   0.16065
     Eigenvalues ---    0.16119   0.16244   0.16360   0.16448   0.21664
     Eigenvalues ---    0.22325   0.22900   0.24963   0.25392   0.25694
     Eigenvalues ---    0.29657   0.29918   0.30889   0.31247   0.31911
     Eigenvalues ---    0.32989   0.33855   0.33983   0.34053   0.34139
     Eigenvalues ---    0.34228   0.34245   0.34268   0.34276   0.34314
     Eigenvalues ---    0.34447   0.34508   0.34592   0.34880   0.35115
     Eigenvalues ---    0.37628   0.59952   0.90398
 En-DIIS/RFO-DIIS/Sim-DIIS IScMMF=       -3 using points:    19   18   17   16   15   14   13   12   11   10
 RFO step:  Lambda=-7.98237260D-07.
 NNeg= 0 NGDIIS=10 SimSw=  2.50D-03 Rises=F DC= -1.33D-05 SmlDif=  1.00D-05
 NRisDI= 0 DoIntr=F SqrtH=F CThrHd= 10.0 CDAdj=  3.0
 RMS Error=  0.3808381812D-02 NUsed=10 OKEnD=T EnDIS=F
 InvSVX:  RCond= 2.84D-10 Info=           0 Equed=N FErr=  1.34D-08 BErr=  5.51D-17
 DIIS inversion failure, remove point  10.
 InvSVX:  RCond= 3.48D-10 Info=           0 Equed=N FErr=  1.16D-08 BErr=  5.32D-17
 DIIS inversion failure, remove point   9.
 InvSVX:  RCond= 5.60D-10 Info=           0 Equed=N FErr=  8.33D-09 BErr=  6.08D-17
 DIIS inversion failure, remove point   8.
 InvSVX:  RCond= 8.51D-10 Info=           0 Equed=N FErr=  4.53D-09 BErr=  8.27D-17
 DIIS inversion failure, remove point   7.
 InvSVX:  RCond= 2.25D-09 Info=           0 Equed=N FErr=  1.25D-09 BErr=  5.69D-17
 DIIS inversion failure, remove point   6.
 InvSVX:  RCond= 7.71D-08 Info=           0 Equed=N FErr=  3.47D-11 BErr=  6.62D-17
 DIIS inversion failure, remove point   5.
 InvSVX:  RCond= 3.51D-07 Info=           0 Equed=N FErr=  7.14D-12 BErr=  3.79D-17
 Old DIIS coefficients:      1.54072      0.08968     -2.10311      1.47271      0.00000
 Old DIIS coefficients:      0.00000      0.00000      0.00000      0.00000      0.00000
 RFO-DIIS uses    4 points instead of   10
 DidBck=F Rises=F RFO-DIIS coefs:    1.48953    0.08670   -2.00000    1.42377    0.00000
                  RFO-DIIS coefs:    0.00000    0.00000    0.00000    0.00000    0.00000
 Iteration  1 RMS(Cart)=  0.00795606 RMS(Int)=  0.00006830
 Iteration  2 RMS(Cart)=  0.00007192 RMS(Int)=  0.00000083
 Iteration  3 RMS(Cart)=  0.00000000 RMS(Int)=  0.00000083
 ITry= 1 IFail=0 DXMaxC= 4.30D-02 DCOld= 1.00D+10 DXMaxT= 5.52D-01 DXLimC= 3.00D+00 Rises=F
 Variable       Old X    -DE/DX   Delta X   Delta X   Delta X     New X
                                 (Linear)    (Quad)   (Total)
    R1        2.28545   0.00003   0.00004  -0.00002   0.00002   2.28547
    R2        2.89259  -0.00000  -0.00004   0.00005   0.00001   2.89260
    R3        2.83556  -0.00005  -0.00021   0.00004  -0.00018   2.83539
    R4        2.05852   0.00001   0.00009   0.00001   0.00010   2.05862
    R5        2.06759   0.00001  -0.00002   0.00000  -0.00001   2.06757
    R6        2.87143  -0.00002  -0.00013  -0.00000  -0.00013   2.87130
    R7        2.07340  -0.00001   0.00006  -0.00000   0.00006   2.07345
    R8        2.07070   0.00001  -0.00006   0.00003  -0.00003   2.07067
    R9        2.52450  -0.00002  -0.00003   0.00001  -0.00002   2.52448
   R10        2.05749   0.00001   0.00004  -0.00000   0.00004   2.05752
   R11        2.84560  -0.00001  -0.00004  -0.00000  -0.00004   2.84556
   R12        2.84299  -0.00002  -0.00005   0.00002  -0.00003   2.84296
   R13        2.86278   0.00001   0.00009  -0.00007   0.00002   2.86280
   R14        2.06920   0.00001   0.00002   0.00001   0.00002   2.06922
   R15        2.06923   0.00000   0.00002  -0.00000   0.00001   2.06925
   R16        2.06011  -0.00000  -0.00001   0.00001  -0.00000   2.06011
   R17        2.05557   0.00001   0.00002   0.00001   0.00003   2.05560
   R18        2.06881   0.00000  -0.00002  -0.00000  -0.00002   2.06879
   R19        2.06884  -0.00000   0.00002  -0.00000   0.00002   2.06886
   R20        2.06437  -0.00000  -0.00013  -0.00001  -0.00014   2.06423
   R21        2.05570  -0.00001  -0.00003   0.00003  -0.00000   2.05570
   R22        2.06662   0.00000   0.00011   0.00001   0.00012   2.06674
    A1        1.95739  -0.00002  -0.00010   0.00006  -0.00004   1.95735
    A2        1.90404   0.00001   0.00018  -0.00004   0.00014   1.90418
    A3        1.88792   0.00001  -0.00004  -0.00001  -0.00005   1.88787
    A4        1.95235   0.00001  -0.00002   0.00001  -0.00002   1.95234
    A5        1.91354   0.00000   0.00011   0.00000   0.00011   1.91365
    A6        1.84413  -0.00001  -0.00012  -0.00002  -0.00014   1.84399
    A7        1.99674  -0.00001  -0.00002   0.00010   0.00008   1.99682
    A8        1.93056  -0.00001  -0.00033   0.00005  -0.00028   1.93027
    A9        1.93415  -0.00000   0.00028  -0.00001   0.00027   1.93442
   A10        1.87260   0.00001  -0.00057   0.00001  -0.00055   1.87205
   A11        1.89141   0.00000   0.00060  -0.00011   0.00049   1.89190
   A12        1.82983  -0.00000   0.00003  -0.00006  -0.00003   1.82980
   A13        2.24574   0.00001   0.00018  -0.00005   0.00013   2.24587
   A14        1.99731  -0.00001  -0.00015   0.00004  -0.00011   1.99720
   A15        2.04013  -0.00000  -0.00002   0.00001  -0.00002   2.04012
   A16        2.10835   0.00000  -0.00001   0.00002   0.00001   2.10836
   A17        2.18020  -0.00003  -0.00008  -0.00006  -0.00015   2.18005
   A18        1.99462   0.00003   0.00009   0.00004   0.00014   1.99476
   A19        2.13267  -0.00001  -0.00006   0.00014   0.00008   2.13274
   A20        2.12097   0.00002   0.00011  -0.00013  -0.00002   2.12095
   A21        2.02955  -0.00001  -0.00005  -0.00001  -0.00006   2.02948
   A22        1.93653   0.00000   0.00006  -0.00002   0.00004   1.93657
   A23        1.93740   0.00000  -0.00000   0.00001   0.00001   1.93741
   A24        1.95214   0.00001   0.00002   0.00002   0.00004   1.95218
   A25        1.85789  -0.00000  -0.00001  -0.00001  -0.00003   1.85786
   A26        1.88766  -0.00000  -0.00003  -0.00001  -0.00004   1.88762
   A27        1.88874  -0.00001  -0.00004   0.00001  -0.00003   1.88870
   A28        1.97953  -0.00001  -0.00008  -0.00001  -0.00009   1.97944
   A29        1.92783   0.00001   0.00008   0.00003   0.00010   1.92793
   A30        1.92782  -0.00001  -0.00003   0.00001  -0.00002   1.92780
   A31        1.88518  -0.00000   0.00002  -0.00002  -0.00000   1.88518
   A32        1.88231   0.00001  -0.00003   0.00000  -0.00002   1.88229
   A33        1.85625   0.00000   0.00005  -0.00001   0.00004   1.85630
   A34        1.93745   0.00002   0.00121   0.00003   0.00123   1.93868
   A35        1.91979  -0.00002  -0.00009   0.00008  -0.00000   1.91979
   A36        1.91316  -0.00001  -0.00125  -0.00021  -0.00146   1.91170
   A37        1.92022   0.00002   0.00072   0.00011   0.00083   1.92105
   A38        1.86621  -0.00001   0.00010   0.00003   0.00013   1.86634
   A39        1.90609   0.00001  -0.00074  -0.00004  -0.00077   1.90532
    D1        3.07441   0.00000  -0.00269   0.00056  -0.00213   3.07228
    D2        0.95747  -0.00001  -0.00168   0.00043  -0.00125   0.95622
    D3       -1.06425  -0.00000  -0.00169   0.00048  -0.00121  -1.06546
    D4       -1.03590   0.00000  -0.00267   0.00058  -0.00208  -1.03798
    D5        3.13035  -0.00001  -0.00166   0.00046  -0.00120   3.12915
    D6        1.10863  -0.00000  -0.00167   0.00051  -0.00116   1.10747
    D7        0.96202   0.00000  -0.00273   0.00053  -0.00221   0.95982
    D8       -1.15491  -0.00001  -0.00172   0.00040  -0.00132  -1.15623
    D9        3.10655  -0.00000  -0.00173   0.00045  -0.00128   3.10527
   D10        2.06958  -0.00000   0.00083  -0.00079   0.00004   2.06962
   D11       -1.07152   0.00000   0.00090  -0.00072   0.00018  -1.07134
   D12       -0.07626  -0.00001   0.00069  -0.00079  -0.00010  -0.07636
   D13        3.06582  -0.00000   0.00077  -0.00072   0.00004   3.06586
   D14       -2.11605   0.00000   0.00078  -0.00076   0.00002  -2.11603
   D15        1.02603   0.00000   0.00086  -0.00070   0.00016   1.02619
   D16       -0.09194  -0.00000  -0.00743  -0.00001  -0.00744  -0.09938
   D17        3.04529  -0.00001  -0.00802  -0.00009  -0.00811   3.03718
   D18        2.05661  -0.00000  -0.00829   0.00014  -0.00816   2.04845
   D19       -1.08934  -0.00001  -0.00888   0.00005  -0.00883  -1.09818
   D20       -2.25943   0.00000  -0.00825   0.00002  -0.00823  -2.26765
   D21        0.87780  -0.00000  -0.00884  -0.00006  -0.00890   0.86890
   D22        3.13722   0.00000   0.00009  -0.00006   0.00002   3.13725
   D23        0.00231   0.00000   0.00025  -0.00006   0.00019   0.00250
   D24       -0.00487  -0.00000   0.00001  -0.00013  -0.00012  -0.00499
   D25       -3.13978  -0.00000   0.00017  -0.00012   0.00005  -3.13974
   D26       -2.10354   0.00000  -0.00106   0.00057  -0.00049  -2.10403
   D27        2.11746   0.00000  -0.00108   0.00059  -0.00048   2.11698
   D28        0.00597   0.00000  -0.00104   0.00056  -0.00048   0.00549
   D29        1.03204   0.00000  -0.00120   0.00056  -0.00064   1.03140
   D30       -1.03014   0.00000  -0.00122   0.00058  -0.00063  -1.03077
   D31        3.14155   0.00000  -0.00118   0.00055  -0.00063   3.14092
   D32       -0.02129  -0.00000  -0.00394   0.00001  -0.00393  -0.02522
   D33       -2.14039  -0.00000  -0.00396   0.00002  -0.00394  -2.14433
   D34        2.09409  -0.00001  -0.00405   0.00001  -0.00404   2.09005
   D35        3.12660  -0.00001  -0.00379   0.00001  -0.00377   3.12282
   D36        1.00749  -0.00000  -0.00381   0.00003  -0.00378   1.00371
   D37       -1.04121  -0.00001  -0.00390   0.00002  -0.00388  -1.04509
   D38       -2.26917  -0.00002  -0.01563  -0.00124  -0.01687  -2.28605
   D39       -0.13978  -0.00000  -0.01396  -0.00104  -0.01500  -0.15478
   D40        1.95625  -0.00001  -0.01570  -0.00116  -0.01686   1.93939
   D41        0.87675  -0.00001  -0.01505  -0.00115  -0.01620   0.86055
   D42        3.00614   0.00001  -0.01338  -0.00095  -0.01433   2.99181
   D43       -1.18101  -0.00000  -0.01512  -0.00107  -0.01620  -1.19721
         Item               Value     Threshold  Converged?
 Maximum Force            0.000048     0.000450     YES
 RMS     Force            0.000011     0.000300     YES
 Maximum Displacement     0.043046     0.001800     NO 
 RMS     Displacement     0.007956     0.001200     NO 
 Predicted change in Energy=-3.768233D-07
 Lowest energy point so far.  Saving SCF results.
 GradGradGradGradGradGradGradGradGradGradGradGradGradGradGradGradGradGrad

 Leave Link  103 at Tue Jun  4 00:18:33 2024, MaxMem= 13421772800 cpu:               3.5 elap:               0.2
 (Enter /tmpu/scunam/7/gaussian-2016.03/g1/g16/l202.exe)
                          Input orientation:                          
 ---------------------------------------------------------------------
 Center     Atomic      Atomic             Coordinates (Angstroms)
 Number     Number       Type             X           Y           Z
 ---------------------------------------------------------------------
      1          8           0        2.787313   -0.460766   -1.029507
      2          6           0        0.049035   -0.492324   -0.342450
      3          6           0        1.118569    0.050300    0.608702
      4          6           0       -1.305409   -0.545993    0.300873
      5          6           0       -2.424379    0.091302   -0.054640
      6          6           0        2.528032    0.038003    0.041330
      7          6           0       -3.699943   -0.098413    0.722791
      8          6           0       -2.546934    1.027340   -1.226015
      9          6           0        3.598330    0.693620    0.889640
     10          1           0        0.042800    0.107871   -1.251553
     11          1           0        0.348160   -1.497467   -0.654370
     12          1           0        1.137342   -0.529917    1.539774
     13          1           0        0.880126    1.073382    0.920338
     14          1           0       -1.364514   -1.195782    1.172510
     15          1           0       -4.494226   -0.494484    0.081512
     16          1           0       -4.065715    0.855939    1.115789
     17          1           0       -3.566554   -0.783221    1.560464
     18          1           0       -1.613315    1.168394   -1.766123
     19          1           0       -2.898640    2.009979   -0.895533
     20          1           0       -3.292628    0.655800   -1.936275
     21          1           0        3.555565    0.336579    1.921097
     22          1           0        4.580960    0.496209    0.466744
     23          1           0        3.430624    1.773949    0.919302
 ---------------------------------------------------------------------
                    Distance matrix (angstroms):
                    1          2          3          4          5
     1  O    0.000000
     2  C    2.823334   0.000000
     3  C    2.393664   1.530697   0.000000
     4  C    4.304365   1.500422   2.515153   0.000000
     5  C    5.330749   2.557583   3.604744   1.335900   0.000000
     6  C    1.209417   2.563974   1.519424   3.886346   4.953628
     7  C    6.729513   3.917236   4.822156   2.472273   1.505807
     8  C    5.541414   3.135142   4.213870   2.519553   1.504428
     9  C    2.381907   3.939798   2.577209   5.092146   6.125968
    10  H    2.811584   1.089376   2.149683   2.157599   2.742234
    11  H    2.676741   1.094113   2.141136   2.133562   3.251283
    12  H    3.054242   2.174533   1.097224   2.739009   3.951446
    13  H    3.129356   2.176415   1.095750   2.789745   3.582571
    14  H    4.756764   2.188168   2.834837   1.088793   2.070217
    15  H    7.365889   4.563000   5.663760   3.196768   2.155446
    16  H    7.300685   4.568965   5.270957   3.201373   2.156051
    17  H    6.869029   4.096118   4.852935   2.599157   2.162849
    18  H    4.749979   2.747405   3.788551   2.703036   2.178790
    19  H    6.201016   3.905919   4.716039   3.240797   2.147870
    20  H    6.247770   3.876232   5.128566   3.224620   2.147804
    21  H    3.151513   4.255172   2.782677   5.199340   6.302653
    22  H    2.524230   4.708539   3.493872   5.980221   7.036375
    23  H    3.034083   4.261826   2.900524   5.309858   6.169354
                    6          7          8          9         10
     6  C    0.000000
     7  C    6.266632   0.000000
     8  C    5.323555   2.528754   0.000000
     9  C    1.514926   7.343021   6.507814   0.000000
    10  H    2.802286   4.236593   2.748236   4.191611   0.000000
    11  H    2.755632   4.499007   3.883684   4.212889   1.739822
    12  H    2.121765   4.924732   4.862975   2.824214   3.065339
    13  H    2.135477   4.731719   4.043970   2.744776   2.520007
    14  H    4.237182   2.619293   3.477544   5.317864   3.091299
    15  H    7.042533   1.094987   2.795983   8.219132   4.767022
    16  H    6.730601   1.094999   2.796448   7.669100   4.800397
    17  H    6.334521   1.090161   3.475949   7.346198   4.661429
    18  H    4.657835   3.486189   1.087776   5.868538   2.032784
    19  H    5.849374   2.776037   1.094758   6.865149   3.520914
    20  H    6.178404   2.793810   1.094792   7.447988   3.448790
    21  H    2.162983   7.366652   6.900867   1.092342   4.738938
    22  H    2.146030   8.306172   7.345367   1.087830   4.868084
    23  H    2.144532   7.374913   6.394608   1.093671   4.354971
                   11         12         13         14         15
    11  H    0.000000
    12  H    2.524525   0.000000
    13  H    3.061365   1.737938   0.000000
    14  H    2.522253   2.614869   3.201735   0.000000
    15  H    4.999620   5.817417   5.660874   3.387801   0.000000
    16  H    5.306061   5.401126   4.954476   3.392531   1.754136
    17  H    4.554187   4.710756   4.861038   2.273696   1.769532
    18  H    3.491446   4.623779   3.666517   3.779788   3.805072
    19  H    4.785609   5.354526   4.295774   4.111843   3.126156
    20  H    4.419861   5.754431   5.074100   4.100064   2.615044
    21  H    4.503799   2.596927   2.949979   5.207273   8.299029
    22  H    4.811261   3.750045   3.772937   6.221704   9.137225
    23  H    4.762372   3.309370   2.644964   5.645951   8.285585
                   16         17         18         19         20
    16  H    0.000000
    17  H    1.770238   0.000000
    18  H    3.797013   4.323208   0.000000
    19  H    2.596014   3.778889   1.765857   0.000000
    20  H    3.154808   3.791174   1.764028   1.752761   0.000000
    21  H    7.681288   7.218628   6.403502   7.238124   7.866319
    22  H    8.678460   8.319564   6.618654   7.751885   8.233672
    23  H    7.554896   7.477346   5.746262   6.588544   7.389634
                   21         22         23
    21  H    0.000000
    22  H    1.786633   0.000000
    23  H    1.756484   1.777836   0.000000
 Stoichiometry    C8H14O
 Framework group  C1[X(C8H14O)]
 Deg. of freedom    63
 Full point group                 C1      NOp   1
 RotChk:  IX=0 Diff= 8.68D-04
 Largest Abelian subgroup         C1      NOp   1
 Largest concise Abelian subgroup C1      NOp   1
                         Standard orientation:                         
 ---------------------------------------------------------------------
 Center     Atomic      Atomic             Coordinates (Angstroms)
 Number     Number       Type             X           Y           Z
 ---------------------------------------------------------------------
      1          8           0        2.764390    1.045319   -0.694793
      2          6           0        0.054651    0.256881   -0.611759
      3          6           0        1.156777   -0.550902    0.078051
      4          6           0       -1.273841   -0.438502   -0.558700
      5          6           0       -2.409149   -0.027356    0.012844
      6          6           0        2.543525    0.060972   -0.027732
      7          6           0       -3.652924   -0.874089   -0.046487
      8          6           0       -2.581702    1.275394    0.745219
      9          6           0        3.641845   -0.626962    0.756769
     10          1           0        0.010252    1.250785   -0.167999
     11          1           0        0.347224    0.411988   -1.654556
     12          1           0        1.214436   -1.562721   -0.342423
     13          1           0        0.924731   -0.700456    1.138455
     14          1           0       -1.295890   -1.406090   -1.057457
     15          1           0       -4.468957   -0.337235   -0.541334
     16          1           0       -4.008705   -1.119992    0.959483
     17          1           0       -3.483728   -1.806458   -0.585479
     18          1           0       -1.670255    1.866994    0.795532
     19          1           0       -2.925979    1.096282    1.768882
     20          1           0       -3.351962    1.886135    0.263279
     21          1           0        3.640609   -1.703719    0.572909
     22          1           0        4.608647   -0.204234    0.492252
     23          1           0        3.469363   -0.486457    1.827574
 ---------------------------------------------------------------------
 Rotational constants (GHZ):           4.0573011           0.5805377           0.5571917
 Leave Link  202 at Tue Jun  4 00:18:33 2024, MaxMem= 13421772800 cpu:               2.4 elap:               0.1
 (Enter /tmpu/scunam/7/gaussian-2016.03/g1/g16/l301.exe)
 Standard basis: def2TZVP (5D, 7F)
 Ernie: Thresh=  0.10000D-02 Tol=  0.10000D-05 Strict=F.
 There are   408 symmetry adapted cartesian basis functions of A   symmetry.
 There are   363 symmetry adapted basis functions of A   symmetry.
   363 basis functions,   571 primitive gaussians,   408 cartesian basis functions
    35 alpha electrons       35 beta electrons
       nuclear repulsion energy       428.8464150407 Hartrees.
 IExCor=  402 DFT=T Ex+Corr=B3LYP ExCW=0 ScaHFX=  0.200000
 ScaDFX=  0.800000  0.720000  1.000000  0.810000 ScalE2=  1.000000  1.000000
 IRadAn=      5 IRanWt=     -1 IRanGd=            0 ICorTp=0 IEmpDi=  4
 NAtoms=   23 NActive=   23 NUniq=   23 SFac= 1.00D+00 NAtFMM=   60 NAOKFM=F Big=F
 Integral buffers will be    131072 words long.
 Raffenetti 2 integral format.
 Two-electron integral symmetry is turned on.
 Leave Link  301 at Tue Jun  4 00:18:33 2024, MaxMem= 13421772800 cpu:               2.7 elap:               0.1
 (Enter /tmpu/scunam/7/gaussian-2016.03/g1/g16/l302.exe)
 NPDir=0 NMtPBC=     1 NCelOv=     1 NCel=       1 NClECP=     1 NCelD=      1
         NCelK=      1 NCelE2=     1 NClLst=     1 CellRange=     0.0.
 One-electron integrals computed using PRISM.
 One-electron integral symmetry used in STVInt
   1 Symmetry operations used in ECPInt.
 ECPInt:  NShTT=   12090 NPrTT=   35220 LenC2=   11307 LenP2D=   25537.
 LDataN:  DoStor=T MaxTD1= 6 Len=  172
 NBasis=   363 RedAO= T EigKep=  7.80D-05  NBF=   363
 NBsUse=   363 1.00D-06 EigRej= -1.00D+00 NBFU=   363
 Precomputing XC quadrature grid using
 IXCGrd= 4 IRadAn=           5 IRanWt=          -1 IRanGd=           0 AccXCQ= 0.00D+00.
 Generated NRdTot=       0 NPtTot=           0 NUsed=           0 NTot=          32
 NSgBfM=   405   405   405   405   405 MxSgAt=    23 MxSgA2=    23.
 Leave Link  302 at Tue Jun  4 00:18:33 2024, MaxMem= 13421772800 cpu:              12.8 elap:               0.4
 (Enter /tmpu/scunam/7/gaussian-2016.03/g1/g16/l303.exe)
 DipDrv:  MaxL=1.
 Leave Link  303 at Tue Jun  4 00:18:33 2024, MaxMem= 13421772800 cpu:               2.8 elap:               0.1
 (Enter /tmpu/scunam/7/gaussian-2016.03/g1/g16/l401.exe)
 Initial guess from the checkpoint file:  "S36.chk"
 B after Tr=    -0.000000   -0.000000    0.000000
         Rot=    1.000000    0.000535    0.000054    0.000093 Ang=   0.06 deg.
 Guess basis will be translated and rotated to current coordinates.
 JPrj=2 DoOrth=T DoCkMO=T.
 Generating alternative initial guess.
 ExpMin= 9.52D-02 ExpMax= 2.70D+04 ExpMxC= 9.22D+02 IAcc=2 IRadAn=         4 AccDes= 0.00D+00
 Harris functional with IExCor=  402 and IRadAn=       4 diagonalized for initial guess.
 HarFok:  IExCor=  402 AccDes= 0.00D+00 IRadAn=         4 IDoV= 1 UseB2=F ITyADJ=14
 ICtDFT=  3500011 ScaDFX=  1.000000  1.000000  1.000000  1.000000
 FoFCou: FMM=F IPFlag=           0 FMFlag=      100000 FMFlg1=           0
         NFxFlg=           0 DoJE=T BraDBF=F KetDBF=T FulRan=T
         wScrn=  0.000000 ICntrl=       500 IOpCl=  0 I1Cent=   200000004 NGrid=           0
         NMat0=    1 NMatS0=      1 NMatT0=    0 NMatD0=    1 NMtDS0=    0 NMtDT0=    0
 Petite list used in FoFCou.
 Harris En= -388.761686419771    
 Leave Link  401 at Tue Jun  4 00:18:34 2024, MaxMem= 13421772800 cpu:              27.9 elap:               0.9
 (Enter /tmpu/scunam/7/gaussian-2016.03/g1/g16/l502.exe)
 Integral symmetry usage will be decided dynamically.
 Closed shell SCF:
 Using DIIS extrapolation, IDIIS=  1040.
 NGot= 13421772800 LenX= 13421422965 LenY= 13421256060
 Requested convergence on RMS density matrix=1.00D-08 within 128 cycles.
 Requested convergence on MAX density matrix=1.00D-06.
 Requested convergence on             energy=1.00D-06.
 No special actions if energy rises.
 Fock matrices will be formed incrementally for  20 cycles.
 Integral accuracy reduced to 1.0D-05 until final iterations.

 Cycle   1  Pass 0  IDiag  1:
 FoFJK:  IHMeth= 1 ICntrl=       0 DoSepK=F KAlg= 0 I1Cent=           0 FoldK=F
 IRaf= 890000000 NMat=       1 IRICut=       1 DoRegI=T DoRafI=F ISym2E= 0 IDoP0=0 IntGTp=1.
 FoFCou: FMM=F IPFlag=           0 FMFlag=      100000 FMFlg1=           0
         NFxFlg=           0 DoJE=F BraDBF=F KetDBF=F FulRan=T
         wScrn=  0.000000 ICntrl=         0 IOpCl=  0 I1Cent=           0 NGrid=           0
         NMat0=    1 NMatS0=      1 NMatT0=    0 NMatD0=    1 NMtDS0=    0 NMtDT0=    0
 Symmetry not used in FoFCou.
 E= -388.651132304294    
 DIIS: error= 3.79D-04 at cycle   1 NSaved=   1.
 NSaved= 1 IEnMin= 1 EnMin= -388.651132304294     IErMin= 1 ErrMin= 3.79D-04
 ErrMax= 3.79D-04  0.00D+00 EMaxC= 1.00D-01 BMatC= 8.28D-05 BMatP= 8.28D-05
 IDIUse=3 WtCom= 9.96D-01 WtEn= 3.79D-03
 Coeff-Com:  0.100D+01
 Coeff-En:   0.100D+01
 Coeff:      0.100D+01
 Gap=     0.607 Goal=   None    Shift=    0.000
 RMSDP=1.03D-04 MaxDP=4.45D-03              OVMax= 3.05D-03

 Cycle   2  Pass 0  IDiag  1:
 RMSU=  1.03D-04    CP:  1.00D+00
 E= -388.651247005895     Delta-E=       -0.000114701601 Rises=F Damp=F
 DIIS: error= 3.83D-05 at cycle   2 NSaved=   2.
 NSaved= 2 IEnMin= 2 EnMin= -388.651247005895     IErMin= 2 ErrMin= 3.83D-05
 ErrMax= 3.83D-05  0.00D+00 EMaxC= 1.00D-01 BMatC= 7.26D-07 BMatP= 8.28D-05
 IDIUse=1 WtCom= 1.00D+00 WtEn= 0.00D+00
 Coeff-Com: -0.631D-01 0.106D+01
 Coeff:     -0.631D-01 0.106D+01
 Gap=     0.216 Goal=   None    Shift=    0.000
 RMSDP=6.07D-06 MaxDP=1.76D-04 DE=-1.15D-04 OVMax= 3.86D-04

 Initial convergence to 1.0D-05 achieved.  Increase integral accuracy.
 Cycle   3  Pass 1  IDiag  1:
 E= -388.651240615956     Delta-E=        0.000006389939 Rises=F Damp=F
 DIIS: error= 9.47D-05 at cycle   1 NSaved=   1.
 NSaved= 1 IEnMin= 1 EnMin= -388.651240615956     IErMin= 1 ErrMin= 9.47D-05
 ErrMax= 9.47D-05  0.00D+00 EMaxC= 1.00D-01 BMatC= 2.22D-06 BMatP= 2.22D-06
 IDIUse=1 WtCom= 1.00D+00 WtEn= 0.00D+00
 Coeff-Com:  0.100D+01
 Coeff:      0.100D+01
 Gap=     0.216 Goal=   None    Shift=    0.000
 RMSDP=6.07D-06 MaxDP=1.76D-04 DE= 6.39D-06 OVMax= 2.85D-04

 Cycle   4  Pass 1  IDiag  1:
 RMSU=  9.95D-05    CP:  1.00D+00
 E= -388.651241521381     Delta-E=       -0.000000905424 Rises=F Damp=F
 DIIS: error= 3.26D-05 at cycle   2 NSaved=   2.
 NSaved= 2 IEnMin= 2 EnMin= -388.651241521381     IErMin= 2 ErrMin= 3.26D-05
 ErrMax= 3.26D-05  0.00D+00 EMaxC= 1.00D-01 BMatC= 4.76D-07 BMatP= 2.22D-06
 IDIUse=1 WtCom= 1.00D+00 WtEn= 0.00D+00
 Coeff-Com:  0.223D+00 0.777D+00
 Coeff:      0.223D+00 0.777D+00
 Gap=     0.216 Goal=   None    Shift=    0.000
 RMSDP=5.37D-06 MaxDP=5.85D-04 DE=-9.05D-07 OVMax= 4.31D-04

 Cycle   5  Pass 1  IDiag  1:
 RMSU=  5.16D-06    CP:  1.00D+00  1.01D+00
 E= -388.651241126495     Delta-E=        0.000000394886 Rises=F Damp=F
 DIIS: error= 5.04D-05 at cycle   3 NSaved=   3.
 NSaved= 3 IEnMin= 2 EnMin= -388.651241521381     IErMin= 2 ErrMin= 3.26D-05
 ErrMax= 5.04D-05  0.00D+00 EMaxC= 1.00D-01 BMatC= 1.03D-06 BMatP= 4.76D-07
 IDIUse=1 WtCom= 1.00D+00 WtEn= 0.00D+00
 Coeff-Com:  0.544D-02 0.594D+00 0.401D+00
 Coeff:      0.544D-02 0.594D+00 0.401D+00
 Gap=     0.216 Goal=   None    Shift=    0.000
 RMSDP=3.10D-06 MaxDP=3.43D-04 DE= 3.95D-07 OVMax= 2.69D-04

 Cycle   6  Pass 1  IDiag  1:
 RMSU=  7.09D-07    CP:  1.00D+00  1.02D+00  4.34D-01
 E= -388.651241879762     Delta-E=       -0.000000753267 Rises=F Damp=F
 DIIS: error= 3.82D-06 at cycle   4 NSaved=   4.
 NSaved= 4 IEnMin= 4 EnMin= -388.651241879762     IErMin= 4 ErrMin= 3.82D-06
 ErrMax= 3.82D-06  0.00D+00 EMaxC= 1.00D-01 BMatC= 5.71D-09 BMatP= 4.76D-07
 IDIUse=1 WtCom= 1.00D+00 WtEn= 0.00D+00
 Coeff-Com: -0.116D-02 0.285D+00 0.201D+00 0.515D+00
 Coeff:     -0.116D-02 0.285D+00 0.201D+00 0.515D+00
 Gap=     0.216 Goal=   None    Shift=    0.000
 RMSDP=2.67D-07 MaxDP=6.78D-06 DE=-7.53D-07 OVMax= 2.80D-05

 Cycle   7  Pass 1  IDiag  1:
 RMSU=  2.03D-07    CP:  1.00D+00  1.02D+00  4.31D-01  7.57D-01
 E= -388.651241885047     Delta-E=       -0.000000005285 Rises=F Damp=F
 DIIS: error= 1.21D-06 at cycle   5 NSaved=   5.
 NSaved= 5 IEnMin= 5 EnMin= -388.651241885047     IErMin= 5 ErrMin= 1.21D-06
 ErrMax= 1.21D-06  0.00D+00 EMaxC= 1.00D-01 BMatC= 5.47D-10 BMatP= 5.71D-09
 IDIUse=1 WtCom= 1.00D+00 WtEn= 0.00D+00
 Coeff-Com: -0.957D-03 0.142D+00 0.101D+00 0.309D+00 0.448D+00
 Coeff:     -0.957D-03 0.142D+00 0.101D+00 0.309D+00 0.448D+00
 Gap=     0.216 Goal=   None    Shift=    0.000
 RMSDP=5.49D-08 MaxDP=2.90D-06 DE=-5.28D-09 OVMax= 1.24D-05

 Cycle   8  Pass 1  IDiag  1:
 RMSU=  4.91D-08    CP:  1.00D+00  1.02D+00  4.29D-01  7.77D-01  9.35D-01
 E= -388.651241885547     Delta-E=       -0.000000000500 Rises=F Damp=F
 DIIS: error= 3.03D-07 at cycle   6 NSaved=   6.
 NSaved= 6 IEnMin= 6 EnMin= -388.651241885547     IErMin= 6 ErrMin= 3.03D-07
 ErrMax= 3.03D-07  0.00D+00 EMaxC= 1.00D-01 BMatC= 3.40D-11 BMatP= 5.47D-10
 IDIUse=1 WtCom= 1.00D+00 WtEn= 0.00D+00
 Coeff-Com: -0.413D-03 0.516D-01 0.369D-01 0.123D+00 0.252D+00 0.537D+00
 Coeff:     -0.413D-03 0.516D-01 0.369D-01 0.123D+00 0.252D+00 0.537D+00
 Gap=     0.216 Goal=   None    Shift=    0.000
 RMSDP=1.73D-08 MaxDP=5.99D-07 DE=-5.00D-10 OVMax= 2.43D-06

 Cycle   9  Pass 1  IDiag  1:
 RMSU=  1.22D-08    CP:  1.00D+00  1.02D+00  4.30D-01  7.84D-01  9.35D-01
                    CP:  8.13D-01
 E= -388.651241885578     Delta-E=       -0.000000000031 Rises=F Damp=F
 DIIS: error= 3.80D-08 at cycle   7 NSaved=   7.
 NSaved= 7 IEnMin= 7 EnMin= -388.651241885578     IErMin= 7 ErrMin= 3.80D-08
 ErrMax= 3.80D-08  0.00D+00 EMaxC= 1.00D-01 BMatC= 1.31D-12 BMatP= 3.40D-11
 IDIUse=1 WtCom= 1.00D+00 WtEn= 0.00D+00
 Coeff-Com: -0.749D-04 0.735D-02 0.530D-02 0.211D-01 0.622D-01 0.213D+00
 Coeff-Com:  0.691D+00
 Coeff:     -0.749D-04 0.735D-02 0.530D-02 0.211D-01 0.622D-01 0.213D+00
 Coeff:      0.691D+00
 Gap=     0.216 Goal=   None    Shift=    0.000
 RMSDP=5.67D-09 MaxDP=2.98D-07 DE=-3.08D-11 OVMax= 4.29D-07

 SCF Done:  E(RB3LYP) =  -388.651241886     A.U. after    9 cycles
            NFock=  9  Conv=0.57D-08     -V/T= 2.0053
 KE= 3.865947848624D+02 PE=-1.760964997824D+03 EE= 5.568725560353D+02
 Leave Link  502 at Tue Jun  4 00:18:57 2024, MaxMem= 13421772800 cpu:             735.5 elap:              23.0
 (Enter /tmpu/scunam/7/gaussian-2016.03/g1/g16/l508.exe)
 QCSCF skips out because SCF is already converged.
 Leave Link  508 at Tue Jun  4 00:18:57 2024, MaxMem= 13421772800 cpu:               0.2 elap:               0.0
 (Enter /tmpu/scunam/7/gaussian-2016.03/g1/g16/l701.exe)
 ... and contract with generalized density number  0.
 Compute integral first derivatives.
   1 Symmetry operations used in ECPInt.
 ECPInt:  NShTT=   12090 NPrTT=   35220 LenC2=   11307 LenP2D=   25537.
 LDataN:  DoStor=T MaxTD1= 7 Len=  274
 Leave Link  701 at Tue Jun  4 00:18:58 2024, MaxMem= 13421772800 cpu:               8.6 elap:               0.3
 (Enter /tmpu/scunam/7/gaussian-2016.03/g1/g16/l702.exe)
 L702 exits ... SP integral derivatives will be done elsewhere.
 Leave Link  702 at Tue Jun  4 00:18:58 2024, MaxMem= 13421772800 cpu:               0.5 elap:               0.0
 (Enter /tmpu/scunam/7/gaussian-2016.03/g1/g16/l703.exe)
 Integral derivatives from FoFJK, PRISM(SPDF).
 Compute integral first derivatives, UseDBF=F ICtDFT=           0.
 Calling FoFJK, ICntrl=      2127 FMM=F ISym2X=0 I1Cent= 0 IOpClX= 0 NMat=1 NMatS=1 NMatT=0.
 FoFJK:  IHMeth= 1 ICntrl=    2127 DoSepK=F KAlg= 0 I1Cent=           0 FoldK=F
 IRaf=         0 NMat=       1 IRICut=       1 DoRegI=T DoRafI=F ISym2E= 0 IDoP0=0 IntGTp=1.
 FoFCou: FMM=F IPFlag=           0 FMFlag=      100000 FMFlg1=         800
         NFxFlg=           0 DoJE=F BraDBF=F KetDBF=F FulRan=T
         wScrn=  0.000000 ICntrl=      2127 IOpCl=  0 I1Cent=           0 NGrid=           0
         NMat0=    1 NMatS0=      1 NMatT0=    0 NMatD0=    1 NMtDS0=    0 NMtDT0=    0
 Symmetry not used in FoFCou.
 Leave Link  703 at Tue Jun  4 00:19:08 2024, MaxMem= 13421772800 cpu:             326.4 elap:              10.2
 (Enter /tmpu/scunam/7/gaussian-2016.03/g1/g16/l716.exe)
 Dipole        =-3.03347521D-01-8.09608614D-01 6.55660152D-01
 ***** Axes restored to original set *****
 -------------------------------------------------------------------
 Center     Atomic                   Forces (Hartrees/Bohr)
 Number     Number              X              Y              Z
 -------------------------------------------------------------------
      1        8          -0.000005195   -0.000001215   -0.000014740
      2        6          -0.000000530    0.000003856    0.000002168
      3        6           0.000006907   -0.000019139    0.000005851
      4        6           0.000002421    0.000001292   -0.000003621
      5        6          -0.000001561    0.000004922    0.000006053
      6        6          -0.000000319    0.000004761   -0.000001156
      7        6           0.000002371    0.000002496   -0.000001040
      8        6          -0.000000559   -0.000001553    0.000001095
      9        6           0.000003704   -0.000012390    0.000013623
     10        1           0.000001170   -0.000000160   -0.000000599
     11        1          -0.000000270   -0.000000861   -0.000001715
     12        1          -0.000004716    0.000004134   -0.000003779
     13        1           0.000001059    0.000005184   -0.000000808
     14        1           0.000000038   -0.000001091   -0.000000292
     15        1          -0.000000280   -0.000001493    0.000000440
     16        1          -0.000000256   -0.000000334   -0.000000614
     17        1           0.000000481    0.000000228    0.000000199
     18        1           0.000000609    0.000000250    0.000001301
     19        1           0.000000483   -0.000000737    0.000002035
     20        1          -0.000000367    0.000001024   -0.000001172
     21        1          -0.000000569    0.000008786    0.000002239
     22        1          -0.000005500   -0.000000440   -0.000002462
     23        1           0.000000881    0.000002478   -0.000003007
 -------------------------------------------------------------------
 Cartesian Forces:  Max     0.000019139 RMS     0.000004550
 Leave Link  716 at Tue Jun  4 00:19:08 2024, MaxMem= 13421772800 cpu:               0.7 elap:               0.0
 (Enter /tmpu/scunam/7/gaussian-2016.03/g1/g16/l103.exe)

 GradGradGradGradGradGradGradGradGradGradGradGradGradGradGradGradGradGrad
 Berny optimization.
 Using GEDIIS/GDIIS optimizer.
 FormGI is forming the generalized inverse of G from B-inverse, IUseBI=4.
 Internal  Forces:  Max     0.000011923 RMS     0.000003071
 Search for a local minimum.
 Step number  20 out of a maximum of  138
 All quantities printed in internal units (Hartrees-Bohrs-Radians)
 RMS Force = .30705D-05 SwitMx=.10000D-02 MixMth= 2
 Mixed Optimization -- En-DIIS/RFO-DIIS
 Swapping is turned off.
 Update second derivatives using D2CorX and points    5    6    7    8    9
                                                     10   11   12   13   14
                                                     15   16   17   18   19
                                                     20
 DE= -6.07D-07 DEPred=-3.77D-07 R= 1.61D+00
 Trust test= 1.61D+00 RLast= 4.54D-02 DXMaxT set to 5.52D-01
 ITU=  0  1 -1  1  1  0  0  0  0  0  0  1  1  1  1  1 -1  1  1  0
     Eigenvalues ---    0.00022   0.00139   0.00153   0.00253   0.00487
     Eigenvalues ---    0.00633   0.01378   0.01720   0.02910   0.02983
     Eigenvalues ---    0.03940   0.04202   0.04938   0.05536   0.06884
     Eigenvalues ---    0.06931   0.07040   0.07081   0.07289   0.07390
     Eigenvalues ---    0.09306   0.09912   0.12804   0.13229   0.15767
     Eigenvalues ---    0.15946   0.16002   0.16011   0.16035   0.16065
     Eigenvalues ---    0.16133   0.16231   0.16351   0.16454   0.21584
     Eigenvalues ---    0.22255   0.22884   0.24936   0.25365   0.25758
     Eigenvalues ---    0.29627   0.29890   0.30804   0.31130   0.31906
     Eigenvalues ---    0.32994   0.33840   0.33926   0.34039   0.34138
     Eigenvalues ---    0.34227   0.34244   0.34269   0.34277   0.34317
     Eigenvalues ---    0.34436   0.34506   0.34624   0.34844   0.34901
     Eigenvalues ---    0.37507   0.59994   0.91008
 En-DIIS/RFO-DIIS/Sim-DIIS IScMMF=       -3 using points:    20   19   18   17   16   15   14   13   12   11
 RFO step:  Lambda=-2.55865167D-07.
 NNeg= 0 NGDIIS=10 SimSw=  2.50D-03 Rises=F DC= -6.07D-07 SmlDif=  1.00D-05
 NRisDI= 0 DoIntr=F SqrtH=F CThrHd= 10.0 CDAdj=  3.0
 RMS Error=  0.3254014606D-02 NUsed=10 OKEnD=F EnDIS=F
 InvSVX:  RCond= 2.88D-10 Info=           0 Equed=N FErr=  3.00D-08 BErr=  5.21D-17
 DIIS inversion failure, remove point  10.
 InvSVX:  RCond= 5.71D-10 Info=           0 Equed=N FErr=  1.71D-08 BErr=  4.72D-17
 DIIS inversion failure, remove point   9.
 InvSVX:  RCond= 7.35D-10 Info=           0 Equed=N FErr=  1.39D-08 BErr=  6.54D-17
 DIIS inversion failure, remove point   8.
 InvSVX:  RCond= 9.71D-10 Info=           0 Equed=N FErr=  5.96D-09 BErr=  6.68D-17
 DIIS inversion failure, remove point   7.
 InvSVX:  RCond= 7.86D-08 Info=           0 Equed=N FErr=  6.89D-11 BErr=  7.76D-17
 DIIS inversion failure, remove point   6.
 InvSVX:  RCond= 7.01D-08 Info=           0 Equed=N FErr=  2.95D-11 BErr=  5.00D-17
 DIIS inversion failure, remove point   5.
 InvSVX:  RCond= 2.13D-06 Info=           0 Equed=N FErr=  4.11D-13 BErr=  2.09D-17
 RFO-DIIS uses    4 points instead of   10
 DidBck=F Rises=F RFO-DIIS coefs:    1.19706   -0.19592    0.03711   -0.03825    0.00000
                  RFO-DIIS coefs:    0.00000    0.00000    0.00000    0.00000    0.00000
 Iteration  1 RMS(Cart)=  0.00406726 RMS(Int)=  0.00001847
 Iteration  2 RMS(Cart)=  0.00001937 RMS(Int)=  0.00000010
 Iteration  3 RMS(Cart)=  0.00000000 RMS(Int)=  0.00000010
 ITry= 1 IFail=0 DXMaxC= 2.24D-02 DCOld= 1.00D+10 DXMaxT= 5.52D-01 DXLimC= 3.00D+00 Rises=F
 Variable       Old X    -DE/DX   Delta X   Delta X   Delta X     New X
                                 (Linear)    (Quad)   (Total)
    R1        2.28547   0.00001  -0.00000   0.00001   0.00001   2.28547
    R2        2.89260  -0.00001  -0.00000  -0.00001  -0.00001   2.89259
    R3        2.83539  -0.00000  -0.00004   0.00000  -0.00003   2.83535
    R4        2.05862   0.00000   0.00003   0.00000   0.00003   2.05865
    R5        2.06757   0.00000  -0.00002   0.00001  -0.00001   2.06756
    R6        2.87130  -0.00001  -0.00003  -0.00003  -0.00006   2.87123
    R7        2.07345  -0.00001   0.00004  -0.00001   0.00003   2.07349
    R8        2.07067   0.00000  -0.00002   0.00001  -0.00001   2.07066
    R9        2.52448  -0.00000  -0.00000  -0.00000  -0.00000   2.52448
   R10        2.05752   0.00000   0.00000   0.00000   0.00000   2.05753
   R11        2.84556  -0.00000  -0.00000  -0.00001  -0.00001   2.84555
   R12        2.84296  -0.00000  -0.00000  -0.00001  -0.00001   2.84295
   R13        2.86280   0.00001  -0.00000   0.00001   0.00001   2.86280
   R14        2.06922   0.00000   0.00001   0.00000   0.00001   2.06923
   R15        2.06925  -0.00000   0.00000  -0.00000  -0.00000   2.06925
   R16        2.06011  -0.00000  -0.00000   0.00000  -0.00000   2.06010
   R17        2.05560   0.00000   0.00000   0.00000   0.00000   2.05560
   R18        2.06879  -0.00000  -0.00000  -0.00000  -0.00000   2.06879
   R19        2.06886   0.00000   0.00000   0.00000   0.00001   2.06886
   R20        2.06423  -0.00000  -0.00007  -0.00000  -0.00007   2.06415
   R21        2.05570  -0.00000   0.00000  -0.00000   0.00000   2.05570
   R22        2.06674   0.00000   0.00007   0.00001   0.00007   2.06681
    A1        1.95735  -0.00000  -0.00000  -0.00000  -0.00000   1.95735
    A2        1.90418   0.00000   0.00003  -0.00002   0.00001   1.90419
    A3        1.88787   0.00000  -0.00004  -0.00000  -0.00004   1.88783
    A4        1.95234   0.00000  -0.00003   0.00002  -0.00001   1.95233
    A5        1.91365   0.00000   0.00004  -0.00000   0.00004   1.91369
    A6        1.84399  -0.00000  -0.00000   0.00001   0.00000   1.84399
    A7        1.99682  -0.00000   0.00002  -0.00000   0.00002   1.99684
    A8        1.93027  -0.00000  -0.00014   0.00002  -0.00012   1.93016
    A9        1.93442   0.00000   0.00018  -0.00001   0.00017   1.93459
   A10        1.87205   0.00001  -0.00038   0.00004  -0.00034   1.87171
   A11        1.89190  -0.00000   0.00032  -0.00007   0.00024   1.89215
   A12        1.82980  -0.00000  -0.00001   0.00003   0.00002   1.82982
   A13        2.24587   0.00000   0.00004   0.00001   0.00005   2.24592
   A14        1.99720  -0.00000  -0.00003  -0.00001  -0.00005   1.99715
   A15        2.04012  -0.00000  -0.00001   0.00000  -0.00000   2.04011
   A16        2.10836   0.00000  -0.00001   0.00001   0.00000   2.10836
   A17        2.18005  -0.00000  -0.00000  -0.00001  -0.00001   2.18005
   A18        1.99476   0.00000   0.00001   0.00000   0.00001   1.99477
   A19        2.13274  -0.00000   0.00004  -0.00000   0.00004   2.13278
   A20        2.12095   0.00001  -0.00000   0.00001   0.00001   2.12096
   A21        2.02948  -0.00001  -0.00004  -0.00001  -0.00005   2.02944
   A22        1.93657   0.00000   0.00000  -0.00000   0.00000   1.93658
   A23        1.93741   0.00000   0.00001   0.00000   0.00001   1.93742
   A24        1.95218  -0.00000   0.00001  -0.00001  -0.00000   1.95218
   A25        1.85786   0.00000  -0.00001   0.00001  -0.00000   1.85786
   A26        1.88762  -0.00000  -0.00001  -0.00001  -0.00001   1.88760
   A27        1.88870   0.00000  -0.00000   0.00001   0.00000   1.88871
   A28        1.97944  -0.00000  -0.00000  -0.00001  -0.00001   1.97943
   A29        1.92793  -0.00000   0.00001  -0.00002  -0.00001   1.92792
   A30        1.92780   0.00000  -0.00001   0.00003   0.00002   1.92782
   A31        1.88518   0.00000   0.00000  -0.00000  -0.00000   1.88518
   A32        1.88229  -0.00000  -0.00000   0.00000  -0.00000   1.88229
   A33        1.85630   0.00000  -0.00000   0.00001   0.00001   1.85631
   A34        1.93868   0.00001   0.00067   0.00003   0.00070   1.93938
   A35        1.91979  -0.00001   0.00003   0.00000   0.00003   1.91982
   A36        1.91170  -0.00000  -0.00074  -0.00003  -0.00077   1.91094
   A37        1.92105   0.00000   0.00040  -0.00000   0.00040   1.92145
   A38        1.86634  -0.00000   0.00004   0.00003   0.00008   1.86641
   A39        1.90532   0.00000  -0.00042  -0.00004  -0.00046   1.90486
    D1        3.07228   0.00000  -0.00063  -0.00012  -0.00075   3.07153
    D2        0.95622  -0.00000  -0.00004  -0.00019  -0.00023   0.95599
    D3       -1.06546  -0.00000  -0.00005  -0.00023  -0.00028  -1.06574
    D4       -1.03798   0.00000  -0.00064  -0.00011  -0.00076  -1.03874
    D5        3.12915  -0.00000  -0.00006  -0.00018  -0.00024   3.12891
    D6        1.10747  -0.00000  -0.00007  -0.00022  -0.00029   1.10718
    D7        0.95982   0.00000  -0.00066  -0.00011  -0.00077   0.95905
    D8       -1.15623  -0.00000  -0.00007  -0.00018  -0.00026  -1.15649
    D9        3.10527  -0.00000  -0.00008  -0.00022  -0.00030   3.10497
   D10        2.06962   0.00000   0.00006   0.00008   0.00014   2.06976
   D11       -1.07134  -0.00000   0.00008   0.00002   0.00009  -1.07125
   D12       -0.07636   0.00000   0.00004   0.00009   0.00013  -0.07623
   D13        3.06586  -0.00000   0.00006   0.00003   0.00009   3.06595
   D14       -2.11603   0.00000   0.00003   0.00007   0.00011  -2.11592
   D15        1.02619  -0.00000   0.00005   0.00001   0.00006   1.02626
   D16       -0.09938  -0.00000  -0.00427   0.00041  -0.00386  -0.10324
   D17        3.03718  -0.00000  -0.00455   0.00040  -0.00415   3.03303
   D18        2.04845   0.00000  -0.00472   0.00047  -0.00425   2.04420
   D19       -1.09818  -0.00000  -0.00500   0.00045  -0.00454  -1.10272
   D20       -2.26765   0.00000  -0.00476   0.00048  -0.00428  -2.27193
   D21        0.86890   0.00000  -0.00504   0.00047  -0.00457   0.86433
   D22        3.13725  -0.00000  -0.00002  -0.00009  -0.00011   3.13714
   D23        0.00250  -0.00000   0.00001   0.00000   0.00001   0.00251
   D24       -0.00499  -0.00000  -0.00004  -0.00002  -0.00007  -0.00505
   D25       -3.13974   0.00000  -0.00001   0.00007   0.00006  -3.13968
   D26       -2.10403   0.00000   0.00010   0.00020   0.00030  -2.10374
   D27        2.11698   0.00000   0.00010   0.00018   0.00029   2.11726
   D28        0.00549   0.00000   0.00010   0.00018   0.00028   0.00576
   D29        1.03140   0.00000   0.00007   0.00012   0.00019   1.03159
   D30       -1.03077   0.00000   0.00008   0.00010   0.00018  -1.03060
   D31        3.14092   0.00000   0.00007   0.00010   0.00017   3.14109
   D32       -0.02522  -0.00000  -0.00036   0.00004  -0.00032  -0.02554
   D33       -2.14433  -0.00000  -0.00037   0.00007  -0.00030  -2.14463
   D34        2.09005  -0.00000  -0.00037   0.00006  -0.00032   2.08973
   D35        3.12282  -0.00000  -0.00033   0.00013  -0.00020   3.12262
   D36        1.00371   0.00000  -0.00034   0.00016  -0.00018   1.00353
   D37       -1.04509   0.00000  -0.00034   0.00014  -0.00020  -1.04529
   D38       -2.28605  -0.00001  -0.00886  -0.00023  -0.00910  -2.29514
   D39       -0.15478   0.00000  -0.00789  -0.00022  -0.00810  -0.16289
   D40        1.93939  -0.00001  -0.00886  -0.00028  -0.00913   1.93025
   D41        0.86055  -0.00000  -0.00859  -0.00022  -0.00881   0.85174
   D42        2.99181   0.00000  -0.00761  -0.00020  -0.00782   2.98400
   D43       -1.19721  -0.00000  -0.00858  -0.00027  -0.00884  -1.20605
         Item               Value     Threshold  Converged?
 Maximum Force            0.000012     0.000450     YES
 RMS     Force            0.000003     0.000300     YES
 Maximum Displacement     0.022351     0.001800     NO 
 RMS     Displacement     0.004067     0.001200     NO 
 Predicted change in Energy=-1.154997D-07
 Lowest energy point so far.  Saving SCF results.
 GradGradGradGradGradGradGradGradGradGradGradGradGradGradGradGradGradGrad

 Leave Link  103 at Tue Jun  4 00:19:08 2024, MaxMem= 13421772800 cpu:               2.5 elap:               0.1
 (Enter /tmpu/scunam/7/gaussian-2016.03/g1/g16/l202.exe)
                          Input orientation:                          
 ---------------------------------------------------------------------
 Center     Atomic      Atomic             Coordinates (Angstroms)
 Number     Number       Type             X           Y           Z
 ---------------------------------------------------------------------
      1          8           0        2.788335   -0.465394   -1.027267
      2          6           0        0.049085   -0.492257   -0.342968
      3          6           0        1.118669    0.048762    0.609030
      4          6           0       -1.305396   -0.546549    0.300183
      5          6           0       -2.424269    0.091364   -0.054519
      6          6           0        2.528291    0.036024    0.042152
      7          6           0       -3.699912   -0.099321    0.722532
      8          6           0       -2.546654    1.028953   -1.224662
      9          6           0        3.597705    0.695081    0.888916
     10          1           0        0.043030    0.109251   -1.251223
     11          1           0        0.348059   -1.496999   -0.656299
     12          1           0        1.136995   -0.532731    1.539336
     13          1           0        0.880731    1.071549    0.921995
     14          1           0       -1.364629   -1.197519    1.170933
     15          1           0       -4.494102   -0.494683    0.080696
     16          1           0       -4.065782    0.854547    1.116611
     17          1           0       -3.566590   -0.785115    1.559408
     18          1           0       -1.612918    1.170820   -1.764358
     19          1           0       -2.898522    2.011112   -0.892935
     20          1           0       -3.292144    0.658303   -1.935605
     21          1           0        3.549793    0.348137    1.923547
     22          1           0        4.581223    0.490712    0.471422
     23          1           0        3.433603    1.776251    0.907474
 ---------------------------------------------------------------------
                    Distance matrix (angstroms):
                    1          2          3          4          5
     1  O    0.000000
     2  C    2.823558   0.000000
     3  C    2.393660   1.530691   0.000000
     4  C    4.304340   1.500403   2.515129   0.000000
     5  C    5.331741   2.557596   3.604792   1.335898   0.000000
     6  C    1.209421   2.563955   1.519391   3.886275   4.953813
     7  C    6.730019   3.917227   4.822191   2.472266   1.505800
     8  C    5.543838   3.135176   4.214000   2.519540   1.504422
     9  C    2.381920   3.939546   2.577147   5.092019   6.125253
    10  H    2.813729   1.089393   2.149698   2.157588   2.742259
    11  H    2.675214   1.094106   2.141091   2.133572   3.251283
    12  H    3.052689   2.174455   1.097241   2.738789   3.951262
    13  H    3.130618   2.176525   1.095744   2.789990   3.582928
    14  H    4.755544   2.188122   2.834735   1.088796   2.070215
    15  H    7.366296   4.562898   5.663714   3.196671   2.155444
    16  H    7.301875   4.569068   5.271192   3.201461   2.156052
    17  H    6.868637   4.096084   4.852857   2.599146   2.162839
    18  H    4.753054   2.747440   3.788608   2.703008   2.178775
    19  H    6.204150   3.906112   4.716412   3.240866   2.147857
    20  H    6.249800   3.876092   5.128545   3.224528   2.147815
    21  H    3.154197   4.254212   2.779918   5.196983   6.298262
    22  H    2.524809   4.708475   3.493356   5.979759   7.036549
    23  H    3.030605   4.262007   2.903827   5.312468   6.170814
                    6          7          8          9         10
     6  C    0.000000
     7  C    6.266718   0.000000
     8  C    5.324077   2.528749   0.000000
     9  C    1.514930   7.342613   6.506292   0.000000
    10  H    2.802625   4.236605   2.748276   4.190359   0.000000
    11  H    2.755250   4.498972   3.883663   4.213443   1.739833
    12  H    2.121497   4.924498   4.862902   2.825892   3.065309
    13  H    2.135624   4.732125   4.044369   2.743132   2.520047
    14  H    4.236816   2.619284   3.477533   5.318480   3.091277
    15  H    7.042523   1.094990   2.796065   8.218643   4.767002
    16  H    6.730992   1.094999   2.796378   7.668527   4.800463
    17  H    6.334344   1.090160   3.475940   7.346269   4.661426
    18  H    4.658417   3.486176   1.087778   5.866582   2.032830
    19  H    5.850271   2.775948   1.094756   6.863520   3.521104
    20  H    6.178691   2.793915   1.094795   7.446428   3.448655
    21  H    2.163453   7.362124   6.895027   1.092304   4.736415
    22  H    2.146053   8.305925   7.346635   1.087831   4.869109
    23  H    2.144006   7.378280   6.392804   1.093710   4.351420
                   11         12         13         14         15
    11  H    0.000000
    12  H    2.524489   0.000000
    13  H    3.061403   1.737957   0.000000
    14  H    2.522255   2.614534   3.201919   0.000000
    15  H    4.999432   5.817072   5.661245   3.387653   0.000000
    16  H    5.306126   5.401122   4.955094   3.392661   1.754137
    17  H    4.554187   4.710394   4.861292   2.273680   1.769525
    18  H    3.491487   4.623689   3.666692   3.779763   3.805173
    19  H    4.785722   5.354669   4.296452   4.111896   3.126154
    20  H    4.419619   5.754220   5.074400   4.099996   2.615253
    21  H    4.506798   2.597141   2.941143   5.206441   8.295221
    22  H    4.810657   3.748411   3.772801   6.220338   9.137023
    23  H    4.762366   3.317387   2.648391   5.651173   8.287895
                   16         17         18         19         20
    16  H    0.000000
    17  H    1.770240   0.000000
    18  H    3.796914   4.323185   0.000000
    19  H    2.595846   3.778781   1.765856   0.000000
    20  H    3.154846   3.791291   1.764029   1.752767   0.000000
    21  H    7.674932   7.215245   6.397737   7.230410   7.861384
    22  H    8.678672   8.318552   6.620321   7.753688   8.234791
    23  H    7.558708   7.482534   5.742178   6.587295   7.387055
                   21         22         23
    21  H    0.000000
    22  H    1.786853   0.000000
    23  H    1.756535   1.777578   0.000000
 Stoichiometry    C8H14O
 Framework group  C1[X(C8H14O)]
 Deg. of freedom    63
 Full point group                 C1      NOp   1
 RotChk:  IX=0 Diff= 6.56D-04
 Largest Abelian subgroup         C1      NOp   1
 Largest concise Abelian subgroup C1      NOp   1
                         Standard orientation:                         
 ---------------------------------------------------------------------
 Center     Atomic      Atomic             Coordinates (Angstroms)
 Number     Number       Type             X           Y           Z
 ---------------------------------------------------------------------
      1          8           0        2.765514    1.042514   -0.698301
      2          6           0        0.054673    0.257497   -0.611333
      3          6           0        1.156764   -0.551071    0.077598
      4          6           0       -1.273854   -0.437829   -0.558909
      5          6           0       -2.409168   -0.027168    0.012969
      6          6           0        2.543701    0.060239   -0.028499
      7          6           0       -3.652998   -0.873742   -0.047293
      8          6           0       -2.581697    1.274927    0.746502
      9          6           0        3.640909   -0.625294    0.759658
     10          1           0        0.010361    1.250969   -0.166558
     11          1           0        0.347255    0.413631   -1.653966
     12          1           0        1.214066   -1.562533   -0.343829
     13          1           0        0.925055   -0.701530    1.137942
     14          1           0       -1.295931   -1.404947   -1.058580
     15          1           0       -4.468872   -0.336442   -0.541925
     16          1           0       -4.009039   -1.120386    0.958402
     17          1           0       -3.483759   -1.805707   -0.586967
     18          1           0       -1.670147    1.866299    0.797631
     19          1           0       -2.926298    1.094916    1.769897
     20          1           0       -3.351697    1.886277    0.264914
     21          1           0        3.634655   -1.703803    0.586726
     22          1           0        4.608890   -0.209081    0.489189
     23          1           0        3.471370   -0.473127    1.829379
 ---------------------------------------------------------------------
 Rotational constants (GHZ):           4.0567331           0.5804147           0.5572829
 Leave Link  202 at Tue Jun  4 00:19:08 2024, MaxMem= 13421772800 cpu:               2.7 elap:               0.1
 (Enter /tmpu/scunam/7/gaussian-2016.03/g1/g16/l301.exe)
 Standard basis: def2TZVP (5D, 7F)
 Ernie: Thresh=  0.10000D-02 Tol=  0.10000D-05 Strict=F.
 There are   408 symmetry adapted cartesian basis functions of A   symmetry.
 There are   363 symmetry adapted basis functions of A   symmetry.
   363 basis functions,   571 primitive gaussians,   408 cartesian basis functions
    35 alpha electrons       35 beta electrons
       nuclear repulsion energy       428.8446628983 Hartrees.
 IExCor=  402 DFT=T Ex+Corr=B3LYP ExCW=0 ScaHFX=  0.200000
 ScaDFX=  0.800000  0.720000  1.000000  0.810000 ScalE2=  1.000000  1.000000
 IRadAn=      5 IRanWt=     -1 IRanGd=            0 ICorTp=0 IEmpDi=  4
 NAtoms=   23 NActive=   23 NUniq=   23 SFac= 1.00D+00 NAtFMM=   60 NAOKFM=F Big=F
 Integral buffers will be    131072 words long.
 Raffenetti 2 integral format.
 Two-electron integral symmetry is turned on.
 Leave Link  301 at Tue Jun  4 00:19:08 2024, MaxMem= 13421772800 cpu:               1.5 elap:               0.1
 (Enter /tmpu/scunam/7/gaussian-2016.03/g1/g16/l302.exe)
 NPDir=0 NMtPBC=     1 NCelOv=     1 NCel=       1 NClECP=     1 NCelD=      1
         NCelK=      1 NCelE2=     1 NClLst=     1 CellRange=     0.0.
 One-electron integrals computed using PRISM.
 One-electron integral symmetry used in STVInt
   1 Symmetry operations used in ECPInt.
 ECPInt:  NShTT=   12090 NPrTT=   35220 LenC2=   11307 LenP2D=   25537.
 LDataN:  DoStor=T MaxTD1= 6 Len=  172
 NBasis=   363 RedAO= T EigKep=  7.80D-05  NBF=   363
 NBsUse=   363 1.00D-06 EigRej= -1.00D+00 NBFU=   363
 Precomputing XC quadrature grid using
 IXCGrd= 4 IRadAn=           5 IRanWt=          -1 IRanGd=           0 AccXCQ= 0.00D+00.
 Generated NRdTot=       0 NPtTot=           0 NUsed=           0 NTot=          32
 NSgBfM=   405   405   405   405   405 MxSgAt=    23 MxSgA2=    23.
 Leave Link  302 at Tue Jun  4 00:19:09 2024, MaxMem= 13421772800 cpu:              12.7 elap:               0.4
 (Enter /tmpu/scunam/7/gaussian-2016.03/g1/g16/l303.exe)
 DipDrv:  MaxL=1.
 Leave Link  303 at Tue Jun  4 00:19:09 2024, MaxMem= 13421772800 cpu:               2.8 elap:               0.1
 (Enter /tmpu/scunam/7/gaussian-2016.03/g1/g16/l401.exe)
 Initial guess from the checkpoint file:  "S36.chk"
 B after Tr=    -0.000000    0.000000   -0.000000
         Rot=    1.000000    0.000359    0.000021    0.000046 Ang=   0.04 deg.
 Guess basis will be translated and rotated to current coordinates.
 JPrj=2 DoOrth=T DoCkMO=T.
 Generating alternative initial guess.
 ExpMin= 9.52D-02 ExpMax= 2.70D+04 ExpMxC= 9.22D+02 IAcc=2 IRadAn=         4 AccDes= 0.00D+00
 Harris functional with IExCor=  402 and IRadAn=       4 diagonalized for initial guess.
 HarFok:  IExCor=  402 AccDes= 0.00D+00 IRadAn=         4 IDoV= 1 UseB2=F ITyADJ=14
 ICtDFT=  3500011 ScaDFX=  1.000000  1.000000  1.000000  1.000000
 FoFCou: FMM=F IPFlag=           0 FMFlag=      100000 FMFlg1=           0
         NFxFlg=           0 DoJE=T BraDBF=F KetDBF=T FulRan=T
         wScrn=  0.000000 ICntrl=       500 IOpCl=  0 I1Cent=   200000004 NGrid=           0
         NMat0=    1 NMatS0=      1 NMatT0=    0 NMatD0=    1 NMtDS0=    0 NMtDT0=    0
 Petite list used in FoFCou.
 Harris En= -388.761685328917    
 Leave Link  401 at Tue Jun  4 00:19:10 2024, MaxMem= 13421772800 cpu:              27.8 elap:               0.9
 (Enter /tmpu/scunam/7/gaussian-2016.03/g1/g16/l502.exe)
 Integral symmetry usage will be decided dynamically.
 Closed shell SCF:
 Using DIIS extrapolation, IDIIS=  1040.
 NGot= 13421772800 LenX= 13421422965 LenY= 13421256060
 Requested convergence on RMS density matrix=1.00D-08 within 128 cycles.
 Requested convergence on MAX density matrix=1.00D-06.
 Requested convergence on             energy=1.00D-06.
 No special actions if energy rises.
 Fock matrices will be formed incrementally for  20 cycles.
 Integral accuracy reduced to 1.0D-05 until final iterations.

 Cycle   1  Pass 0  IDiag  1:
 FoFJK:  IHMeth= 1 ICntrl=       0 DoSepK=F KAlg= 0 I1Cent=           0 FoldK=F
 IRaf= 890000000 NMat=       1 IRICut=       1 DoRegI=T DoRafI=F ISym2E= 0 IDoP0=0 IntGTp=1.
 FoFCou: FMM=F IPFlag=           0 FMFlag=      100000 FMFlg1=           0
         NFxFlg=           0 DoJE=F BraDBF=F KetDBF=F FulRan=T
         wScrn=  0.000000 ICntrl=         0 IOpCl=  0 I1Cent=           0 NGrid=           0
         NMat0=    1 NMatS0=      1 NMatT0=    0 NMatD0=    1 NMtDS0=    0 NMtDT0=    0
 Symmetry not used in FoFCou.
 E= -388.651218293303    
 DIIS: error= 1.98D-04 at cycle   1 NSaved=   1.
 NSaved= 1 IEnMin= 1 EnMin= -388.651218293303     IErMin= 1 ErrMin= 1.98D-04
 ErrMax= 1.98D-04  0.00D+00 EMaxC= 1.00D-01 BMatC= 2.24D-05 BMatP= 2.24D-05
 IDIUse=3 WtCom= 9.98D-01 WtEn= 1.98D-03
 Coeff-Com:  0.100D+01
 Coeff-En:   0.100D+01
 Coeff:      0.100D+01
 Gap=     0.607 Goal=   None    Shift=    0.000
 RMSDP=1.00D-04 MaxDP=4.46D-03              OVMax= 1.59D-03

 Cycle   2  Pass 0  IDiag  1:
 RMSU=  1.00D-04    CP:  1.00D+00
 E= -388.651248034713     Delta-E=       -0.000029741410 Rises=F Damp=F
 DIIS: error= 2.00D-05 at cycle   2 NSaved=   2.
 NSaved= 2 IEnMin= 2 EnMin= -388.651248034713     IErMin= 2 ErrMin= 2.00D-05
 ErrMax= 2.00D-05  0.00D+00 EMaxC= 1.00D-01 BMatC= 1.77D-07 BMatP= 2.24D-05
 IDIUse=1 WtCom= 1.00D+00 WtEn= 0.00D+00
 Coeff-Com: -0.594D-01 0.106D+01
 Coeff:     -0.594D-01 0.106D+01
 Gap=     0.216 Goal=   None    Shift=    0.000
 RMSDP=4.67D-06 MaxDP=1.39D-04 DE=-2.97D-05 OVMax= 1.99D-04

 Initial convergence to 1.0D-05 achieved.  Increase integral accuracy.
 Cycle   3  Pass 1  IDiag  1:
 E= -388.651240809583     Delta-E=        0.000007225130 Rises=F Damp=F
 DIIS: error= 9.45D-05 at cycle   1 NSaved=   1.
 NSaved= 1 IEnMin= 1 EnMin= -388.651240809583     IErMin= 1 ErrMin= 9.45D-05
 ErrMax= 9.45D-05  0.00D+00 EMaxC= 1.00D-01 BMatC= 2.11D-06 BMatP= 2.11D-06
 IDIUse=1 WtCom= 1.00D+00 WtEn= 0.00D+00
 Coeff-Com:  0.100D+01
 Coeff:      0.100D+01
 Gap=     0.216 Goal=   None    Shift=    0.000
 RMSDP=4.67D-06 MaxDP=1.39D-04 DE= 7.23D-06 OVMax= 2.46D-04

 Cycle   4  Pass 1  IDiag  1:
 RMSU=  9.94D-05    CP:  1.00D+00
 E= -388.651241898208     Delta-E=       -0.000001088625 Rises=F Damp=F
 DIIS: error= 1.41D-05 at cycle   2 NSaved=   2.
 NSaved= 2 IEnMin= 2 EnMin= -388.651241898208     IErMin= 2 ErrMin= 1.41D-05
 ErrMax= 1.41D-05  0.00D+00 EMaxC= 1.00D-01 BMatC= 9.82D-08 BMatP= 2.11D-06
 IDIUse=1 WtCom= 1.00D+00 WtEn= 0.00D+00
 Coeff-Com:  0.597D-01 0.940D+00
 Coeff:      0.597D-01 0.940D+00
 Gap=     0.216 Goal=   None    Shift=    0.000
 RMSDP=3.27D-06 MaxDP=3.08D-04 DE=-1.09D-06 OVMax= 2.30D-04

 Cycle   5  Pass 1  IDiag  1:
 RMSU=  2.82D-06    CP:  1.00D+00  1.02D+00
 E= -388.651241688635     Delta-E=        0.000000209573 Rises=F Damp=F
 DIIS: error= 2.93D-05 at cycle   3 NSaved=   3.
 NSaved= 3 IEnMin= 2 EnMin= -388.651241898208     IErMin= 2 ErrMin= 1.41D-05
 ErrMax= 2.93D-05  0.00D+00 EMaxC= 1.00D-01 BMatC= 3.82D-07 BMatP= 9.82D-08
 IDIUse=1 WtCom= 1.00D+00 WtEn= 0.00D+00
 Coeff-Com: -0.195D-02 0.666D+00 0.336D+00
 Coeff:     -0.195D-02 0.666D+00 0.336D+00
 Gap=     0.216 Goal=   None    Shift=    0.000
 RMSDP=1.86D-06 MaxDP=2.08D-04 DE= 2.10D-07 OVMax= 1.59D-04

 Cycle   6  Pass 1  IDiag  1:
 RMSU=  5.35D-07    CP:  1.00D+00  1.02D+00  3.81D-01
 E= -388.651241973297     Delta-E=       -0.000000284662 Rises=F Damp=F
 DIIS: error= 1.73D-06 at cycle   4 NSaved=   4.
 NSaved= 4 IEnMin= 4 EnMin= -388.651241973297     IErMin= 4 ErrMin= 1.73D-06
 ErrMax= 1.73D-06  0.00D+00 EMaxC= 1.00D-01 BMatC= 1.33D-09 BMatP= 9.82D-08
 IDIUse=1 WtCom= 1.00D+00 WtEn= 0.00D+00
 Coeff-Com: -0.180D-02 0.324D+00 0.170D+00 0.507D+00
 Coeff:     -0.180D-02 0.324D+00 0.170D+00 0.507D+00
 Gap=     0.216 Goal=   None    Shift=    0.000
 RMSDP=1.26D-07 MaxDP=3.37D-06 DE=-2.85D-07 OVMax= 1.40D-05

 Cycle   7  Pass 1  IDiag  1:
 RMSU=  1.19D-07    CP:  1.00D+00  1.02D+00  3.80D-01  9.22D-01
 E= -388.651241974498     Delta-E=       -0.000000001201 Rises=F Damp=F
 DIIS: error= 6.15D-07 at cycle   5 NSaved=   5.
 NSaved= 5 IEnMin= 5 EnMin= -388.651241974498     IErMin= 5 ErrMin= 6.15D-07
 ErrMax= 6.15D-07  0.00D+00 EMaxC= 1.00D-01 BMatC= 1.45D-10 BMatP= 1.33D-09
 IDIUse=1 WtCom= 1.00D+00 WtEn= 0.00D+00
 Coeff-Com: -0.964D-03 0.155D+00 0.822D-01 0.306D+00 0.457D+00
 Coeff:     -0.964D-03 0.155D+00 0.822D-01 0.306D+00 0.457D+00
 Gap=     0.216 Goal=   None    Shift=    0.000
 RMSDP=3.17D-08 MaxDP=1.65D-06 DE=-1.20D-09 OVMax= 6.36D-06

 Cycle   8  Pass 1  IDiag  1:
 RMSU=  2.65D-08    CP:  1.00D+00  1.02D+00  3.78D-01  9.45D-01  9.49D-01
 E= -388.651241974625     Delta-E=       -0.000000000126 Rises=F Damp=F
 DIIS: error= 1.56D-07 at cycle   6 NSaved=   6.
 NSaved= 6 IEnMin= 6 EnMin= -388.651241974625     IErMin= 6 ErrMin= 1.56D-07
 ErrMax= 1.56D-07  0.00D+00 EMaxC= 1.00D-01 BMatC= 9.53D-12 BMatP= 1.45D-10
 IDIUse=1 WtCom= 1.00D+00 WtEn= 0.00D+00
 Coeff-Com: -0.303D-03 0.452D-01 0.240D-01 0.105D+00 0.248D+00 0.577D+00
 Coeff:     -0.303D-03 0.452D-01 0.240D-01 0.105D+00 0.248D+00 0.577D+00
 Gap=     0.216 Goal=   None    Shift=    0.000
 RMSDP=1.11D-08 MaxDP=3.51D-07 DE=-1.26D-10 OVMax= 1.27D-06

 Cycle   9  Pass 1  IDiag  1:
 RMSU=  7.07D-09    CP:  1.00D+00  1.02D+00  3.79D-01  9.53D-01  9.51D-01
                    CP:  8.17D-01
 E= -388.651241974625     Delta-E=       -0.000000000001 Rises=F Damp=F
 DIIS: error= 2.33D-08 at cycle   7 NSaved=   7.
 NSaved= 7 IEnMin= 7 EnMin= -388.651241974625     IErMin= 7 ErrMin= 2.33D-08
 ErrMax= 2.33D-08  0.00D+00 EMaxC= 1.00D-01 BMatC= 5.09D-13 BMatP= 9.53D-12
 IDIUse=1 WtCom= 1.00D+00 WtEn= 0.00D+00
 Coeff-Com: -0.149D-04 0.787D-03 0.481D-03 0.953D-02 0.542D-01 0.236D+00
 Coeff-Com:  0.699D+00
 Coeff:     -0.149D-04 0.787D-03 0.481D-03 0.953D-02 0.542D-01 0.236D+00
 Coeff:      0.699D+00
 Gap=     0.216 Goal=   None    Shift=    0.000
 RMSDP=4.32D-09 MaxDP=2.51D-07 DE=-5.68D-13 OVMax= 2.43D-07

 SCF Done:  E(RB3LYP) =  -388.651241975     A.U. after    9 cycles
            NFock=  9  Conv=0.43D-08     -V/T= 2.0053
 KE= 3.865948317311D+02 PE=-1.760961389450D+03 EE= 5.568706528463D+02
 Leave Link  502 at Tue Jun  4 00:19:33 2024, MaxMem= 13421772800 cpu:             733.1 elap:              23.0
 (Enter /tmpu/scunam/7/gaussian-2016.03/g1/g16/l508.exe)
 QCSCF skips out because SCF is already converged.
 Leave Link  508 at Tue Jun  4 00:19:33 2024, MaxMem= 13421772800 cpu:               0.1 elap:               0.0
 (Enter /tmpu/scunam/7/gaussian-2016.03/g1/g16/l701.exe)
 ... and contract with generalized density number  0.
 Compute integral first derivatives.
   1 Symmetry operations used in ECPInt.
 ECPInt:  NShTT=   12090 NPrTT=   35220 LenC2=   11307 LenP2D=   25537.
 LDataN:  DoStor=T MaxTD1= 7 Len=  274
 Leave Link  701 at Tue Jun  4 00:19:33 2024, MaxMem= 13421772800 cpu:               8.6 elap:               0.3
 (Enter /tmpu/scunam/7/gaussian-2016.03/g1/g16/l702.exe)
 L702 exits ... SP integral derivatives will be done elsewhere.
 Leave Link  702 at Tue Jun  4 00:19:33 2024, MaxMem= 13421772800 cpu:               0.6 elap:               0.0
 (Enter /tmpu/scunam/7/gaussian-2016.03/g1/g16/l703.exe)
 Integral derivatives from FoFJK, PRISM(SPDF).
 Compute integral first derivatives, UseDBF=F ICtDFT=           0.
 Calling FoFJK, ICntrl=      2127 FMM=F ISym2X=0 I1Cent= 0 IOpClX= 0 NMat=1 NMatS=1 NMatT=0.
 FoFJK:  IHMeth= 1 ICntrl=    2127 DoSepK=F KAlg= 0 I1Cent=           0 FoldK=F
 IRaf=         0 NMat=       1 IRICut=       1 DoRegI=T DoRafI=F ISym2E= 0 IDoP0=0 IntGTp=1.
 FoFCou: FMM=F IPFlag=           0 FMFlag=      100000 FMFlg1=         800
         NFxFlg=           0 DoJE=F BraDBF=F KetDBF=F FulRan=T
         wScrn=  0.000000 ICntrl=      2127 IOpCl=  0 I1Cent=           0 NGrid=           0
         NMat0=    1 NMatS0=      1 NMatT0=    0 NMatD0=    1 NMtDS0=    0 NMtDT0=    0
 Symmetry not used in FoFCou.
 Leave Link  703 at Tue Jun  4 00:19:44 2024, MaxMem= 13421772800 cpu:             334.3 elap:              10.5
 (Enter /tmpu/scunam/7/gaussian-2016.03/g1/g16/l716.exe)
 Dipole        =-3.04164466D-01-8.07502567D-01 6.58371640D-01
 ***** Axes restored to original set *****
 -------------------------------------------------------------------
 Center     Atomic                   Forces (Hartrees/Bohr)
 Number     Number              X              Y              Z
 -------------------------------------------------------------------
      1        8           0.000000439    0.000003071   -0.000002839
      2        6           0.000003024    0.000001683   -0.000002267
      3        6           0.000001480   -0.000012521    0.000002996
      4        6          -0.000004120   -0.000001594    0.000001461
      5        6          -0.000000124   -0.000001932    0.000000995
      6        6          -0.000001020    0.000002567   -0.000003301
      7        6          -0.000001050    0.000002558    0.000001273
      8        6           0.000000277    0.000001821    0.000000361
      9        6          -0.000001631   -0.000006895    0.000005607
     10        1          -0.000000494    0.000000194    0.000000874
     11        1          -0.000000766    0.000000625   -0.000000386
     12        1          -0.000002191    0.000003786   -0.000000328
     13        1           0.000001093    0.000002646   -0.000001626
     14        1          -0.000000016    0.000000344   -0.000000440
     15        1           0.000000690   -0.000000056    0.000000222
     16        1          -0.000000054   -0.000000335   -0.000000018
     17        1           0.000000324   -0.000000120    0.000000585
     18        1           0.000000178    0.000000585    0.000000131
     19        1           0.000000071    0.000000471    0.000000891
     20        1           0.000000122    0.000001134    0.000000404
     21        1           0.000000921    0.000001739   -0.000001015
     22        1           0.000000966    0.000000058   -0.000000987
     23        1           0.000001881    0.000000171   -0.000002593
 -------------------------------------------------------------------
 Cartesian Forces:  Max     0.000012521 RMS     0.000002395
 Leave Link  716 at Tue Jun  4 00:19:44 2024, MaxMem= 13421772800 cpu:               0.7 elap:               0.0
 (Enter /tmpu/scunam/7/gaussian-2016.03/g1/g16/l103.exe)

 GradGradGradGradGradGradGradGradGradGradGradGradGradGradGradGradGradGrad
 Berny optimization.
 Using GEDIIS/GDIIS optimizer.
 FormGI is forming the generalized inverse of G from B-inverse, IUseBI=4.
 Internal  Forces:  Max     0.000003964 RMS     0.000001170
 Search for a local minimum.
 Step number  21 out of a maximum of  138
 All quantities printed in internal units (Hartrees-Bohrs-Radians)
 RMS Force = .11702D-05 SwitMx=.10000D-02 MixMth= 2
 Mixed Optimization -- En-DIIS/RFO-DIIS
 Swapping is turned off.
 Update second derivatives using D2CorX and points    5    6    7    8    9
                                                     10   11   12   13   14
                                                     15   16   17   18   19
                                                     20   21
 DE= -8.90D-08 DEPred=-1.15D-07 R= 7.71D-01
 Trust test= 7.71D-01 RLast= 2.37D-02 DXMaxT set to 5.52D-01
 ITU=  0  0  1 -1  1  1  0  0  0  0  0  0  1  1  1  1  1 -1  1  1
 ITU=  0
     Eigenvalues ---    0.00025   0.00139   0.00148   0.00266   0.00411
     Eigenvalues ---    0.00633   0.01381   0.01724   0.02906   0.02976
     Eigenvalues ---    0.03901   0.04198   0.04954   0.05533   0.06888
     Eigenvalues ---    0.06928   0.07040   0.07062   0.07286   0.07394
     Eigenvalues ---    0.09306   0.09924   0.12801   0.13195   0.15733
     Eigenvalues ---    0.15945   0.16003   0.16007   0.16041   0.16068
     Eigenvalues ---    0.16142   0.16219   0.16352   0.16451   0.21510
     Eigenvalues ---    0.22200   0.22902   0.24914   0.25344   0.25766
     Eigenvalues ---    0.29591   0.29870   0.30710   0.31101   0.31904
     Eigenvalues ---    0.32996   0.33809   0.33905   0.34036   0.34130
     Eigenvalues ---    0.34226   0.34244   0.34271   0.34279   0.34317
     Eigenvalues ---    0.34427   0.34504   0.34630   0.34792   0.34892
     Eigenvalues ---    0.37442   0.59998   0.91098
 En-DIIS/RFO-DIIS/Sim-DIIS IScMMF=       -3 using points:    21   20   19   18   17   16   15   14   13   12
 RFO step:  Lambda=-1.37609299D-08.
 NNeg= 0 NGDIIS=10 SimSw=  2.50D-01 Rises=F DC= -8.90D-08 SmlDif=  1.00D-05
 NRisDI= 0 DoIntr=F SqrtH=F CThrHd= 10.0 CDAdj=  3.0
 RMS Error=  0.5680050606D-03 NUsed=10 OKEnD=F EnDIS=F
 InvSVX:  RCond= 4.59D-10 Info=           0 Equed=N FErr=  9.65D-09 BErr=  6.20D-17
 DIIS inversion failure, remove point  10.
 InvSVX:  RCond= 5.86D-10 Info=           0 Equed=N FErr=  7.46D-09 BErr=  8.80D-17
 DIIS inversion failure, remove point   9.
 InvSVX:  RCond= 8.69D-10 Info=           0 Equed=N FErr=  4.26D-09 BErr=  9.53D-17
 DIIS inversion failure, remove point   8.
 InvSVX:  RCond= 3.57D-09 Info=           0 Equed=N FErr=  2.57D-10 BErr=  4.65D-17
 DIIS inversion failure, remove point   7.
 InvSVX:  RCond= 2.61D-08 Info=           0 Equed=N FErr=  3.23D-11 BErr=  6.75D-17
 DIIS inversion failure, remove point   6.
 InvSVX:  RCond= 3.60D-08 Info=           0 Equed=N FErr=  4.42D-12 BErr=  5.16D-17
 DIIS inversion failure, remove point   5.
 InvSVX:  RCond= 1.58D-07 Info=           0 Equed=N FErr=  8.53D-13 BErr=  3.55D-17
 RFO-DIIS uses    4 points instead of   10
 DidBck=F Rises=F RFO-DIIS coefs:    1.92717   -0.90106    0.00661   -0.03271    0.00000
                  RFO-DIIS coefs:    0.00000    0.00000    0.00000    0.00000    0.00000
 Iteration  1 RMS(Cart)=  0.00212687 RMS(Int)=  0.00000531
 Iteration  2 RMS(Cart)=  0.00000552 RMS(Int)=  0.00000024
 Iteration  3 RMS(Cart)=  0.00000000 RMS(Int)=  0.00000024
 ITry= 1 IFail=0 DXMaxC= 1.17D-02 DCOld= 1.00D+10 DXMaxT= 5.52D-01 DXLimC= 3.00D+00 Rises=F
 Variable       Old X    -DE/DX   Delta X   Delta X   Delta X     New X
                                 (Linear)    (Quad)   (Total)
    R1        2.28547   0.00000   0.00001  -0.00001   0.00000   2.28548
    R2        2.89259  -0.00000  -0.00001   0.00001   0.00000   2.89259
    R3        2.83535   0.00000  -0.00004   0.00004   0.00000   2.83535
    R4        2.05865  -0.00000   0.00002  -0.00000   0.00001   2.05867
    R5        2.06756  -0.00000   0.00000  -0.00001  -0.00001   2.06755
    R6        2.87123   0.00000  -0.00006   0.00004  -0.00002   2.87121
    R7        2.07349  -0.00000   0.00001  -0.00000   0.00001   2.07350
    R8        2.07066   0.00000   0.00000  -0.00000   0.00000   2.07066
    R9        2.52448  -0.00000   0.00000  -0.00000  -0.00000   2.52448
   R10        2.05753  -0.00000   0.00001  -0.00001   0.00000   2.05753
   R11        2.84555   0.00000  -0.00002   0.00001  -0.00000   2.84555
   R12        2.84295   0.00000  -0.00001   0.00002   0.00000   2.84295
   R13        2.86280   0.00000   0.00001  -0.00001   0.00001   2.86281
   R14        2.06923  -0.00000   0.00001  -0.00001   0.00000   2.06923
   R15        2.06925  -0.00000  -0.00000  -0.00000  -0.00000   2.06924
   R16        2.06010   0.00000  -0.00000   0.00000   0.00000   2.06011
   R17        2.05560   0.00000   0.00000   0.00000   0.00000   2.05561
   R18        2.06879  -0.00000  -0.00000   0.00000  -0.00000   2.06879
   R19        2.06886  -0.00000   0.00001  -0.00001  -0.00000   2.06886
   R20        2.06415  -0.00000  -0.00004  -0.00001  -0.00005   2.06411
   R21        2.05570   0.00000  -0.00000   0.00001   0.00001   2.05571
   R22        2.06681   0.00000   0.00004  -0.00000   0.00004   2.06685
    A1        1.95735   0.00000  -0.00001   0.00002   0.00002   1.95736
    A2        1.90419  -0.00000   0.00000  -0.00000   0.00000   1.90420
    A3        1.88783  -0.00000  -0.00002   0.00000  -0.00002   1.88781
    A4        1.95233  -0.00000   0.00002  -0.00004  -0.00002   1.95231
    A5        1.91369  -0.00000   0.00002  -0.00000   0.00001   1.91370
    A6        1.84399   0.00000  -0.00001   0.00001  -0.00000   1.84399
    A7        1.99684   0.00000   0.00001   0.00002   0.00003   1.99687
    A8        1.93016  -0.00000  -0.00004   0.00001  -0.00004   1.93012
    A9        1.93459   0.00000   0.00008  -0.00002   0.00006   1.93465
   A10        1.87171   0.00000  -0.00015   0.00003  -0.00012   1.87159
   A11        1.89215  -0.00000   0.00009  -0.00002   0.00007   1.89222
   A12        1.82982  -0.00000   0.00001  -0.00002  -0.00001   1.82981
   A13        2.24592  -0.00000   0.00004  -0.00004   0.00001   2.24593
   A14        1.99715   0.00000  -0.00003   0.00002  -0.00001   1.99714
   A15        2.04011   0.00000  -0.00001   0.00002   0.00001   2.04012
   A16        2.10836   0.00000  -0.00001   0.00001   0.00001   2.10837
   A17        2.18005  -0.00000  -0.00001  -0.00001  -0.00002   2.18002
   A18        1.99477   0.00000   0.00002  -0.00000   0.00001   1.99478
   A19        2.13278   0.00000   0.00002   0.00002   0.00004   2.13282
   A20        2.12096  -0.00000   0.00001  -0.00003  -0.00003   2.12093
   A21        2.02944  -0.00000  -0.00003   0.00002  -0.00001   2.02942
   A22        1.93658  -0.00000   0.00000  -0.00002  -0.00001   1.93656
   A23        1.93742   0.00000   0.00001   0.00000   0.00002   1.93743
   A24        1.95218  -0.00000  -0.00000   0.00000   0.00000   1.95218
   A25        1.85786   0.00000  -0.00000   0.00001   0.00000   1.85786
   A26        1.88760   0.00000  -0.00002   0.00001  -0.00001   1.88759
   A27        1.88871   0.00000   0.00000   0.00000   0.00001   1.88872
   A28        1.97943  -0.00000  -0.00002   0.00001  -0.00001   1.97942
   A29        1.92792  -0.00000  -0.00000   0.00001   0.00000   1.92793
   A30        1.92782   0.00000   0.00001  -0.00001   0.00001   1.92783
   A31        1.88518   0.00000   0.00000  -0.00000  -0.00000   1.88518
   A32        1.88229  -0.00000   0.00000  -0.00001  -0.00001   1.88228
   A33        1.85631  -0.00000   0.00001  -0.00000   0.00000   1.85631
   A34        1.93938   0.00000   0.00038   0.00002   0.00040   1.93977
   A35        1.91982  -0.00000   0.00002   0.00001   0.00002   1.91984
   A36        1.91094  -0.00000  -0.00044   0.00001  -0.00043   1.91051
   A37        1.92145  -0.00000   0.00023  -0.00001   0.00022   1.92166
   A38        1.86641  -0.00000   0.00006   0.00001   0.00006   1.86648
   A39        1.90486  -0.00000  -0.00026  -0.00003  -0.00028   1.90457
    D1        3.07153   0.00000  -0.00031  -0.00005  -0.00037   3.07116
    D2        0.95599  -0.00000  -0.00009  -0.00011  -0.00020   0.95579
    D3       -1.06574  -0.00000  -0.00012  -0.00008  -0.00020  -1.06594
    D4       -1.03874   0.00000  -0.00029  -0.00008  -0.00037  -1.03911
    D5        3.12891  -0.00000  -0.00007  -0.00014  -0.00020   3.12871
    D6        1.10718  -0.00000  -0.00009  -0.00011  -0.00021   1.10697
    D7        0.95905   0.00000  -0.00031  -0.00007  -0.00038   0.95867
    D8       -1.15649  -0.00000  -0.00009  -0.00012  -0.00021  -1.15670
    D9        3.10497  -0.00000  -0.00012  -0.00010  -0.00021   3.10475
   D10        2.06976  -0.00000   0.00009  -0.00019  -0.00009   2.06967
   D11       -1.07125  -0.00000   0.00008  -0.00015  -0.00007  -1.07132
   D12       -0.07623  -0.00000   0.00008  -0.00018  -0.00010  -0.07633
   D13        3.06595  -0.00000   0.00006  -0.00014  -0.00008   3.06587
   D14       -2.11592   0.00000   0.00007  -0.00017  -0.00010  -2.11602
   D15        1.02626   0.00000   0.00006  -0.00013  -0.00007   1.02618
   D16       -0.10324   0.00000  -0.00176   0.00015  -0.00162  -0.10485
   D17        3.03303   0.00000  -0.00196   0.00014  -0.00182   3.03120
   D18        2.04420   0.00000  -0.00192   0.00019  -0.00174   2.04246
   D19       -1.10272   0.00000  -0.00212   0.00018  -0.00194  -1.10466
   D20       -2.27193   0.00000  -0.00195   0.00017  -0.00178  -2.27371
   D21        0.86433   0.00000  -0.00215   0.00016  -0.00198   0.86235
   D22        3.13714  -0.00000  -0.00009   0.00008  -0.00002   3.13712
   D23        0.00251  -0.00000   0.00002  -0.00005  -0.00003   0.00248
   D24       -0.00505  -0.00000  -0.00008   0.00004  -0.00004  -0.00509
   D25       -3.13968  -0.00000   0.00004  -0.00009  -0.00005  -3.13973
   D26       -2.10374   0.00000   0.00038  -0.00012   0.00026  -2.10348
   D27        2.11726   0.00000   0.00038  -0.00012   0.00026   2.11752
   D28        0.00576   0.00000   0.00036  -0.00012   0.00024   0.00600
   D29        1.03159   0.00000   0.00028  -0.00000   0.00027   1.03186
   D30       -1.03060   0.00000   0.00027   0.00000   0.00027  -1.03032
   D31        3.14109   0.00000   0.00026  -0.00000   0.00025   3.14134
   D32       -0.02554   0.00000  -0.00030   0.00019  -0.00011  -0.02565
   D33       -2.14463   0.00000  -0.00029   0.00018  -0.00011  -2.14474
   D34        2.08973   0.00000  -0.00030   0.00018  -0.00012   2.08961
   D35        3.12262  -0.00000  -0.00019   0.00007  -0.00013   3.12249
   D36        1.00353  -0.00000  -0.00018   0.00006  -0.00012   1.00340
   D37       -1.04529  -0.00000  -0.00019   0.00006  -0.00013  -1.04543
   D38       -2.29514  -0.00000  -0.00506  -0.00008  -0.00514  -2.30029
   D39       -0.16289   0.00000  -0.00451  -0.00008  -0.00459  -0.16747
   D40        1.93025  -0.00000  -0.00509  -0.00010  -0.00519   1.92506
   D41        0.85174  -0.00000  -0.00487  -0.00007  -0.00494   0.84680
   D42        2.98400   0.00000  -0.00431  -0.00007  -0.00438   2.97961
   D43       -1.20605  -0.00000  -0.00489  -0.00009  -0.00499  -1.21104
         Item               Value     Threshold  Converged?
 Maximum Force            0.000004     0.000450     YES
 RMS     Force            0.000001     0.000300     YES
 Maximum Displacement     0.011717     0.001800     NO 
 RMS     Displacement     0.002127     0.001200     NO 
 Predicted change in Energy=-1.083466D-10
 Optimization completed on the basis of negligible forces.
    -- Stationary point found.
                           ----------------------------
                           !   Optimized Parameters   !
                           ! (Angstroms and Degrees)  !
 --------------------------                            --------------------------
 ! Name  Definition              Value          Derivative Info.                !
 --------------------------------------------------------------------------------
 ! R1    R(1,6)                  1.2094         -DE/DX =    0.0                 !
 ! R2    R(2,3)                  1.5307         -DE/DX =    0.0                 !
 ! R3    R(2,4)                  1.5004         -DE/DX =    0.0                 !
 ! R4    R(2,10)                 1.0894         -DE/DX =    0.0                 !
 ! R5    R(2,11)                 1.0941         -DE/DX =    0.0                 !
 ! R6    R(3,6)                  1.5194         -DE/DX =    0.0                 !
 ! R7    R(3,12)                 1.0972         -DE/DX =    0.0                 !
 ! R8    R(3,13)                 1.0957         -DE/DX =    0.0                 !
 ! R9    R(4,5)                  1.3359         -DE/DX =    0.0                 !
 ! R10   R(4,14)                 1.0888         -DE/DX =    0.0                 !
 ! R11   R(5,7)                  1.5058         -DE/DX =    0.0                 !
 ! R12   R(5,8)                  1.5044         -DE/DX =    0.0                 !
 ! R13   R(6,9)                  1.5149         -DE/DX =    0.0                 !
 ! R14   R(7,15)                 1.095          -DE/DX =    0.0                 !
 ! R15   R(7,16)                 1.095          -DE/DX =    0.0                 !
 ! R16   R(7,17)                 1.0902         -DE/DX =    0.0                 !
 ! R17   R(8,18)                 1.0878         -DE/DX =    0.0                 !
 ! R18   R(8,19)                 1.0948         -DE/DX =    0.0                 !
 ! R19   R(8,20)                 1.0948         -DE/DX =    0.0                 !
 ! R20   R(9,21)                 1.0923         -DE/DX =    0.0                 !
 ! R21   R(9,22)                 1.0878         -DE/DX =    0.0                 !
 ! R22   R(9,23)                 1.0937         -DE/DX =    0.0                 !
 ! A1    A(3,2,4)              112.1476         -DE/DX =    0.0                 !
 ! A2    A(3,2,10)             109.1023         -DE/DX =    0.0                 !
 ! A3    A(3,2,11)             108.1646         -DE/DX =    0.0                 !
 ! A4    A(4,2,10)             111.86           -DE/DX =    0.0                 !
 ! A5    A(4,2,11)             109.6463         -DE/DX =    0.0                 !
 ! A6    A(10,2,11)            105.6528         -DE/DX =    0.0                 !
 ! A7    A(2,3,6)              114.4105         -DE/DX =    0.0                 !
 ! A8    A(2,3,12)             110.5898         -DE/DX =    0.0                 !
 ! A9    A(2,3,13)             110.8436         -DE/DX =    0.0                 !
 ! A10   A(6,3,12)             107.2412         -DE/DX =    0.0                 !
 ! A11   A(6,3,13)             108.412          -DE/DX =    0.0                 !
 ! A12   A(12,3,13)            104.8409         -DE/DX =    0.0                 !
 ! A13   A(2,4,5)              128.6818         -DE/DX =    0.0                 !
 ! A14   A(2,4,14)             114.4283         -DE/DX =    0.0                 !
 ! A15   A(5,4,14)             116.8898         -DE/DX =    0.0                 !
 ! A16   A(4,5,7)              120.7999         -DE/DX =    0.0                 !
 ! A17   A(4,5,8)              124.9074         -DE/DX =    0.0                 !
 ! A18   A(7,5,8)              114.2916         -DE/DX =    0.0                 !
 ! A19   A(1,6,3)              122.1991         -DE/DX =    0.0                 !
 ! A20   A(1,6,9)              121.522          -DE/DX =    0.0                 !
 ! A21   A(3,6,9)              116.2782         -DE/DX =    0.0                 !
 ! A22   A(5,7,15)             110.9576         -DE/DX =    0.0                 !
 ! A23   A(5,7,16)             111.0058         -DE/DX =    0.0                 !
 ! A24   A(5,7,17)             111.8516         -DE/DX =    0.0                 !
 ! A25   A(15,7,16)            106.4476         -DE/DX =    0.0                 !
 ! A26   A(15,7,17)            108.1517         -DE/DX =    0.0                 !
 ! A27   A(16,7,17)            108.2151         -DE/DX =    0.0                 !
 ! A28   A(5,8,18)             113.4128         -DE/DX =    0.0                 !
 ! A29   A(5,8,19)             110.4619         -DE/DX =    0.0                 !
 ! A30   A(5,8,20)             110.4562         -DE/DX =    0.0                 !
 ! A31   A(18,8,19)            108.0129         -DE/DX =    0.0                 !
 ! A32   A(18,8,20)            107.847          -DE/DX =    0.0                 !
 ! A33   A(19,8,20)            106.3585         -DE/DX =    0.0                 !
 ! A34   A(6,9,21)             111.118          -DE/DX =    0.0                 !
 ! A35   A(6,9,22)             109.9975         -DE/DX =    0.0                 !
 ! A36   A(6,9,23)             109.4887         -DE/DX =    0.0                 !
 ! A37   A(21,9,22)            110.0907         -DE/DX =    0.0                 !
 ! A38   A(21,9,23)            106.9376         -DE/DX =    0.0                 !
 ! A39   A(22,9,23)            109.1402         -DE/DX =    0.0                 !
 ! D1    D(4,2,3,6)            175.9856         -DE/DX =    0.0                 !
 ! D2    D(4,2,3,12)            54.7742         -DE/DX =    0.0                 !
 ! D3    D(4,2,3,13)           -61.0624         -DE/DX =    0.0                 !
 ! D4    D(10,2,3,6)           -59.5155         -DE/DX =    0.0                 !
 ! D5    D(10,2,3,12)          179.2731         -DE/DX =    0.0                 !
 ! D6    D(10,2,3,13)           63.4365         -DE/DX =    0.0                 !
 ! D7    D(11,2,3,6)            54.9494         -DE/DX =    0.0                 !
 ! D8    D(11,2,3,12)          -66.262          -DE/DX =    0.0                 !
 ! D9    D(11,2,3,13)          177.9014         -DE/DX =    0.0                 !
 ! D10   D(3,2,4,5)            118.5884         -DE/DX =    0.0                 !
 ! D11   D(3,2,4,14)           -61.3782         -DE/DX =    0.0                 !
 ! D12   D(10,2,4,5)            -4.3675         -DE/DX =    0.0                 !
 ! D13   D(10,2,4,14)          175.666          -DE/DX =    0.0                 !
 ! D14   D(11,2,4,5)          -121.2333         -DE/DX =    0.0                 !
 ! D15   D(11,2,4,14)           58.8002         -DE/DX =    0.0                 !
 ! D16   D(2,3,6,1)             -5.9151         -DE/DX =    0.0                 !
 ! D17   D(2,3,6,9)            173.7796         -DE/DX =    0.0                 !
 ! D18   D(12,3,6,1)           117.1242         -DE/DX =    0.0                 !
 ! D19   D(12,3,6,9)           -63.1812         -DE/DX =    0.0                 !
 ! D20   D(13,3,6,1)          -130.1722         -DE/DX =    0.0                 !
 ! D21   D(13,3,6,9)            49.5225         -DE/DX =    0.0                 !
 ! D22   D(2,4,5,7)            179.7446         -DE/DX =    0.0                 !
 ! D23   D(2,4,5,8)              0.1437         -DE/DX =    0.0                 !
 ! D24   D(14,4,5,7)            -0.2896         -DE/DX =    0.0                 !
 ! D25   D(14,4,5,8)          -179.8905         -DE/DX =    0.0                 !
 ! D26   D(4,5,7,15)          -120.5352         -DE/DX =    0.0                 !
 ! D27   D(4,5,7,16)           121.3103         -DE/DX =    0.0                 !
 ! D28   D(4,5,7,17)             0.3302         -DE/DX =    0.0                 !
 ! D29   D(8,5,7,15)            59.1057         -DE/DX =    0.0                 !
 ! D30   D(8,5,7,16)           -59.0488         -DE/DX =    0.0                 !
 ! D31   D(8,5,7,17)           179.9712         -DE/DX =    0.0                 !
 ! D32   D(4,5,8,18)            -1.4631         -DE/DX =    0.0                 !
 ! D33   D(4,5,8,19)          -122.8782         -DE/DX =    0.0                 !
 ! D34   D(4,5,8,20)           119.7329         -DE/DX =    0.0                 !
 ! D35   D(7,5,8,18)           178.9129         -DE/DX =    0.0                 !
 ! D36   D(7,5,8,19)            57.4979         -DE/DX =    0.0                 !
 ! D37   D(7,5,8,20)           -59.891          -DE/DX =    0.0                 !
 ! D38   D(1,6,9,21)          -131.502          -DE/DX =    0.0                 !
 ! D39   D(1,6,9,22)            -9.3328         -DE/DX =    0.0                 !
 ! D40   D(1,6,9,23)           110.5953         -DE/DX =    0.0                 !
 ! D41   D(3,6,9,21)            48.8011         -DE/DX =    0.0                 !
 ! D42   D(3,6,9,22)           170.9703         -DE/DX =    0.0                 !
 ! D43   D(3,6,9,23)           -69.1016         -DE/DX =    0.0                 !
 --------------------------------------------------------------------------------
 Lowest energy point so far.  Saving SCF results.
 Largest change from initial coordinates is atom   11       1.754 Angstoms.
 GradGradGradGradGradGradGradGradGradGradGradGradGradGradGradGradGradGrad

 Leave Link  103 at Tue Jun  4 00:19:44 2024, MaxMem= 13421772800 cpu:               1.5 elap:               0.1
 (Enter /tmpu/scunam/7/gaussian-2016.03/g1/g16/l202.exe)
                          Input orientation:                          
 ---------------------------------------------------------------------
 Center     Atomic      Atomic             Coordinates (Angstroms)
 Number     Number       Type             X           Y           Z
 ---------------------------------------------------------------------
      1          8           0        2.788335   -0.465394   -1.027267
      2          6           0        0.049085   -0.492257   -0.342968
      3          6           0        1.118669    0.048762    0.609030
      4          6           0       -1.305396   -0.546549    0.300183
      5          6           0       -2.424269    0.091364   -0.054519
      6          6           0        2.528291    0.036024    0.042152
      7          6           0       -3.699912   -0.099321    0.722532
      8          6           0       -2.546654    1.028953   -1.224662
      9          6           0        3.597705    0.695081    0.888916
     10          1           0        0.043030    0.109251   -1.251223
     11          1           0        0.348059   -1.496999   -0.656299
     12          1           0        1.136995   -0.532731    1.539336
     13          1           0        0.880731    1.071549    0.921995
     14          1           0       -1.364629   -1.197519    1.170933
     15          1           0       -4.494102   -0.494683    0.080696
     16          1           0       -4.065782    0.854547    1.116611
     17          1           0       -3.566590   -0.785115    1.559408
     18          1           0       -1.612918    1.170820   -1.764358
     19          1           0       -2.898522    2.011112   -0.892935
     20          1           0       -3.292144    0.658303   -1.935605
     21          1           0        3.549793    0.348137    1.923547
     22          1           0        4.581223    0.490712    0.471422
     23          1           0        3.433603    1.776251    0.907474
 ---------------------------------------------------------------------
                    Distance matrix (angstroms):
                    1          2          3          4          5
     1  O    0.000000
     2  C    2.823558   0.000000
     3  C    2.393660   1.530691   0.000000
     4  C    4.304340   1.500403   2.515129   0.000000
     5  C    5.331741   2.557596   3.604792   1.335898   0.000000
     6  C    1.209421   2.563955   1.519391   3.886275   4.953813
     7  C    6.730019   3.917227   4.822191   2.472266   1.505800
     8  C    5.543838   3.135176   4.214000   2.519540   1.504422
     9  C    2.381920   3.939546   2.577147   5.092019   6.125253
    10  H    2.813729   1.089393   2.149698   2.157588   2.742259
    11  H    2.675214   1.094106   2.141091   2.133572   3.251283
    12  H    3.052689   2.174455   1.097241   2.738789   3.951262
    13  H    3.130618   2.176525   1.095744   2.789990   3.582928
    14  H    4.755544   2.188122   2.834735   1.088796   2.070215
    15  H    7.366296   4.562898   5.663714   3.196671   2.155444
    16  H    7.301875   4.569068   5.271192   3.201461   2.156052
    17  H    6.868637   4.096084   4.852857   2.599146   2.162839
    18  H    4.753054   2.747440   3.788608   2.703008   2.178775
    19  H    6.204150   3.906112   4.716412   3.240866   2.147857
    20  H    6.249800   3.876092   5.128545   3.224528   2.147815
    21  H    3.154197   4.254212   2.779918   5.196983   6.298262
    22  H    2.524809   4.708475   3.493356   5.979759   7.036549
    23  H    3.030605   4.262007   2.903827   5.312468   6.170814
                    6          7          8          9         10
     6  C    0.000000
     7  C    6.266718   0.000000
     8  C    5.324077   2.528749   0.000000
     9  C    1.514930   7.342613   6.506292   0.000000
    10  H    2.802625   4.236605   2.748276   4.190359   0.000000
    11  H    2.755250   4.498972   3.883663   4.213443   1.739833
    12  H    2.121497   4.924498   4.862902   2.825892   3.065309
    13  H    2.135624   4.732125   4.044369   2.743132   2.520047
    14  H    4.236816   2.619284   3.477533   5.318480   3.091277
    15  H    7.042523   1.094990   2.796065   8.218643   4.767002
    16  H    6.730992   1.094999   2.796378   7.668527   4.800463
    17  H    6.334344   1.090160   3.475940   7.346269   4.661426
    18  H    4.658417   3.486176   1.087778   5.866582   2.032830
    19  H    5.850271   2.775948   1.094756   6.863520   3.521104
    20  H    6.178691   2.793915   1.094795   7.446428   3.448655
    21  H    2.163453   7.362124   6.895027   1.092304   4.736415
    22  H    2.146053   8.305925   7.346635   1.087831   4.869109
    23  H    2.144006   7.378280   6.392804   1.093710   4.351420
                   11         12         13         14         15
    11  H    0.000000
    12  H    2.524489   0.000000
    13  H    3.061403   1.737957   0.000000
    14  H    2.522255   2.614534   3.201919   0.000000
    15  H    4.999432   5.817072   5.661245   3.387653   0.000000
    16  H    5.306126   5.401122   4.955094   3.392661   1.754137
    17  H    4.554187   4.710394   4.861292   2.273680   1.769525
    18  H    3.491487   4.623689   3.666692   3.779763   3.805173
    19  H    4.785722   5.354669   4.296452   4.111896   3.126154
    20  H    4.419619   5.754220   5.074400   4.099996   2.615253
    21  H    4.506798   2.597141   2.941143   5.206441   8.295221
    22  H    4.810657   3.748411   3.772801   6.220338   9.137023
    23  H    4.762366   3.317387   2.648391   5.651173   8.287895
                   16         17         18         19         20
    16  H    0.000000
    17  H    1.770240   0.000000
    18  H    3.796914   4.323185   0.000000
    19  H    2.595846   3.778781   1.765856   0.000000
    20  H    3.154846   3.791291   1.764029   1.752767   0.000000
    21  H    7.674932   7.215245   6.397737   7.230410   7.861384
    22  H    8.678672   8.318552   6.620321   7.753688   8.234791
    23  H    7.558708   7.482534   5.742178   6.587295   7.387055
                   21         22         23
    21  H    0.000000
    22  H    1.786853   0.000000
    23  H    1.756535   1.777578   0.000000
 Stoichiometry    C8H14O
 Framework group  C1[X(C8H14O)]
 Deg. of freedom    63
 Full point group                 C1      NOp   1
 RotChk:  IX=0 Diff= 5.03D-15
 Largest Abelian subgroup         C1      NOp   1
 Largest concise Abelian subgroup C1      NOp   1
                         Standard orientation:                         
 ---------------------------------------------------------------------
 Center     Atomic      Atomic             Coordinates (Angstroms)
 Number     Number       Type             X           Y           Z
 ---------------------------------------------------------------------
      1          8           0        2.765514    1.042514   -0.698301
      2          6           0        0.054673    0.257497   -0.611333
      3          6           0        1.156764   -0.551071    0.077598
      4          6           0       -1.273854   -0.437829   -0.558909
      5          6           0       -2.409168   -0.027168    0.012969
      6          6           0        2.543701    0.060239   -0.028499
      7          6           0       -3.652998   -0.873742   -0.047293
      8          6           0       -2.581697    1.274927    0.746502
      9          6           0        3.640909   -0.625294    0.759658
     10          1           0        0.010361    1.250969   -0.166558
     11          1           0        0.347255    0.413631   -1.653966
     12          1           0        1.214066   -1.562533   -0.343829
     13          1           0        0.925055   -0.701530    1.137942
     14          1           0       -1.295931   -1.404947   -1.058580
     15          1           0       -4.468872   -0.336442   -0.541925
     16          1           0       -4.009039   -1.120386    0.958402
     17          1           0       -3.483759   -1.805707   -0.586967
     18          1           0       -1.670147    1.866299    0.797631
     19          1           0       -2.926298    1.094916    1.769897
     20          1           0       -3.351697    1.886277    0.264914
     21          1           0        3.634655   -1.703803    0.586726
     22          1           0        4.608890   -0.209081    0.489189
     23          1           0        3.471370   -0.473127    1.829379
 ---------------------------------------------------------------------
 Rotational constants (GHZ):           4.0567331           0.5804147           0.5572829
 Leave Link  202 at Tue Jun  4 00:19:44 2024, MaxMem= 13421772800 cpu:               2.7 elap:               0.1
 (Enter /tmpu/scunam/7/gaussian-2016.03/g1/g16/l601.exe)
 Copying SCF densities to generalized density rwf, IOpCl= 0 IROHF=0.

 **********************************************************************

            Population analysis using the SCF density.

 **********************************************************************

 Orbital symmetries:
       Occupied  (A) (A) (A) (A) (A) (A) (A) (A) (A) (A) (A) (A)
                 (A) (A) (A) (A) (A) (A) (A) (A) (A) (A) (A) (A)
                 (A) (A) (A) (A) (A) (A) (A) (A) (A) (A) (A)
       Virtual   (A) (A) (A) (A) (A) (A) (A) (A) (A) (A) (A) (A)
                 (A) (A) (A) (A) (A) (A) (A) (A) (A) (A) (A) (A)
                 (A) (A) (A) (A) (A) (A) (A) (A) (A) (A) (A) (A)
                 (A) (A) (A) (A) (A) (A) (A) (A) (A) (A) (A) (A)
                 (A) (A) (A) (A) (A) (A) (A) (A) (A) (A) (A) (A)
                 (A) (A) (A) (A) (A) (A) (A) (A) (A) (A) (A) (A)
                 (A) (A) (A) (A) (A) (A) (A) (A) (A) (A) (A) (A)
                 (A) (A) (A) (A) (A) (A) (A) (A) (A) (A) (A) (A)
                 (A) (A) (A) (A) (A) (A) (A) (A) (A) (A) (A) (A)
                 (A) (A) (A) (A) (A) (A) (A) (A) (A) (A) (A) (A)
                 (A) (A) (A) (A) (A) (A) (A) (A) (A) (A) (A) (A)
                 (A) (A) (A) (A) (A) (A) (A) (A) (A) (A) (A) (A)
                 (A) (A) (A) (A) (A) (A) (A) (A) (A) (A) (A) (A)
                 (A) (A) (A) (A) (A) (A) (A) (A) (A) (A) (A) (A)
                 (A) (A) (A) (A) (A) (A) (A) (A) (A) (A) (A) (A)
                 (A) (A) (A) (A) (A) (A) (A) (A) (A) (A) (A) (A)
                 (A) (A) (A) (A) (A) (A) (A) (A) (A) (A) (A) (A)
                 (A) (A) (A) (A) (A) (A) (A) (A) (A) (A) (A) (A)
                 (A) (A) (A) (A) (A) (A) (A) (A) (A) (A) (A) (A)
                 (A) (A) (A) (A) (A) (A) (A) (A) (A) (A) (A) (A)
                 (A) (A) (A) (A) (A) (A) (A) (A) (A) (A) (A) (A)
                 (A) (A) (A) (A) (A) (A) (A) (A) (A) (A) (A) (A)
                 (A) (A) (A) (A) (A) (A) (A) (A) (A) (A) (A) (A)
                 (A) (A) (A) (A) (A) (A) (A) (A) (A) (A) (A) (A)
                 (A) (A) (A) (A) (A) (A) (A) (A) (A) (A) (A) (A)
                 (A) (A) (A) (A) (A) (A) (A) (A) (A) (A) (A) (A)
                 (A) (A) (A) (A) (A) (A) (A) (A) (A) (A) (A) (A)
                 (A) (A) (A) (A)
 The electronic state is 1-A.
 Alpha  occ. eigenvalues --  -19.11657 -10.26291 -10.18284 -10.17789 -10.17752
 Alpha  occ. eigenvalues --  -10.17074 -10.16545 -10.16431 -10.16215  -1.04734
 Alpha  occ. eigenvalues --   -0.82254  -0.78846  -0.74893  -0.69527  -0.69163
 Alpha  occ. eigenvalues --   -0.62352  -0.53295  -0.52025  -0.48427  -0.47364
 Alpha  occ. eigenvalues --   -0.45822  -0.44762  -0.43551  -0.43059  -0.42021
 Alpha  occ. eigenvalues --   -0.39659  -0.38810  -0.37603  -0.37450  -0.36902
 Alpha  occ. eigenvalues --   -0.35979  -0.34778  -0.33024  -0.25979  -0.23750
 Alpha virt. eigenvalues --   -0.02154   0.01532   0.02453   0.03733   0.06371
 Alpha virt. eigenvalues --    0.06569   0.08723   0.09093   0.09590   0.10389
 Alpha virt. eigenvalues --    0.10927   0.11270   0.12518   0.13384   0.13816
 Alpha virt. eigenvalues --    0.14413   0.15313   0.16216   0.16947   0.17846
 Alpha virt. eigenvalues --    0.17989   0.18483   0.20798   0.21074   0.21905
 Alpha virt. eigenvalues --    0.22732   0.23257   0.25600   0.26429   0.27967
 Alpha virt. eigenvalues --    0.29942   0.30879   0.31215   0.31722   0.32905
 Alpha virt. eigenvalues --    0.34100   0.36065   0.36562   0.36994   0.38267
 Alpha virt. eigenvalues --    0.39770   0.39932   0.40766   0.41119   0.41902
 Alpha virt. eigenvalues --    0.42896   0.43316   0.43880   0.45150   0.45196
 Alpha virt. eigenvalues --    0.45472   0.46071   0.46780   0.47534   0.47618
 Alpha virt. eigenvalues --    0.48462   0.48904   0.49514   0.51670   0.52568
 Alpha virt. eigenvalues --    0.54176   0.55427   0.55980   0.57899   0.58847
 Alpha virt. eigenvalues --    0.59823   0.61816   0.62697   0.63402   0.64883
 Alpha virt. eigenvalues --    0.66254   0.68395   0.69941   0.71362   0.72057
 Alpha virt. eigenvalues --    0.75489   0.77851   0.78263   0.80727   0.84193
 Alpha virt. eigenvalues --    0.84699   0.86239   0.86817   0.88261   0.91046
 Alpha virt. eigenvalues --    0.93219   0.94445   0.96644   0.97406   0.98471
 Alpha virt. eigenvalues --    0.99196   1.00390   1.01383   1.03921   1.05167
 Alpha virt. eigenvalues --    1.07514   1.09501   1.11191   1.11604   1.13305
 Alpha virt. eigenvalues --    1.14919   1.16029   1.16467   1.19232   1.23387
 Alpha virt. eigenvalues --    1.23661   1.24977   1.26043   1.29780   1.34959
 Alpha virt. eigenvalues --    1.35651   1.39579   1.42458   1.44052   1.44630
 Alpha virt. eigenvalues --    1.46232   1.48726   1.50190   1.50932   1.51730
 Alpha virt. eigenvalues --    1.52898   1.53409   1.54243   1.54973   1.56135
 Alpha virt. eigenvalues --    1.56777   1.57689   1.57949   1.58648   1.58823
 Alpha virt. eigenvalues --    1.60616   1.61172   1.63133   1.64081   1.64622
 Alpha virt. eigenvalues --    1.67179   1.68526   1.71263   1.78572   1.80625
 Alpha virt. eigenvalues --    1.80984   1.83372   1.85659   1.87168   1.88472
 Alpha virt. eigenvalues --    1.89053   1.92927   1.93345   1.94341   1.95871
 Alpha virt. eigenvalues --    1.97125   1.99925   2.02351   2.03032   2.04440
 Alpha virt. eigenvalues --    2.07044   2.07496   2.09061   2.11154   2.14539
 Alpha virt. eigenvalues --    2.15619   2.17074   2.18968   2.21429   2.21816
 Alpha virt. eigenvalues --    2.24722   2.26719   2.28170   2.30751   2.32233
 Alpha virt. eigenvalues --    2.33295   2.34590   2.35266   2.35468   2.37916
 Alpha virt. eigenvalues --    2.39371   2.40370   2.42541   2.44402   2.47130
 Alpha virt. eigenvalues --    2.49590   2.49916   2.51026   2.51110   2.51888
 Alpha virt. eigenvalues --    2.53400   2.53558   2.55055   2.56426   2.57221
 Alpha virt. eigenvalues --    2.58042   2.60808   2.64331   2.65770   2.67348
 Alpha virt. eigenvalues --    2.68746   2.70185   2.70836   2.73969   2.75477
 Alpha virt. eigenvalues --    2.76772   2.78137   2.79478   2.82449   2.86161
 Alpha virt. eigenvalues --    2.87447   2.90684   2.92440   2.93292   2.95369
 Alpha virt. eigenvalues --    2.95891   2.97529   3.00049   3.01692   3.01901
 Alpha virt. eigenvalues --    3.03023   3.03843   3.04869   3.07357   3.08833
 Alpha virt. eigenvalues --    3.09274   3.10708   3.11759   3.12492   3.15187
 Alpha virt. eigenvalues --    3.16450   3.17784   3.18519   3.19606   3.20728
 Alpha virt. eigenvalues --    3.23441   3.25408   3.26509   3.26964   3.28293
 Alpha virt. eigenvalues --    3.30830   3.31199   3.32376   3.33464   3.34121
 Alpha virt. eigenvalues --    3.35273   3.36910   3.37144   3.38671   3.40793
 Alpha virt. eigenvalues --    3.41398   3.44186   3.45219   3.46143   3.48338
 Alpha virt. eigenvalues --    3.49075   3.49876   3.51804   3.54333   3.55772
 Alpha virt. eigenvalues --    3.56694   3.61302   3.63332   3.67982   3.70624
 Alpha virt. eigenvalues --    3.73288   3.74806   3.76798   3.78457   3.81194
 Alpha virt. eigenvalues --    3.83230   3.85885   3.88558   3.90990   3.91821
 Alpha virt. eigenvalues --    3.93024   3.95097   3.99403   4.01349   4.02422
 Alpha virt. eigenvalues --    4.04961   4.06435   4.11416   4.12568   4.18994
 Alpha virt. eigenvalues --    4.21229   4.24002   4.29019   4.33137   4.33626
 Alpha virt. eigenvalues --    4.36625   4.39087   4.41209   4.43221   4.44856
 Alpha virt. eigenvalues --    4.46455   4.48576   4.52673   4.55541   4.57389
 Alpha virt. eigenvalues --    4.60602   4.66099   4.71576   4.75020   4.78805
 Alpha virt. eigenvalues --    4.82976   4.84449   4.93409   5.03269   5.09962
 Alpha virt. eigenvalues --    5.19220   5.19698   5.24634   5.39159   5.60006
 Alpha virt. eigenvalues --    5.69567   6.14541   6.32843   6.38361   6.52955
 Alpha virt. eigenvalues --    6.54402   6.81121   7.02215   7.07330  22.20039
 Alpha virt. eigenvalues --   22.30446  22.37269  22.42489  22.44472  22.57464
 Alpha virt. eigenvalues --   22.97729  23.05470  43.85538
          Condensed to atoms (all electrons):
               1          2          3          4          5          6
     1  O    7.807139   0.011439  -0.156838   0.002758  -0.000277   0.680272
     2  C    0.011439   4.903169   0.268129   0.248532  -0.028126  -0.029639
     3  C   -0.156838   0.268129   5.604905  -0.066922   0.007187   0.149345
     4  C    0.002758   0.248532  -0.066922   5.117090   0.669044   0.011473
     5  C   -0.000277  -0.028126   0.007187   0.669044   5.022264  -0.001608
     6  C    0.680272  -0.029639   0.149345   0.011473  -0.001608   4.762819
     7  C    0.000000   0.012650  -0.000268  -0.050609   0.301711   0.000039
     8  C    0.000088  -0.022653  -0.001172  -0.047923   0.286978   0.000265
     9  C   -0.094695   0.016598  -0.233239   0.000012  -0.000104   0.348233
    10  H    0.009398   0.437326  -0.054390  -0.067508   0.008119   0.002955
    11  H    0.009172   0.429104  -0.062251  -0.041264  -0.006038   0.000666
    12  H    0.003489  -0.032618   0.360000   0.000054   0.001721  -0.012363
    13  H    0.004006  -0.028680   0.365165  -0.004949   0.000634  -0.014667
    14  H    0.000110  -0.041483  -0.001827   0.384063  -0.032847   0.000379
    15  H   -0.000000  -0.000718  -0.000095  -0.003382  -0.042362   0.000000
    16  H    0.000000  -0.000639   0.000297  -0.006903  -0.043601  -0.000003
    17  H   -0.000000   0.001216  -0.000067   0.003118  -0.056288   0.000004
    18  H   -0.000151   0.001991  -0.000096  -0.007514  -0.050543  -0.000272
    19  H    0.000001  -0.000079   0.000881  -0.004229  -0.044813  -0.000034
    20  H   -0.000002   0.000261  -0.000339   0.000791  -0.046284   0.000008
    21  H    0.003728  -0.000505   0.022748   0.000027  -0.000005  -0.041489
    22  H    0.009349  -0.000888   0.017308   0.000014   0.000003  -0.041785
    23  H    0.002455  -0.001077   0.012994  -0.000197   0.000031  -0.029044
               7          8          9         10         11         12
     1  O    0.000000   0.000088  -0.094695   0.009398   0.009172   0.003489
     2  C    0.012650  -0.022653   0.016598   0.437326   0.429104  -0.032618
     3  C   -0.000268  -0.001172  -0.233239  -0.054390  -0.062251   0.360000
     4  C   -0.050609  -0.047923   0.000012  -0.067508  -0.041264   0.000054
     5  C    0.301711   0.286978  -0.000104   0.008119  -0.006038   0.001721
     6  C    0.000039   0.000265   0.348233   0.002955   0.000666  -0.012363
     7  C    4.932079  -0.071805  -0.000002   0.000069  -0.000641  -0.000218
     8  C   -0.071805   4.942798   0.000029  -0.003651   0.001606   0.000043
     9  C   -0.000002   0.000029   5.146137   0.001861   0.001386   0.004639
    10  H    0.000069  -0.003651   0.001861   0.574295  -0.015276   0.007110
    11  H   -0.000641   0.001606   0.001386  -0.015276   0.571938  -0.002383
    12  H   -0.000218   0.000043   0.004639   0.007110  -0.002383   0.583286
    13  H    0.000074   0.000081   0.009954  -0.002984   0.007461  -0.022996
    14  H   -0.016608   0.009766   0.000163   0.005628  -0.001614   0.004186
    15  H    0.399603  -0.000289  -0.000000   0.000012   0.000142   0.000007
    16  H    0.407652  -0.002144   0.000000  -0.000020  -0.000042  -0.000009
    17  H    0.411328   0.008112  -0.000000   0.000031  -0.000073   0.000049
    18  H    0.007999   0.421581  -0.000036   0.007124  -0.000225  -0.000054
    19  H   -0.000897   0.404435   0.000002  -0.000000  -0.000182  -0.000004
    20  H   -0.003567   0.404355  -0.000001  -0.000360   0.000299   0.000004
    21  H   -0.000001  -0.000001   0.373406  -0.000111  -0.000067  -0.002000
    22  H    0.000000  -0.000001   0.391905  -0.000078  -0.000035  -0.000793
    23  H    0.000001  -0.000007   0.371144  -0.000057  -0.000110   0.000537
              13         14         15         16         17         18
     1  O    0.004006   0.000110  -0.000000   0.000000  -0.000000  -0.000151
     2  C   -0.028680  -0.041483  -0.000718  -0.000639   0.001216   0.001991
     3  C    0.365165  -0.001827  -0.000095   0.000297  -0.000067  -0.000096
     4  C   -0.004949   0.384063  -0.003382  -0.006903   0.003118  -0.007514
     5  C    0.000634  -0.032847  -0.042362  -0.043601  -0.056288  -0.050543
     6  C   -0.014667   0.000379   0.000000  -0.000003   0.000004  -0.000272
     7  C    0.000074  -0.016608   0.399603   0.407652   0.411328   0.007999
     8  C    0.000081   0.009766  -0.000289  -0.002144   0.008112   0.421581
     9  C    0.009954   0.000163  -0.000000   0.000000  -0.000000  -0.000036
    10  H   -0.002984   0.005628   0.000012  -0.000020   0.000031   0.007124
    11  H    0.007461  -0.001614   0.000142  -0.000042  -0.000073  -0.000225
    12  H   -0.022996   0.004186   0.000007  -0.000009   0.000049  -0.000054
    13  H    0.575320   0.000726   0.000017  -0.000047  -0.000038   0.000187
    14  H    0.000726   0.595387   0.000456   0.000376   0.005641   0.000225
    15  H    0.000017   0.000456   0.599897  -0.043418  -0.023041  -0.000087
    16  H   -0.000047   0.000376  -0.043418   0.600783  -0.023682  -0.000072
    17  H   -0.000038   0.005641  -0.023041  -0.023682   0.569629  -0.000404
    18  H    0.000187   0.000225  -0.000087  -0.000072  -0.000404   0.562995
    19  H   -0.000245  -0.000353  -0.002008   0.006441  -0.000052  -0.024345
    20  H    0.000046  -0.000418   0.006607  -0.001807  -0.000107  -0.023030
    21  H   -0.001155  -0.000022   0.000000  -0.000000   0.000000   0.000000
    22  H   -0.000193  -0.000002   0.000000  -0.000000   0.000000   0.000001
    23  H   -0.002533  -0.000003  -0.000000  -0.000000  -0.000000   0.000008
              19         20         21         22         23
     1  O    0.000001  -0.000002   0.003728   0.009349   0.002455
     2  C   -0.000079   0.000261  -0.000505  -0.000888  -0.001077
     3  C    0.000881  -0.000339   0.022748   0.017308   0.012994
     4  C   -0.004229   0.000791   0.000027   0.000014  -0.000197
     5  C   -0.044813  -0.046284  -0.000005   0.000003   0.000031
     6  C   -0.000034   0.000008  -0.041489  -0.041785  -0.029044
     7  C   -0.000897  -0.003567  -0.000001   0.000000   0.000001
     8  C    0.404435   0.404355  -0.000001  -0.000001  -0.000007
     9  C    0.000002  -0.000001   0.373406   0.391905   0.371144
    10  H   -0.000000  -0.000360  -0.000111  -0.000078  -0.000057
    11  H   -0.000182   0.000299  -0.000067  -0.000035  -0.000110
    12  H   -0.000004   0.000004  -0.002000  -0.000793   0.000537
    13  H   -0.000245   0.000046  -0.001155  -0.000193  -0.002533
    14  H   -0.000353  -0.000418  -0.000022  -0.000002  -0.000003
    15  H   -0.002008   0.006607   0.000000   0.000000  -0.000000
    16  H    0.006441  -0.001807  -0.000000  -0.000000  -0.000000
    17  H   -0.000052  -0.000107   0.000000   0.000000  -0.000000
    18  H   -0.024345  -0.023030   0.000000   0.000001   0.000008
    19  H    0.596217  -0.040075  -0.000000  -0.000000  -0.000000
    20  H   -0.040075   0.590789   0.000000   0.000000   0.000000
    21  H   -0.000000   0.000000   0.572452  -0.018378  -0.025604
    22  H   -0.000000   0.000000  -0.018378   0.526657  -0.013997
    23  H   -0.000000   0.000000  -0.025604  -0.013997   0.561897
 Mulliken charges:
               1
     1  O   -0.291441
     2  C   -0.143310
     3  C   -0.231455
     4  C   -0.135572
     5  C    0.055205
     6  C    0.214445
     7  C   -0.328590
     8  C   -0.330492
     9  C   -0.337392
    10  H    0.090508
    11  H    0.108429
    12  H    0.108313
    13  H    0.114816
    14  H    0.088074
    15  H    0.108661
    16  H    0.106837
    17  H    0.104626
    18  H    0.104718
    19  H    0.109338
    20  H    0.112830
    21  H    0.116976
    22  H    0.130914
    23  H    0.123561
 Sum of Mulliken charges =  -0.00000
 Mulliken charges with hydrogens summed into heavy atoms:
               1
     1  O   -0.291441
     2  C    0.055627
     3  C   -0.008326
     4  C   -0.047499
     5  C    0.055205
     6  C    0.214445
     7  C   -0.008466
     8  C   -0.003606
     9  C    0.034060
 Electronic spatial extent (au):  <R**2>=           2109.6275
 Charge=             -0.0000 electrons
 Dipole moment (field-independent basis, Debye):
    X=             -0.7731    Y=             -2.0525    Z=              1.6734  Tot=              2.7587
 Quadrupole moment (field-independent basis, Debye-Ang):
   XX=            -57.4949   YY=            -58.6460   ZZ=            -57.6997
   XY=             -7.0095   XZ=              3.8934   YZ=              2.5614
 Traceless Quadrupole moment (field-independent basis, Debye-Ang):
   XX=              0.4520   YY=             -0.6991   ZZ=              0.2471
   XY=             -7.0095   XZ=              3.8934   YZ=              2.5614
 Octapole moment (field-independent basis, Debye-Ang**2):
  XXX=              4.5039  YYY=             -0.6096  ZZZ=              1.2225  XYY=             -1.5635
  XXY=            -15.4577  XXZ=             14.4780  XZZ=              4.2553  YZZ=             -0.6606
  YYZ=             -0.6616  XYZ=              4.5605
 Hexadecapole moment (field-independent basis, Debye-Ang**3):
 XXXX=          -2345.1861 YYYY=           -308.8419 ZZZZ=           -197.7248 XXXY=            -51.9936
 XXXZ=             30.7648 YYYX=             -2.3473 YYYZ=              3.1116 ZZZX=             -7.1079
 ZZZY=             -2.2933 XXYY=           -464.5895 XXZZ=           -434.7191 YYZZ=            -88.0660
 XXYZ=             11.8308 YYXZ=              5.7436 ZZXY=              1.6907
 N-N= 4.288446628983D+02 E-N=-1.760961391830D+03  KE= 3.865948317311D+02
 No NMR shielding tensors so no spin-rotation constants.
 Leave Link  601 at Tue Jun  4 00:19:44 2024, MaxMem= 13421772800 cpu:               7.5 elap:               0.3
 (Enter /tmpu/scunam/7/gaussian-2016.03/g1/g16/l9999.exe)
 1\1\GINC-MN458\FOpt\RB3LYP\def2TZVP\C8H14O1\ANDFAG_A\04-Jun-2024\0\\#p
  opt=(maxcycle=2000) freq=raman b3lyp/def2tzvp scf=(maxcycle=2000,dire
 ct,NoInCore, xqc)\\S36\\0,1\O,2.7883347143,-0.4653939398,-1.0272672627
 \C,0.0490845948,-0.4922574876,-0.3429684388\C,1.1186688802,0.048761710
 4,0.6090302137\C,-1.3053961581,-0.5465490091,0.3001828579\C,-2.4242693
 464,0.0913642003,-0.0545193271\C,2.5282912939,0.0360242062,0.042151583
 4\C,-3.699911734,-0.0993205838,0.7225323417\C,-2.546654132,1.028953296
 6,-1.2246623587\C,3.5977051875,0.6950809396,0.8889161864\H,0.043029561
 5,0.1092510374,-1.2512233193\H,0.3480594606,-1.4969989285,-0.656298676
 8\H,1.1369947761,-0.532730882,1.5393359627\H,0.8807309594,1.0715492613
 ,0.9219947265\H,-1.3646293237,-1.1975186297,1.1709332929\H,-4.49410150
 56,-0.4946827936,0.0806960709\H,-4.0657821896,0.8545465666,1.116611372
 4\H,-3.5665899904,-0.7851146015,1.5594079843\H,-1.6129181423,1.1708196
 653,-1.7643577406\H,-2.8985224291,2.0111124101,-0.8929345089\H,-3.2921
 440457,0.6583032721,-1.9356047861\H,3.549793011,0.3481372029,1.9235473
 054\H,4.5812231291,0.4907120705,0.4714223928\H,3.4336034285,1.77625101
 62,0.9074741281\\Version=ES64L-G16RevA.03\State=1-A\HF=-388.651242\RMS
 D=4.322e-09\RMSF=2.395e-06\Dipole=-0.3355593,0.5192018,0.8921093\Quadr
 upole=-0.0717239,0.756173,-0.6844491,2.0702868,5.6446909,-1.643464\PG=
 C01 [X(C8H14O1)]\\@


 LIFE IS A CONTINUAL STRUGGLE AGAINST THE TENDENCY TO PRODUCE ENTROPY.
 Leave Link 9999 at Tue Jun  4 00:19:45 2024, MaxMem= 13421772800 cpu:               2.7 elap:               0.1
 Job cpu time:       0 days  6 hours 57 minutes 11.8 seconds.
 Elapsed time:       0 days  0 hours 13 minutes 10.8 seconds.
 File lengths (MBytes):  RWF=     87 Int=      0 D2E=      0 Chk=     11 Scr=      1
 Normal termination of Gaussian 16 at Tue Jun  4 00:19:45 2024.
 (Enter /tmpu/scunam/7/gaussian-2016.03/g1/g16/l1.exe)
 Link1:  Proceeding to internal job step number  2.
 --------------------------------------------------------------------
 #P Geom=AllCheck Guess=TCheck SCRF=Check GenChk RB3LYP/def2TZVP Freq
 --------------------------------------------------------------------
 1/6=2000,10=4,29=7,30=1,38=1,40=1/1,3;
 2/12=2,40=1/2;
 3/5=44,7=101,11=2,14=-4,25=1,30=1,70=2,71=2,74=-5,116=1,140=1/1,2,3;
 4/5=101/1;
 5/5=2,7=2000,8=3,13=1,38=6,98=1/2,8;
 8/6=4,10=90,11=11/1;
 10/13=10,15=4/2;
 11/6=3,8=1,9=11,15=111,16=1/1,2,10;
 10/6=1/2;
 6/7=2,8=2,9=2,10=2,28=1/1;
 7/8=1,10=1,25=1/1,2,3,16;
 1/6=2000,10=4,30=1/3;
 99//99;
 Leave Link    1 at Tue Jun  4 00:19:45 2024, MaxMem= 13421772800 cpu:               1.0 elap:               0.0
 (Enter /tmpu/scunam/7/gaussian-2016.03/g1/g16/l101.exe)
 Structure from the checkpoint file:  "S36.chk"
 ---
 S36
 ---
 Charge =  0 Multiplicity = 1
 Redundant internal coordinates found in file.  (old form).
 O,0,2.7883347143,-0.4653939398,-1.0272672627
 C,0,0.0490845948,-0.4922574876,-0.3429684388
 C,0,1.1186688802,0.0487617104,0.6090302137
 C,0,-1.3053961581,-0.5465490091,0.3001828579
 C,0,-2.4242693464,0.0913642003,-0.0545193271
 C,0,2.5282912939,0.0360242062,0.0421515834
 C,0,-3.699911734,-0.0993205838,0.7225323417
 C,0,-2.546654132,1.0289532966,-1.2246623587
 C,0,3.5977051875,0.6950809396,0.8889161864
 H,0,0.0430295615,0.1092510374,-1.2512233193
 H,0,0.3480594606,-1.4969989285,-0.6562986768
 H,0,1.1369947761,-0.532730882,1.5393359627
 H,0,0.8807309594,1.0715492613,0.9219947265
 H,0,-1.3646293237,-1.1975186297,1.1709332929
 H,0,-4.4941015056,-0.4946827936,0.0806960709
 H,0,-4.0657821896,0.8545465666,1.1166113724
 H,0,-3.5665899904,-0.7851146015,1.5594079843
 H,0,-1.6129181423,1.1708196653,-1.7643577406
 H,0,-2.8985224291,2.0111124101,-0.8929345089
 H,0,-3.2921440457,0.6583032721,-1.9356047861
 H,0,3.549793011,0.3481372029,1.9235473054
 H,0,4.5812231291,0.4907120705,0.4714223928
 H,0,3.4336034285,1.7762510162,0.9074741281
 Recover connectivity data from disk.
 ITRead=  0  0  0  0  0  0  0  0  0  0  0  0  0  0  0  0  0  0  0  0
 ITRead=  0  0  0
 MicOpt= -1 -1 -1 -1 -1 -1 -1 -1 -1 -1 -1 -1 -1 -1 -1 -1 -1 -1 -1 -1
 MicOpt= -1 -1 -1
 NAtoms=     23 NQM=       23 NQMF=       0 NMMI=      0 NMMIF=      0
                NMic=       0 NMicF=      0.
                    Isotopes and Nuclear Properties:
 (Nuclear quadrupole moments (NQMom) in fm**2, nuclear magnetic moments (NMagM)
  in nuclear magnetons)

  Atom         1           2           3           4           5           6           7           8           9          10
 IAtWgt=          16          12          12          12          12          12          12          12          12           1
 AtmWgt=  15.9949146  12.0000000  12.0000000  12.0000000  12.0000000  12.0000000  12.0000000  12.0000000  12.0000000   1.0078250
 NucSpn=           0           0           0           0           0           0           0           0           0           1
 AtZEff=   5.6000000   3.6000000   3.6000000   3.6000000   3.6000000   3.6000000   3.6000000   3.6000000   3.6000000   1.0000000
 NQMom=    0.0000000   0.0000000   0.0000000   0.0000000   0.0000000   0.0000000   0.0000000   0.0000000   0.0000000   0.0000000
 NMagM=    0.0000000   0.0000000   0.0000000   0.0000000   0.0000000   0.0000000   0.0000000   0.0000000   0.0000000   2.7928460
 AtZNuc=   8.0000000   6.0000000   6.0000000   6.0000000   6.0000000   6.0000000   6.0000000   6.0000000   6.0000000   1.0000000

  Atom        11          12          13          14          15          16          17          18          19          20
 IAtWgt=           1           1           1           1           1           1           1           1           1           1
 AtmWgt=   1.0078250   1.0078250   1.0078250   1.0078250   1.0078250   1.0078250   1.0078250   1.0078250   1.0078250   1.0078250
 NucSpn=           1           1           1           1           1           1           1           1           1           1
 AtZEff=   1.0000000   1.0000000   1.0000000   1.0000000   1.0000000   1.0000000   1.0000000   1.0000000   1.0000000   1.0000000
 NQMom=    0.0000000   0.0000000   0.0000000   0.0000000   0.0000000   0.0000000   0.0000000   0.0000000   0.0000000   0.0000000
 NMagM=    2.7928460   2.7928460   2.7928460   2.7928460   2.7928460   2.7928460   2.7928460   2.7928460   2.7928460   2.7928460
 AtZNuc=   1.0000000   1.0000000   1.0000000   1.0000000   1.0000000   1.0000000   1.0000000   1.0000000   1.0000000   1.0000000

  Atom        21          22          23
 IAtWgt=           1           1           1
 AtmWgt=   1.0078250   1.0078250   1.0078250
 NucSpn=           1           1           1
 AtZEff=   1.0000000   1.0000000   1.0000000
 NQMom=    0.0000000   0.0000000   0.0000000
 NMagM=    2.7928460   2.7928460   2.7928460
 AtZNuc=   1.0000000   1.0000000   1.0000000
 Leave Link  101 at Tue Jun  4 00:19:45 2024, MaxMem= 13421772800 cpu:              10.7 elap:               0.4
 (Enter /tmpu/scunam/7/gaussian-2016.03/g1/g16/l103.exe)

 GradGradGradGradGradGradGradGradGradGradGradGradGradGradGradGradGradGrad
 Berny optimization.
 Initialization pass.
                           ----------------------------
                           !    Initial Parameters    !
                           ! (Angstroms and Degrees)  !
 --------------------------                            --------------------------
 ! Name  Definition              Value          Derivative Info.                !
 --------------------------------------------------------------------------------
 ! R1    R(1,6)                  1.2094         calculate D2E/DX2 analytically  !
 ! R2    R(2,3)                  1.5307         calculate D2E/DX2 analytically  !
 ! R3    R(2,4)                  1.5004         calculate D2E/DX2 analytically  !
 ! R4    R(2,10)                 1.0894         calculate D2E/DX2 analytically  !
 ! R5    R(2,11)                 1.0941         calculate D2E/DX2 analytically  !
 ! R6    R(3,6)                  1.5194         calculate D2E/DX2 analytically  !
 ! R7    R(3,12)                 1.0972         calculate D2E/DX2 analytically  !
 ! R8    R(3,13)                 1.0957         calculate D2E/DX2 analytically  !
 ! R9    R(4,5)                  1.3359         calculate D2E/DX2 analytically  !
 ! R10   R(4,14)                 1.0888         calculate D2E/DX2 analytically  !
 ! R11   R(5,7)                  1.5058         calculate D2E/DX2 analytically  !
 ! R12   R(5,8)                  1.5044         calculate D2E/DX2 analytically  !
 ! R13   R(6,9)                  1.5149         calculate D2E/DX2 analytically  !
 ! R14   R(7,15)                 1.095          calculate D2E/DX2 analytically  !
 ! R15   R(7,16)                 1.095          calculate D2E/DX2 analytically  !
 ! R16   R(7,17)                 1.0902         calculate D2E/DX2 analytically  !
 ! R17   R(8,18)                 1.0878         calculate D2E/DX2 analytically  !
 ! R18   R(8,19)                 1.0948         calculate D2E/DX2 analytically  !
 ! R19   R(8,20)                 1.0948         calculate D2E/DX2 analytically  !
 ! R20   R(9,21)                 1.0923         calculate D2E/DX2 analytically  !
 ! R21   R(9,22)                 1.0878         calculate D2E/DX2 analytically  !
 ! R22   R(9,23)                 1.0937         calculate D2E/DX2 analytically  !
 ! A1    A(3,2,4)              112.1476         calculate D2E/DX2 analytically  !
 ! A2    A(3,2,10)             109.1023         calculate D2E/DX2 analytically  !
 ! A3    A(3,2,11)             108.1646         calculate D2E/DX2 analytically  !
 ! A4    A(4,2,10)             111.86           calculate D2E/DX2 analytically  !
 ! A5    A(4,2,11)             109.6463         calculate D2E/DX2 analytically  !
 ! A6    A(10,2,11)            105.6528         calculate D2E/DX2 analytically  !
 ! A7    A(2,3,6)              114.4105         calculate D2E/DX2 analytically  !
 ! A8    A(2,3,12)             110.5898         calculate D2E/DX2 analytically  !
 ! A9    A(2,3,13)             110.8436         calculate D2E/DX2 analytically  !
 ! A10   A(6,3,12)             107.2412         calculate D2E/DX2 analytically  !
 ! A11   A(6,3,13)             108.412          calculate D2E/DX2 analytically  !
 ! A12   A(12,3,13)            104.8409         calculate D2E/DX2 analytically  !
 ! A13   A(2,4,5)              128.6818         calculate D2E/DX2 analytically  !
 ! A14   A(2,4,14)             114.4283         calculate D2E/DX2 analytically  !
 ! A15   A(5,4,14)             116.8898         calculate D2E/DX2 analytically  !
 ! A16   A(4,5,7)              120.7999         calculate D2E/DX2 analytically  !
 ! A17   A(4,5,8)              124.9074         calculate D2E/DX2 analytically  !
 ! A18   A(7,5,8)              114.2916         calculate D2E/DX2 analytically  !
 ! A19   A(1,6,3)              122.1991         calculate D2E/DX2 analytically  !
 ! A20   A(1,6,9)              121.522          calculate D2E/DX2 analytically  !
 ! A21   A(3,6,9)              116.2782         calculate D2E/DX2 analytically  !
 ! A22   A(5,7,15)             110.9576         calculate D2E/DX2 analytically  !
 ! A23   A(5,7,16)             111.0058         calculate D2E/DX2 analytically  !
 ! A24   A(5,7,17)             111.8516         calculate D2E/DX2 analytically  !
 ! A25   A(15,7,16)            106.4476         calculate D2E/DX2 analytically  !
 ! A26   A(15,7,17)            108.1517         calculate D2E/DX2 analytically  !
 ! A27   A(16,7,17)            108.2151         calculate D2E/DX2 analytically  !
 ! A28   A(5,8,18)             113.4128         calculate D2E/DX2 analytically  !
 ! A29   A(5,8,19)             110.4619         calculate D2E/DX2 analytically  !
 ! A30   A(5,8,20)             110.4562         calculate D2E/DX2 analytically  !
 ! A31   A(18,8,19)            108.0129         calculate D2E/DX2 analytically  !
 ! A32   A(18,8,20)            107.847          calculate D2E/DX2 analytically  !
 ! A33   A(19,8,20)            106.3585         calculate D2E/DX2 analytically  !
 ! A34   A(6,9,21)             111.118          calculate D2E/DX2 analytically  !
 ! A35   A(6,9,22)             109.9975         calculate D2E/DX2 analytically  !
 ! A36   A(6,9,23)             109.4887         calculate D2E/DX2 analytically  !
 ! A37   A(21,9,22)            110.0907         calculate D2E/DX2 analytically  !
 ! A38   A(21,9,23)            106.9376         calculate D2E/DX2 analytically  !
 ! A39   A(22,9,23)            109.1402         calculate D2E/DX2 analytically  !
 ! D1    D(4,2,3,6)            175.9856         calculate D2E/DX2 analytically  !
 ! D2    D(4,2,3,12)            54.7742         calculate D2E/DX2 analytically  !
 ! D3    D(4,2,3,13)           -61.0624         calculate D2E/DX2 analytically  !
 ! D4    D(10,2,3,6)           -59.5155         calculate D2E/DX2 analytically  !
 ! D5    D(10,2,3,12)          179.2731         calculate D2E/DX2 analytically  !
 ! D6    D(10,2,3,13)           63.4365         calculate D2E/DX2 analytically  !
 ! D7    D(11,2,3,6)            54.9494         calculate D2E/DX2 analytically  !
 ! D8    D(11,2,3,12)          -66.262          calculate D2E/DX2 analytically  !
 ! D9    D(11,2,3,13)          177.9014         calculate D2E/DX2 analytically  !
 ! D10   D(3,2,4,5)            118.5884         calculate D2E/DX2 analytically  !
 ! D11   D(3,2,4,14)           -61.3782         calculate D2E/DX2 analytically  !
 ! D12   D(10,2,4,5)            -4.3675         calculate D2E/DX2 analytically  !
 ! D13   D(10,2,4,14)          175.666          calculate D2E/DX2 analytically  !
 ! D14   D(11,2,4,5)          -121.2333         calculate D2E/DX2 analytically  !
 ! D15   D(11,2,4,14)           58.8002         calculate D2E/DX2 analytically  !
 ! D16   D(2,3,6,1)             -5.9151         calculate D2E/DX2 analytically  !
 ! D17   D(2,3,6,9)            173.7796         calculate D2E/DX2 analytically  !
 ! D18   D(12,3,6,1)           117.1242         calculate D2E/DX2 analytically  !
 ! D19   D(12,3,6,9)           -63.1812         calculate D2E/DX2 analytically  !
 ! D20   D(13,3,6,1)          -130.1722         calculate D2E/DX2 analytically  !
 ! D21   D(13,3,6,9)            49.5225         calculate D2E/DX2 analytically  !
 ! D22   D(2,4,5,7)            179.7446         calculate D2E/DX2 analytically  !
 ! D23   D(2,4,5,8)              0.1437         calculate D2E/DX2 analytically  !
 ! D24   D(14,4,5,7)            -0.2896         calculate D2E/DX2 analytically  !
 ! D25   D(14,4,5,8)          -179.8905         calculate D2E/DX2 analytically  !
 ! D26   D(4,5,7,15)          -120.5352         calculate D2E/DX2 analytically  !
 ! D27   D(4,5,7,16)           121.3103         calculate D2E/DX2 analytically  !
 ! D28   D(4,5,7,17)             0.3302         calculate D2E/DX2 analytically  !
 ! D29   D(8,5,7,15)            59.1057         calculate D2E/DX2 analytically  !
 ! D30   D(8,5,7,16)           -59.0488         calculate D2E/DX2 analytically  !
 ! D31   D(8,5,7,17)           179.9712         calculate D2E/DX2 analytically  !
 ! D32   D(4,5,8,18)            -1.4631         calculate D2E/DX2 analytically  !
 ! D33   D(4,5,8,19)          -122.8782         calculate D2E/DX2 analytically  !
 ! D34   D(4,5,8,20)           119.7329         calculate D2E/DX2 analytically  !
 ! D35   D(7,5,8,18)           178.9129         calculate D2E/DX2 analytically  !
 ! D36   D(7,5,8,19)            57.4979         calculate D2E/DX2 analytically  !
 ! D37   D(7,5,8,20)           -59.891          calculate D2E/DX2 analytically  !
 ! D38   D(1,6,9,21)          -131.502          calculate D2E/DX2 analytically  !
 ! D39   D(1,6,9,22)            -9.3328         calculate D2E/DX2 analytically  !
 ! D40   D(1,6,9,23)           110.5953         calculate D2E/DX2 analytically  !
 ! D41   D(3,6,9,21)            48.8011         calculate D2E/DX2 analytically  !
 ! D42   D(3,6,9,22)           170.9703         calculate D2E/DX2 analytically  !
 ! D43   D(3,6,9,23)           -69.1016         calculate D2E/DX2 analytically  !
 --------------------------------------------------------------------------------
 Trust Radius=3.00D-01 FncErr=1.00D-07 GrdErr=1.00D-07 EigMax=2.50D+02 EigMin=1.00D-04
 Number of steps in this run=      2 maximum allowed number of steps=      2.
 GradGradGradGradGradGradGradGradGradGradGradGradGradGradGradGradGradGrad

 Leave Link  103 at Tue Jun  4 00:19:45 2024, MaxMem= 13421772800 cpu:               0.4 elap:               0.0
 (Enter /tmpu/scunam/7/gaussian-2016.03/g1/g16/l202.exe)
                          Input orientation:                          
 ---------------------------------------------------------------------
 Center     Atomic      Atomic             Coordinates (Angstroms)
 Number     Number       Type             X           Y           Z
 ---------------------------------------------------------------------
      1          8           0        2.788335   -0.465394   -1.027267
      2          6           0        0.049085   -0.492257   -0.342968
      3          6           0        1.118669    0.048762    0.609030
      4          6           0       -1.305396   -0.546549    0.300183
      5          6           0       -2.424269    0.091364   -0.054519
      6          6           0        2.528291    0.036024    0.042152
      7          6           0       -3.699912   -0.099321    0.722532
      8          6           0       -2.546654    1.028953   -1.224662
      9          6           0        3.597705    0.695081    0.888916
     10          1           0        0.043030    0.109251   -1.251223
     11          1           0        0.348059   -1.496999   -0.656299
     12          1           0        1.136995   -0.532731    1.539336
     13          1           0        0.880731    1.071549    0.921995
     14          1           0       -1.364629   -1.197519    1.170933
     15          1           0       -4.494102   -0.494683    0.080696
     16          1           0       -4.065782    0.854547    1.116611
     17          1           0       -3.566590   -0.785115    1.559408
     18          1           0       -1.612918    1.170820   -1.764358
     19          1           0       -2.898522    2.011112   -0.892935
     20          1           0       -3.292144    0.658303   -1.935605
     21          1           0        3.549793    0.348137    1.923547
     22          1           0        4.581223    0.490712    0.471422
     23          1           0        3.433603    1.776251    0.907474
 ---------------------------------------------------------------------
                    Distance matrix (angstroms):
                    1          2          3          4          5
     1  O    0.000000
     2  C    2.823558   0.000000
     3  C    2.393660   1.530691   0.000000
     4  C    4.304340   1.500403   2.515129   0.000000
     5  C    5.331741   2.557596   3.604792   1.335898   0.000000
     6  C    1.209421   2.563955   1.519391   3.886275   4.953813
     7  C    6.730019   3.917227   4.822191   2.472266   1.505800
     8  C    5.543838   3.135176   4.214000   2.519540   1.504422
     9  C    2.381920   3.939546   2.577147   5.092019   6.125253
    10  H    2.813729   1.089393   2.149698   2.157588   2.742259
    11  H    2.675214   1.094106   2.141091   2.133572   3.251283
    12  H    3.052689   2.174455   1.097241   2.738789   3.951262
    13  H    3.130618   2.176525   1.095744   2.789990   3.582928
    14  H    4.755544   2.188122   2.834735   1.088796   2.070215
    15  H    7.366296   4.562898   5.663714   3.196671   2.155444
    16  H    7.301875   4.569068   5.271192   3.201461   2.156052
    17  H    6.868637   4.096084   4.852857   2.599146   2.162839
    18  H    4.753054   2.747440   3.788608   2.703008   2.178775
    19  H    6.204150   3.906112   4.716412   3.240866   2.147857
    20  H    6.249800   3.876092   5.128545   3.224528   2.147815
    21  H    3.154197   4.254212   2.779918   5.196983   6.298262
    22  H    2.524809   4.708475   3.493356   5.979759   7.036549
    23  H    3.030605   4.262007   2.903827   5.312468   6.170814
                    6          7          8          9         10
     6  C    0.000000
     7  C    6.266718   0.000000
     8  C    5.324077   2.528749   0.000000
     9  C    1.514930   7.342613   6.506292   0.000000
    10  H    2.802625   4.236605   2.748276   4.190359   0.000000
    11  H    2.755250   4.498972   3.883663   4.213443   1.739833
    12  H    2.121497   4.924498   4.862902   2.825892   3.065309
    13  H    2.135624   4.732125   4.044369   2.743132   2.520047
    14  H    4.236816   2.619284   3.477533   5.318480   3.091277
    15  H    7.042523   1.094990   2.796065   8.218643   4.767002
    16  H    6.730992   1.094999   2.796378   7.668527   4.800463
    17  H    6.334344   1.090160   3.475940   7.346269   4.661426
    18  H    4.658417   3.486176   1.087778   5.866582   2.032830
    19  H    5.850271   2.775948   1.094756   6.863520   3.521104
    20  H    6.178691   2.793915   1.094795   7.446428   3.448655
    21  H    2.163453   7.362124   6.895027   1.092304   4.736415
    22  H    2.146053   8.305925   7.346635   1.087831   4.869109
    23  H    2.144006   7.378280   6.392804   1.093710   4.351420
                   11         12         13         14         15
    11  H    0.000000
    12  H    2.524489   0.000000
    13  H    3.061403   1.737957   0.000000
    14  H    2.522255   2.614534   3.201919   0.000000
    15  H    4.999432   5.817072   5.661245   3.387653   0.000000
    16  H    5.306126   5.401122   4.955094   3.392661   1.754137
    17  H    4.554187   4.710394   4.861292   2.273680   1.769525
    18  H    3.491487   4.623689   3.666692   3.779763   3.805173
    19  H    4.785722   5.354669   4.296452   4.111896   3.126154
    20  H    4.419619   5.754220   5.074400   4.099996   2.615253
    21  H    4.506798   2.597141   2.941143   5.206441   8.295221
    22  H    4.810657   3.748411   3.772801   6.220338   9.137023
    23  H    4.762366   3.317387   2.648391   5.651173   8.287895
                   16         17         18         19         20
    16  H    0.000000
    17  H    1.770240   0.000000
    18  H    3.796914   4.323185   0.000000
    19  H    2.595846   3.778781   1.765856   0.000000
    20  H    3.154846   3.791291   1.764029   1.752767   0.000000
    21  H    7.674932   7.215245   6.397737   7.230410   7.861384
    22  H    8.678672   8.318552   6.620321   7.753688   8.234791
    23  H    7.558708   7.482534   5.742178   6.587295   7.387055
                   21         22         23
    21  H    0.000000
    22  H    1.786853   0.000000
    23  H    1.756535   1.777578   0.000000
 Stoichiometry    C8H14O
 Framework group  C1[X(C8H14O)]
 Deg. of freedom    63
 Full point group                 C1      NOp   1
 RotChk:  IX=0 Diff= 2.41D-16
 Largest Abelian subgroup         C1      NOp   1
 Largest concise Abelian subgroup C1      NOp   1
                         Standard orientation:                         
 ---------------------------------------------------------------------
 Center     Atomic      Atomic             Coordinates (Angstroms)
 Number     Number       Type             X           Y           Z
 ---------------------------------------------------------------------
      1          8           0        2.765514    1.042514   -0.698301
      2          6           0        0.054673    0.257497   -0.611333
      3          6           0        1.156764   -0.551071    0.077598
      4          6           0       -1.273854   -0.437829   -0.558909
      5          6           0       -2.409168   -0.027168    0.012969
      6          6           0        2.543701    0.060239   -0.028499
      7          6           0       -3.652998   -0.873742   -0.047293
      8          6           0       -2.581697    1.274927    0.746502
      9          6           0        3.640909   -0.625294    0.759658
     10          1           0        0.010361    1.250969   -0.166558
     11          1           0        0.347255    0.413631   -1.653966
     12          1           0        1.214066   -1.562533   -0.343829
     13          1           0        0.925055   -0.701530    1.137942
     14          1           0       -1.295931   -1.404947   -1.058580
     15          1           0       -4.468872   -0.336442   -0.541925
     16          1           0       -4.009039   -1.120386    0.958402
     17          1           0       -3.483759   -1.805707   -0.586967
     18          1           0       -1.670147    1.866299    0.797631
     19          1           0       -2.926298    1.094916    1.769897
     20          1           0       -3.351697    1.886277    0.264914
     21          1           0        3.634655   -1.703803    0.586726
     22          1           0        4.608890   -0.209081    0.489189
     23          1           0        3.471370   -0.473127    1.829379
 ---------------------------------------------------------------------
 Rotational constants (GHZ):           4.0567331           0.5804147           0.5572829
 Leave Link  202 at Tue Jun  4 00:19:45 2024, MaxMem= 13421772800 cpu:               0.4 elap:               0.0
 (Enter /tmpu/scunam/7/gaussian-2016.03/g1/g16/l301.exe)
 Standard basis: def2TZVP (5D, 7F)
 Ernie: Thresh=  0.10000D-02 Tol=  0.10000D-05 Strict=F.
 There are   408 symmetry adapted cartesian basis functions of A   symmetry.
 There are   363 symmetry adapted basis functions of A   symmetry.
   363 basis functions,   571 primitive gaussians,   408 cartesian basis functions
    35 alpha electrons       35 beta electrons
       nuclear repulsion energy       428.8446628983 Hartrees.
 IExCor=  402 DFT=T Ex+Corr=B3LYP ExCW=0 ScaHFX=  0.200000
 ScaDFX=  0.800000  0.720000  1.000000  0.810000 ScalE2=  1.000000  1.000000
 IRadAn=      5 IRanWt=     -1 IRanGd=            0 ICorTp=0 IEmpDi=  4
 NAtoms=   23 NActive=   23 NUniq=   23 SFac= 1.00D+00 NAtFMM=   60 NAOKFM=F Big=F
 Integral buffers will be    131072 words long.
 Raffenetti 2 integral format.
 Two-electron integral symmetry is turned on.
 Leave Link  301 at Tue Jun  4 00:19:45 2024, MaxMem= 13421772800 cpu:               3.3 elap:               0.1
 (Enter /tmpu/scunam/7/gaussian-2016.03/g1/g16/l302.exe)
 NPDir=0 NMtPBC=     1 NCelOv=     1 NCel=       1 NClECP=     1 NCelD=      1
         NCelK=      1 NCelE2=     1 NClLst=     1 CellRange=     0.0.
 One-electron integrals computed using PRISM.
 One-electron integral symmetry used in STVInt
   1 Symmetry operations used in ECPInt.
 ECPInt:  NShTT=   12090 NPrTT=   35220 LenC2=   11307 LenP2D=   25537.
 LDataN:  DoStor=T MaxTD1= 6 Len=  172
 NBasis=   363 RedAO= T EigKep=  7.80D-05  NBF=   363
 NBsUse=   363 1.00D-06 EigRej= -1.00D+00 NBFU=   363
 Precomputing XC quadrature grid using
 IXCGrd= 4 IRadAn=           5 IRanWt=          -1 IRanGd=           0 AccXCQ= 0.00D+00.
 Generated NRdTot=       0 NPtTot=           0 NUsed=           0 NTot=          32
 NSgBfM=   405   405   405   405   405 MxSgAt=    23 MxSgA2=    23.
 Leave Link  302 at Tue Jun  4 00:19:46 2024, MaxMem= 13421772800 cpu:              14.3 elap:               0.5
 (Enter /tmpu/scunam/7/gaussian-2016.03/g1/g16/l303.exe)
 DipDrv:  MaxL=1.
 Leave Link  303 at Tue Jun  4 00:19:46 2024, MaxMem= 13421772800 cpu:               2.7 elap:               0.1
 (Enter /tmpu/scunam/7/gaussian-2016.03/g1/g16/l401.exe)
 Initial guess from the checkpoint file:  "S36.chk"
 B after Tr=    -0.000000    0.000000    0.000000
         Rot=    1.000000   -0.000000   -0.000000   -0.000000 Ang=   0.00 deg.
 Guess basis will be translated and rotated to current coordinates.
 JPrj=2 DoOrth=T DoCkMO=T.
 Leave Link  401 at Tue Jun  4 00:19:46 2024, MaxMem= 13421772800 cpu:               9.7 elap:               0.3
 (Enter /tmpu/scunam/7/gaussian-2016.03/g1/g16/l502.exe)
 Integral symmetry usage will be decided dynamically.
 Closed shell SCF:
 Using DIIS extrapolation, IDIIS=  1040.
 NGot= 13421772800 LenX= 13421422965 LenY= 13421256060
 Requested convergence on RMS density matrix=1.00D-08 within 128 cycles.
 Requested convergence on MAX density matrix=1.00D-06.
 Requested convergence on             energy=1.00D-06.
 No special actions if energy rises.
 Fock matrices will be formed incrementally for  20 cycles.

 Cycle   1  Pass 1  IDiag  1:
 FoFJK:  IHMeth= 1 ICntrl=       0 DoSepK=F KAlg= 0 I1Cent=           0 FoldK=F
 IRaf= 890000000 NMat=       1 IRICut=       1 DoRegI=T DoRafI=F ISym2E= 0 IDoP0=0 IntGTp=1.
 FoFCou: FMM=F IPFlag=           0 FMFlag=      100000 FMFlg1=           0
         NFxFlg=           0 DoJE=F BraDBF=F KetDBF=F FulRan=T
         wScrn=  0.000000 ICntrl=         0 IOpCl=  0 I1Cent=           0 NGrid=           0
         NMat0=    1 NMatS0=      1 NMatT0=    0 NMatD0=    1 NMtDS0=    0 NMtDT0=    0
 Symmetry not used in FoFCou.
 E= -388.651241974636    
 DIIS: error= 1.04D-08 at cycle   1 NSaved=   1.
 NSaved= 1 IEnMin= 1 EnMin= -388.651241974636     IErMin= 1 ErrMin= 1.04D-08
 ErrMax= 1.04D-08  0.00D+00 EMaxC= 1.00D-01 BMatC= 7.12D-14 BMatP= 7.12D-14
 IDIUse=1 WtCom= 1.00D+00 WtEn= 0.00D+00
 Coeff-Com:  0.100D+01
 Coeff:      0.100D+01
 Gap=     0.216 Goal=   None    Shift=    0.000
 RMSDP=1.79D-09 MaxDP=8.02D-08              OVMax= 1.25D-07

 SCF Done:  E(RB3LYP) =  -388.651241975     A.U. after    1 cycles
            NFock=  1  Conv=0.18D-08     -V/T= 2.0053
 KE= 3.865948308350D+02 PE=-1.760961390934D+03 EE= 5.568706552261D+02
 Leave Link  502 at Tue Jun  4 00:19:50 2024, MaxMem= 13421772800 cpu:             100.7 elap:               3.2
 (Enter /tmpu/scunam/7/gaussian-2016.03/g1/g16/l508.exe)
 QCSCF skips out because SCF is already converged.
 Leave Link  508 at Tue Jun  4 00:19:50 2024, MaxMem= 13421772800 cpu:               1.1 elap:               0.1
 (Enter /tmpu/scunam/7/gaussian-2016.03/g1/g16/l801.exe)
 DoSCS=F DFT=T ScalE2(SS,OS)=  1.000000  1.000000
 Range of M.O.s used for correlation:     1   363
 NBasis=   363 NAE=    35 NBE=    35 NFC=     0 NFV=     0
 NROrb=    363 NOA=    35 NOB=    35 NVA=   328 NVB=   328

 **** Warning!!: The largest alpha MO coefficient is  0.27246415D+02

 Leave Link  801 at Tue Jun  4 00:19:50 2024, MaxMem= 13421772800 cpu:               1.8 elap:               0.1
 (Enter /tmpu/scunam/7/gaussian-2016.03/g1/g16/l1002.exe)
 Minotr:  Closed shell wavefunction.
          Direct CPHF calculation.
          Differentiating once with respect to electric field.
                with respect to dipole field.
          Electric field/nuclear overlap derivatives assumed to be zero.
          Requested convergence is 1.0D-08 RMS, and 1.0D-07 maximum.
          Secondary convergence is 1.0D-12 RMS, and 1.0D-12 maximum.
          NewPWx=F KeepS1=T KeepF1=T KeepIn=T MapXYZ=F SortEE=F KeepMc=T.
         6946 words used for storage of precomputed grid.
 Two-electron integral symmetry used by symmetrizing perturbed Fock matrices.
          MDV=   13421772800 using IRadAn=       1.
          Solving linear equations simultaneously, MaxMat=     384.
          There are     3 degrees of freedom in the 1st order CPHF.  IDoFFX=0 NUNeed=     3.
      3 vectors produced by pass  0 Test12= 3.83D-13 3.33D-08 XBig12= 9.26D+01 6.05D+00.
 AX will form     3 AO Fock derivatives at one time.
 FoFJK:  IHMeth= 1 ICntrl=       0 DoSepK=F KAlg= 0 I1Cent=           0 FoldK=F
 IRaf= 870000000 NMat=       3 IRICut=       1 DoRegI=T DoRafI=F ISym2E=-1 IDoP0=0 IntGTp=1.
 FoFCou: FMM=F IPFlag=           0 FMFlag=      100000 FMFlg1=           0
         NFxFlg=           0 DoJE=F BraDBF=F KetDBF=F FulRan=T
         wScrn=  0.000000 ICntrl=         0 IOpCl=  0 I1Cent=           0 NGrid=           0
         NMat0=    3 NMatS0=      3 NMatT0=    0 NMatD0=    3 NMtDS0=    0 NMtDT0=    0
 Petite list used in FoFCou.
      3 vectors produced by pass  1 Test12= 3.83D-13 3.33D-08 XBig12= 2.09D+01 1.65D+00.
      3 vectors produced by pass  2 Test12= 3.83D-13 3.33D-08 XBig12= 1.04D+01 8.23D-01.
      3 vectors produced by pass  3 Test12= 3.83D-13 3.33D-08 XBig12= 8.34D-01 1.07D-01.
      3 vectors produced by pass  4 Test12= 3.83D-13 3.33D-08 XBig12= 1.60D-01 4.95D-02.
      3 vectors produced by pass  5 Test12= 3.83D-13 3.33D-08 XBig12= 1.59D-02 1.97D-02.
      3 vectors produced by pass  6 Test12= 3.83D-13 3.33D-08 XBig12= 1.63D-03 7.02D-03.
      3 vectors produced by pass  7 Test12= 3.83D-13 3.33D-08 XBig12= 3.85D-04 2.74D-03.
      3 vectors produced by pass  8 Test12= 3.83D-13 3.33D-08 XBig12= 3.09D-05 7.13D-04.
      3 vectors produced by pass  9 Test12= 3.83D-13 3.33D-08 XBig12= 2.17D-06 2.06D-04.
      3 vectors produced by pass 10 Test12= 3.83D-13 3.33D-08 XBig12= 1.38D-07 4.40D-05.
      3 vectors produced by pass 11 Test12= 3.83D-13 3.33D-08 XBig12= 4.69D-09 1.07D-05.
      3 vectors produced by pass 12 Test12= 3.83D-13 3.33D-08 XBig12= 1.83D-10 2.13D-06.
      3 vectors produced by pass 13 Test12= 3.83D-13 3.33D-08 XBig12= 5.70D-12 4.23D-07.
      2 vectors produced by pass 14 Test12= 3.83D-13 3.33D-08 XBig12= 1.94D-13 5.70D-08.
 InvSVY:  IOpt=1 It=  1 EMax= 1.78D-15
 Solved reduced A of dimension    44 with     3 vectors.
 End of Minotr F.D. properties file   721 does not exist.
 End of Minotr F.D. properties file   722 does not exist.
 End of Minotr F.D. properties file   788 does not exist.
 Leave Link 1002 at Tue Jun  4 00:20:48 2024, MaxMem= 13421772800 cpu:            1843.4 elap:              57.7
 (Enter /tmpu/scunam/7/gaussian-2016.03/g1/g16/l1101.exe)
 Using compressed storage, NAtomX=    23.
 Will process     24 centers per pass.
   1 Symmetry operations used in ECPInt.
 ECPInt:  NShTT=   12090 NPrTT=   35220 LenC2=   11307 LenP2D=   25537.
 LDataN:  DoStor=T MaxTD1= 7 Len=  274
 Leave Link 1101 at Tue Jun  4 00:20:49 2024, MaxMem= 13421772800 cpu:              22.8 elap:               0.8
 (Enter /tmpu/scunam/7/gaussian-2016.03/g1/g16/l1102.exe)
 Symmetrizing basis deriv contribution to polar:
 IMax=3 JMax=2 DiffMx= 0.00D+00
 Leave Link 1102 at Tue Jun  4 00:20:50 2024, MaxMem= 13421772800 cpu:               1.5 elap:               0.1
 (Enter /tmpu/scunam/7/gaussian-2016.03/g1/g16/l1110.exe)
 Forming Gx(P) for the SCF density, NAtomX=    23.
 Integral derivatives from FoFJK, PRISM(SPDF).
 Do as many integral derivatives as possible in FoFJK.
 G2DrvN: MDV=   13421771008.
 G2DrvN: will do    24 centers at a time, making    1 passes.
 PxScal for G2LodP:  IOpCl= 0 ISclPx=1 IMOff=     1 NMtTot=     4 NTT=   66066 ScalPx= 3.80D+00
 Calling FoFCou, ICntrl=  3107 FMM=F I1Cent=   0 AccDes= 0.00D+00.
 FoFJK:  IHMeth= 1 ICntrl=    3107 DoSepK=F KAlg= 0 I1Cent=           0 FoldK=F
 IRaf=         0 NMat=       1 IRICut=       1 DoRegI=T DoRafI=F ISym2E= 0 IDoP0=0 IntGTp=1.
 FoFCou: FMM=F IPFlag=           0 FMFlag=      100000 FMFlg1=           0
         NFxFlg=           0 DoJE=F BraDBF=F KetDBF=F FulRan=T
         wScrn=  0.000000 ICntrl=      3107 IOpCl=  0 I1Cent=           0 NGrid=           0
         NMat0=    1 NMatS0=      1 NMatT0=    0 NMatD0=    4 NMtDS0=    3 NMtDT0=    0
 Symmetry not used in FoFCou.
 End of G2Drv F.D. properties file   721 does not exist.
 End of G2Drv F.D. properties file   722 does not exist.
 End of G2Drv F.D. properties file   788 does not exist.
 Leave Link 1110 at Tue Jun  4 00:22:18 2024, MaxMem= 13421772800 cpu:            2829.0 elap:              88.5
 (Enter /tmpu/scunam/7/gaussian-2016.03/g1/g16/l1002.exe)
 Minotr:  Closed shell wavefunction.
          IDoAtm=11111111111111111111111
          Direct CPHF calculation.
          Differentiating once with respect to electric field.
                with respect to dipole field.
          Differentiating once with respect to nuclear coordinates.
          Requested convergence is 1.0D-08 RMS, and 1.0D-07 maximum.
          Secondary convergence is 1.0D-12 RMS, and 1.0D-12 maximum.
          NewPWx=T KeepS1=F KeepF1=F KeepIn=T MapXYZ=F SortEE=F KeepMc=T.
         6946 words used for storage of precomputed grid.
 Keep R1 ints in memory in canonical form, NReq=2219400937.
 FoFCou: FMM=F IPFlag=           0 FMFlag=           0 FMFlg1=           0
         NFxFlg=           0 DoJE=F BraDBF=F KetDBF=F FulRan=T
         wScrn=  0.000000 ICntrl=       600 IOpCl=  0 I1Cent=           0 NGrid=           0
         NMat0=    1 NMatS0=  66066 NMatT0=    0 NMatD0=    1 NMtDS0=    0 NMtDT0=    0
 Symmetry not used in FoFCou.
 Two-electron integral symmetry not used.
          MDV=   13421772800 using IRadAn=       1.
          Solving linear equations simultaneously, MaxMat=       0.
          There are    72 degrees of freedom in the 1st order CPHF.  IDoFFX=5 NUNeed=    72.
 Will reuse    3 saved solutions.
     66 vectors produced by pass  0 Test12= 1.59D-14 1.39D-09 XBig12= 8.85D-02 8.27D-02.
 AX will form    66 AO Fock derivatives at one time.
     66 vectors produced by pass  1 Test12= 1.59D-14 1.39D-09 XBig12= 1.31D-02 4.50D-02.
     66 vectors produced by pass  2 Test12= 1.59D-14 1.39D-09 XBig12= 1.39D-04 2.43D-03.
     66 vectors produced by pass  3 Test12= 1.59D-14 1.39D-09 XBig12= 5.01D-07 9.54D-05.
     66 vectors produced by pass  4 Test12= 1.59D-14 1.39D-09 XBig12= 9.77D-10 3.82D-06.
     47 vectors produced by pass  5 Test12= 1.59D-14 1.39D-09 XBig12= 1.24D-12 1.26D-07.
     14 vectors produced by pass  6 Test12= 1.59D-14 1.39D-09 XBig12= 1.37D-15 4.62D-09.
 InvSVY:  IOpt=1 It=  1 EMax= 3.89D-16
 Solved reduced A of dimension   391 with    72 vectors.
 FullF1:  Do perturbations      1 to       3.
 Isotropic polarizability for W=    0.000000      102.04 Bohr**3.
 FullF1:  Do perturbations      1 to       6.
 End of Minotr F.D. properties file   721 does not exist.
 End of Minotr F.D. properties file   722 does not exist.
 End of Minotr F.D. properties file   788 does not exist.
 Leave Link 1002 at Tue Jun  4 00:23:43 2024, MaxMem= 13421772800 cpu:            2708.5 elap:              84.8
 (Enter /tmpu/scunam/7/gaussian-2016.03/g1/g16/l601.exe)
 Copying SCF densities to generalized density rwf, IOpCl= 0 IROHF=0.

 **********************************************************************

            Population analysis using the SCF density.

 **********************************************************************

 Orbital symmetries:
       Occupied  (A) (A) (A) (A) (A) (A) (A) (A) (A) (A) (A) (A)
                 (A) (A) (A) (A) (A) (A) (A) (A) (A) (A) (A) (A)
                 (A) (A) (A) (A) (A) (A) (A) (A) (A) (A) (A)
       Virtual   (A) (A) (A) (A) (A) (A) (A) (A) (A) (A) (A) (A)
                 (A) (A) (A) (A) (A) (A) (A) (A) (A) (A) (A) (A)
                 (A) (A) (A) (A) (A) (A) (A) (A) (A) (A) (A) (A)
                 (A) (A) (A) (A) (A) (A) (A) (A) (A) (A) (A) (A)
                 (A) (A) (A) (A) (A) (A) (A) (A) (A) (A) (A) (A)
                 (A) (A) (A) (A) (A) (A) (A) (A) (A) (A) (A) (A)
                 (A) (A) (A) (A) (A) (A) (A) (A) (A) (A) (A) (A)
                 (A) (A) (A) (A) (A) (A) (A) (A) (A) (A) (A) (A)
                 (A) (A) (A) (A) (A) (A) (A) (A) (A) (A) (A) (A)
                 (A) (A) (A) (A) (A) (A) (A) (A) (A) (A) (A) (A)
                 (A) (A) (A) (A) (A) (A) (A) (A) (A) (A) (A) (A)
                 (A) (A) (A) (A) (A) (A) (A) (A) (A) (A) (A) (A)
                 (A) (A) (A) (A) (A) (A) (A) (A) (A) (A) (A) (A)
                 (A) (A) (A) (A) (A) (A) (A) (A) (A) (A) (A) (A)
                 (A) (A) (A) (A) (A) (A) (A) (A) (A) (A) (A) (A)
                 (A) (A) (A) (A) (A) (A) (A) (A) (A) (A) (A) (A)
                 (A) (A) (A) (A) (A) (A) (A) (A) (A) (A) (A) (A)
                 (A) (A) (A) (A) (A) (A) (A) (A) (A) (A) (A) (A)
                 (A) (A) (A) (A) (A) (A) (A) (A) (A) (A) (A) (A)
                 (A) (A) (A) (A) (A) (A) (A) (A) (A) (A) (A) (A)
                 (A) (A) (A) (A) (A) (A) (A) (A) (A) (A) (A) (A)
                 (A) (A) (A) (A) (A) (A) (A) (A) (A) (A) (A) (A)
                 (A) (A) (A) (A) (A) (A) (A) (A) (A) (A) (A) (A)
                 (A) (A) (A) (A) (A) (A) (A) (A) (A) (A) (A) (A)
                 (A) (A) (A) (A) (A) (A) (A) (A) (A) (A) (A) (A)
                 (A) (A) (A) (A) (A) (A) (A) (A) (A) (A) (A) (A)
                 (A) (A) (A) (A) (A) (A) (A) (A) (A) (A) (A) (A)
                 (A) (A) (A) (A)
 The electronic state is 1-A.
 Alpha  occ. eigenvalues --  -19.11657 -10.26291 -10.18284 -10.17789 -10.17752
 Alpha  occ. eigenvalues --  -10.17074 -10.16545 -10.16431 -10.16215  -1.04734
 Alpha  occ. eigenvalues --   -0.82254  -0.78846  -0.74893  -0.69527  -0.69163
 Alpha  occ. eigenvalues --   -0.62352  -0.53295  -0.52025  -0.48427  -0.47364
 Alpha  occ. eigenvalues --   -0.45822  -0.44762  -0.43551  -0.43059  -0.42021
 Alpha  occ. eigenvalues --   -0.39659  -0.38810  -0.37603  -0.37450  -0.36902
 Alpha  occ. eigenvalues --   -0.35979  -0.34778  -0.33024  -0.25979  -0.23750
 Alpha virt. eigenvalues --   -0.02154   0.01532   0.02453   0.03733   0.06371
 Alpha virt. eigenvalues --    0.06569   0.08723   0.09093   0.09590   0.10389
 Alpha virt. eigenvalues --    0.10927   0.11270   0.12518   0.13384   0.13816
 Alpha virt. eigenvalues --    0.14413   0.15313   0.16216   0.16947   0.17846
 Alpha virt. eigenvalues --    0.17989   0.18483   0.20798   0.21074   0.21905
 Alpha virt. eigenvalues --    0.22732   0.23257   0.25600   0.26429   0.27967
 Alpha virt. eigenvalues --    0.29942   0.30879   0.31215   0.31722   0.32905
 Alpha virt. eigenvalues --    0.34100   0.36065   0.36562   0.36994   0.38267
 Alpha virt. eigenvalues --    0.39770   0.39932   0.40766   0.41119   0.41902
 Alpha virt. eigenvalues --    0.42896   0.43316   0.43880   0.45150   0.45196
 Alpha virt. eigenvalues --    0.45472   0.46071   0.46780   0.47534   0.47618
 Alpha virt. eigenvalues --    0.48462   0.48904   0.49514   0.51670   0.52568
 Alpha virt. eigenvalues --    0.54176   0.55427   0.55980   0.57899   0.58847
 Alpha virt. eigenvalues --    0.59823   0.61816   0.62697   0.63402   0.64883
 Alpha virt. eigenvalues --    0.66254   0.68395   0.69941   0.71362   0.72057
 Alpha virt. eigenvalues --    0.75489   0.77851   0.78263   0.80727   0.84193
 Alpha virt. eigenvalues --    0.84699   0.86239   0.86817   0.88261   0.91046
 Alpha virt. eigenvalues --    0.93219   0.94445   0.96644   0.97406   0.98471
 Alpha virt. eigenvalues --    0.99196   1.00390   1.01383   1.03921   1.05167
 Alpha virt. eigenvalues --    1.07514   1.09501   1.11191   1.11604   1.13305
 Alpha virt. eigenvalues --    1.14919   1.16029   1.16467   1.19232   1.23387
 Alpha virt. eigenvalues --    1.23661   1.24977   1.26043   1.29780   1.34959
 Alpha virt. eigenvalues --    1.35651   1.39579   1.42458   1.44052   1.44630
 Alpha virt. eigenvalues --    1.46232   1.48726   1.50190   1.50932   1.51730
 Alpha virt. eigenvalues --    1.52898   1.53409   1.54243   1.54973   1.56135
 Alpha virt. eigenvalues --    1.56777   1.57689   1.57949   1.58648   1.58823
 Alpha virt. eigenvalues --    1.60616   1.61172   1.63133   1.64081   1.64622
 Alpha virt. eigenvalues --    1.67179   1.68526   1.71263   1.78572   1.80625
 Alpha virt. eigenvalues --    1.80984   1.83372   1.85659   1.87168   1.88472
 Alpha virt. eigenvalues --    1.89053   1.92927   1.93345   1.94341   1.95871
 Alpha virt. eigenvalues --    1.97125   1.99925   2.02351   2.03032   2.04440
 Alpha virt. eigenvalues --    2.07044   2.07496   2.09061   2.11154   2.14539
 Alpha virt. eigenvalues --    2.15619   2.17074   2.18968   2.21429   2.21816
 Alpha virt. eigenvalues --    2.24722   2.26719   2.28170   2.30751   2.32233
 Alpha virt. eigenvalues --    2.33295   2.34590   2.35266   2.35468   2.37916
 Alpha virt. eigenvalues --    2.39371   2.40370   2.42541   2.44402   2.47130
 Alpha virt. eigenvalues --    2.49590   2.49916   2.51026   2.51110   2.51888
 Alpha virt. eigenvalues --    2.53400   2.53558   2.55055   2.56426   2.57221
 Alpha virt. eigenvalues --    2.58042   2.60808   2.64331   2.65770   2.67348
 Alpha virt. eigenvalues --    2.68746   2.70185   2.70836   2.73969   2.75477
 Alpha virt. eigenvalues --    2.76772   2.78137   2.79478   2.82449   2.86161
 Alpha virt. eigenvalues --    2.87447   2.90684   2.92440   2.93292   2.95369
 Alpha virt. eigenvalues --    2.95891   2.97529   3.00049   3.01692   3.01901
 Alpha virt. eigenvalues --    3.03023   3.03843   3.04869   3.07357   3.08833
 Alpha virt. eigenvalues --    3.09274   3.10708   3.11759   3.12492   3.15187
 Alpha virt. eigenvalues --    3.16450   3.17784   3.18519   3.19606   3.20728
 Alpha virt. eigenvalues --    3.23441   3.25408   3.26509   3.26964   3.28293
 Alpha virt. eigenvalues --    3.30830   3.31199   3.32376   3.33464   3.34121
 Alpha virt. eigenvalues --    3.35273   3.36910   3.37144   3.38671   3.40793
 Alpha virt. eigenvalues --    3.41398   3.44186   3.45219   3.46143   3.48338
 Alpha virt. eigenvalues --    3.49075   3.49876   3.51804   3.54333   3.55772
 Alpha virt. eigenvalues --    3.56694   3.61302   3.63332   3.67982   3.70624
 Alpha virt. eigenvalues --    3.73288   3.74806   3.76798   3.78457   3.81194
 Alpha virt. eigenvalues --    3.83230   3.85885   3.88558   3.90990   3.91821
 Alpha virt. eigenvalues --    3.93024   3.95097   3.99403   4.01349   4.02422
 Alpha virt. eigenvalues --    4.04961   4.06435   4.11416   4.12568   4.18994
 Alpha virt. eigenvalues --    4.21229   4.24002   4.29019   4.33137   4.33626
 Alpha virt. eigenvalues --    4.36625   4.39087   4.41209   4.43221   4.44856
 Alpha virt. eigenvalues --    4.46455   4.48576   4.52673   4.55541   4.57389
 Alpha virt. eigenvalues --    4.60602   4.66099   4.71576   4.75020   4.78805
 Alpha virt. eigenvalues --    4.82976   4.84449   4.93409   5.03269   5.09962
 Alpha virt. eigenvalues --    5.19220   5.19698   5.24634   5.39159   5.60006
 Alpha virt. eigenvalues --    5.69567   6.14541   6.32843   6.38361   6.52955
 Alpha virt. eigenvalues --    6.54402   6.81121   7.02215   7.07330  22.20039
 Alpha virt. eigenvalues --   22.30446  22.37269  22.42489  22.44472  22.57464
 Alpha virt. eigenvalues --   22.97729  23.05470  43.85538
          Condensed to atoms (all electrons):
               1          2          3          4          5          6
     1  O    7.807139   0.011439  -0.156838   0.002758  -0.000277   0.680272
     2  C    0.011439   4.903169   0.268129   0.248532  -0.028126  -0.029639
     3  C   -0.156838   0.268129   5.604905  -0.066922   0.007187   0.149345
     4  C    0.002758   0.248532  -0.066922   5.117090   0.669044   0.011473
     5  C   -0.000277  -0.028126   0.007187   0.669044   5.022264  -0.001608
     6  C    0.680272  -0.029639   0.149345   0.011473  -0.001608   4.762819
     7  C    0.000000   0.012650  -0.000268  -0.050609   0.301711   0.000039
     8  C    0.000088  -0.022653  -0.001172  -0.047923   0.286978   0.000265
     9  C   -0.094695   0.016598  -0.233239   0.000012  -0.000104   0.348233
    10  H    0.009398   0.437326  -0.054390  -0.067508   0.008119   0.002955
    11  H    0.009172   0.429104  -0.062251  -0.041264  -0.006038   0.000666
    12  H    0.003489  -0.032618   0.359999   0.000054   0.001721  -0.012363
    13  H    0.004006  -0.028680   0.365165  -0.004949   0.000634  -0.014667
    14  H    0.000110  -0.041483  -0.001827   0.384063  -0.032847   0.000379
    15  H   -0.000000  -0.000718  -0.000095  -0.003381  -0.042362   0.000000
    16  H    0.000000  -0.000639   0.000297  -0.006903  -0.043601  -0.000003
    17  H   -0.000000   0.001216  -0.000067   0.003118  -0.056288   0.000004
    18  H   -0.000151   0.001991  -0.000096  -0.007514  -0.050543  -0.000272
    19  H    0.000001  -0.000079   0.000881  -0.004229  -0.044813  -0.000034
    20  H   -0.000002   0.000261  -0.000339   0.000791  -0.046284   0.000008
    21  H    0.003728  -0.000505   0.022748   0.000027  -0.000005  -0.041489
    22  H    0.009349  -0.000888   0.017308   0.000014   0.000003  -0.041785
    23  H    0.002455  -0.001077   0.012994  -0.000197   0.000031  -0.029044
               7          8          9         10         11         12
     1  O    0.000000   0.000088  -0.094695   0.009398   0.009172   0.003489
     2  C    0.012650  -0.022653   0.016598   0.437326   0.429104  -0.032618
     3  C   -0.000268  -0.001172  -0.233239  -0.054390  -0.062251   0.359999
     4  C   -0.050609  -0.047923   0.000012  -0.067508  -0.041264   0.000054
     5  C    0.301711   0.286978  -0.000104   0.008119  -0.006038   0.001721
     6  C    0.000039   0.000265   0.348233   0.002955   0.000666  -0.012363
     7  C    4.932079  -0.071805  -0.000002   0.000069  -0.000641  -0.000218
     8  C   -0.071805   4.942797   0.000029  -0.003651   0.001606   0.000043
     9  C   -0.000002   0.000029   5.146138   0.001861   0.001386   0.004639
    10  H    0.000069  -0.003651   0.001861   0.574296  -0.015276   0.007110
    11  H   -0.000641   0.001606   0.001386  -0.015276   0.571938  -0.002383
    12  H   -0.000218   0.000043   0.004639   0.007110  -0.002383   0.583286
    13  H    0.000074   0.000081   0.009954  -0.002984   0.007461  -0.022996
    14  H   -0.016608   0.009766   0.000163   0.005628  -0.001614   0.004186
    15  H    0.399603  -0.000289  -0.000000   0.000012   0.000142   0.000007
    16  H    0.407652  -0.002144   0.000000  -0.000020  -0.000042  -0.000009
    17  H    0.411328   0.008112  -0.000000   0.000031  -0.000073   0.000049
    18  H    0.007999   0.421582  -0.000036   0.007124  -0.000225  -0.000054
    19  H   -0.000897   0.404435   0.000002  -0.000000  -0.000182  -0.000004
    20  H   -0.003567   0.404355  -0.000001  -0.000360   0.000299   0.000004
    21  H   -0.000001  -0.000001   0.373406  -0.000111  -0.000067  -0.002000
    22  H    0.000000  -0.000001   0.391905  -0.000078  -0.000035  -0.000793
    23  H    0.000001  -0.000007   0.371144  -0.000057  -0.000110   0.000537
              13         14         15         16         17         18
     1  O    0.004006   0.000110  -0.000000   0.000000  -0.000000  -0.000151
     2  C   -0.028680  -0.041483  -0.000718  -0.000639   0.001216   0.001991
     3  C    0.365165  -0.001827  -0.000095   0.000297  -0.000067  -0.000096
     4  C   -0.004949   0.384063  -0.003381  -0.006903   0.003118  -0.007514
     5  C    0.000634  -0.032847  -0.042362  -0.043601  -0.056288  -0.050543
     6  C   -0.014667   0.000379   0.000000  -0.000003   0.000004  -0.000272
     7  C    0.000074  -0.016608   0.399603   0.407652   0.411328   0.007999
     8  C    0.000081   0.009766  -0.000289  -0.002144   0.008112   0.421582
     9  C    0.009954   0.000163  -0.000000   0.000000  -0.000000  -0.000036
    10  H   -0.002984   0.005628   0.000012  -0.000020   0.000031   0.007124
    11  H    0.007461  -0.001614   0.000142  -0.000042  -0.000073  -0.000225
    12  H   -0.022996   0.004186   0.000007  -0.000009   0.000049  -0.000054
    13  H    0.575320   0.000726   0.000017  -0.000047  -0.000038   0.000187
    14  H    0.000726   0.595387   0.000456   0.000376   0.005641   0.000225
    15  H    0.000017   0.000456   0.599897  -0.043418  -0.023041  -0.000087
    16  H   -0.000047   0.000376  -0.043418   0.600783  -0.023682  -0.000072
    17  H   -0.000038   0.005641  -0.023041  -0.023682   0.569629  -0.000404
    18  H    0.000187   0.000225  -0.000087  -0.000072  -0.000404   0.562995
    19  H   -0.000245  -0.000353  -0.002008   0.006441  -0.000052  -0.024345
    20  H    0.000046  -0.000418   0.006607  -0.001807  -0.000107  -0.023030
    21  H   -0.001155  -0.000022   0.000000  -0.000000   0.000000   0.000000
    22  H   -0.000193  -0.000002   0.000000  -0.000000   0.000000   0.000001
    23  H   -0.002533  -0.000003  -0.000000  -0.000000  -0.000000   0.000008
              19         20         21         22         23
     1  O    0.000001  -0.000002   0.003728   0.009349   0.002455
     2  C   -0.000079   0.000261  -0.000505  -0.000888  -0.001077
     3  C    0.000881  -0.000339   0.022748   0.017308   0.012994
     4  C   -0.004229   0.000791   0.000027   0.000014  -0.000197
     5  C   -0.044813  -0.046284  -0.000005   0.000003   0.000031
     6  C   -0.000034   0.000008  -0.041489  -0.041785  -0.029044
     7  C   -0.000897  -0.003567  -0.000001   0.000000   0.000001
     8  C    0.404435   0.404355  -0.000001  -0.000001  -0.000007
     9  C    0.000002  -0.000001   0.373406   0.391905   0.371144
    10  H   -0.000000  -0.000360  -0.000111  -0.000078  -0.000057
    11  H   -0.000182   0.000299  -0.000067  -0.000035  -0.000110
    12  H   -0.000004   0.000004  -0.002000  -0.000793   0.000537
    13  H   -0.000245   0.000046  -0.001155  -0.000193  -0.002533
    14  H   -0.000353  -0.000418  -0.000022  -0.000002  -0.000003
    15  H   -0.002008   0.006607   0.000000   0.000000  -0.000000
    16  H    0.006441  -0.001807  -0.000000  -0.000000  -0.000000
    17  H   -0.000052  -0.000107   0.000000   0.000000  -0.000000
    18  H   -0.024345  -0.023030   0.000000   0.000001   0.000008
    19  H    0.596218  -0.040075  -0.000000  -0.000000  -0.000000
    20  H   -0.040075   0.590789   0.000000   0.000000   0.000000
    21  H   -0.000000   0.000000   0.572452  -0.018378  -0.025604
    22  H   -0.000000   0.000000  -0.018378   0.526657  -0.013997
    23  H   -0.000000   0.000000  -0.025604  -0.013997   0.561897
 Mulliken charges:
               1
     1  O   -0.291441
     2  C   -0.143310
     3  C   -0.231455
     4  C   -0.135572
     5  C    0.055205
     6  C    0.214445
     7  C   -0.328590
     8  C   -0.330492
     9  C   -0.337392
    10  H    0.090508
    11  H    0.108429
    12  H    0.108313
    13  H    0.114816
    14  H    0.088074
    15  H    0.108661
    16  H    0.106837
    17  H    0.104626
    18  H    0.104717
    19  H    0.109338
    20  H    0.112830
    21  H    0.116976
    22  H    0.130915
    23  H    0.123561
 Sum of Mulliken charges =  -0.00000
 Mulliken charges with hydrogens summed into heavy atoms:
               1
     1  O   -0.291441
     2  C    0.055627
     3  C   -0.008326
     4  C   -0.047498
     5  C    0.055205
     6  C    0.214445
     7  C   -0.008466
     8  C   -0.003606
     9  C    0.034060
 APT charges:
               1
     1  O   -0.688665
     2  C    0.074777
     3  C   -0.076957
     4  C   -0.042404
     5  C    0.093355
     6  C    0.822521
     7  C    0.064368
     8  C    0.040808
     9  C   -0.129841
    10  H   -0.015636
    11  H   -0.017389
    12  H   -0.005449
    13  H   -0.006451
    14  H   -0.013738
    15  H   -0.034111
    16  H   -0.034190
    17  H   -0.014764
    18  H   -0.006614
    19  H   -0.022003
    20  H   -0.022853
    21  H    0.014671
    22  H    0.002922
    23  H    0.017643
 Sum of APT charges =   0.00000
 APT charges with hydrogens summed into heavy atoms:
               1
     1  O   -0.688665
     2  C    0.041753
     3  C   -0.088858
     4  C   -0.056142
     5  C    0.093355
     6  C    0.822521
     7  C   -0.018696
     8  C   -0.010662
     9  C   -0.094606
 Electronic spatial extent (au):  <R**2>=           2109.6275
 Charge=              0.0000 electrons
 Dipole moment (field-independent basis, Debye):
    X=             -0.7731    Y=             -2.0525    Z=              1.6734  Tot=              2.7587
 Quadrupole moment (field-independent basis, Debye-Ang):
   XX=            -57.4949   YY=            -58.6460   ZZ=            -57.6997
   XY=             -7.0095   XZ=              3.8934   YZ=              2.5614
 Traceless Quadrupole moment (field-independent basis, Debye-Ang):
   XX=              0.4520   YY=             -0.6991   ZZ=              0.2471
   XY=             -7.0095   XZ=              3.8934   YZ=              2.5614
 Octapole moment (field-independent basis, Debye-Ang**2):
  XXX=              4.5039  YYY=             -0.6097  ZZZ=              1.2225  XYY=             -1.5635
  XXY=            -15.4577  XXZ=             14.4780  XZZ=              4.2553  YZZ=             -0.6606
  YYZ=             -0.6616  XYZ=              4.5605
 Hexadecapole moment (field-independent basis, Debye-Ang**3):
 XXXX=          -2345.1862 YYYY=           -308.8420 ZZZZ=           -197.7248 XXXY=            -51.9936
 XXXZ=             30.7648 YYYX=             -2.3473 YYYZ=              3.1116 ZZZX=             -7.1079
 ZZZY=             -2.2933 XXYY=           -464.5895 XXZZ=           -434.7191 YYZZ=            -88.0660
 XXYZ=             11.8308 YYXZ=              5.7436 ZZXY=              1.6907
 N-N= 4.288446628983D+02 E-N=-1.760961388063D+03  KE= 3.865948308350D+02
  Exact polarizability: 131.745  -2.636  91.017  -4.827  -0.030  83.344
 Approx polarizability: 156.817  -4.311 137.635 -13.462  -2.833 129.548
 No NMR shielding tensors so no spin-rotation constants.
 Leave Link  601 at Tue Jun  4 00:23:44 2024, MaxMem= 13421772800 cpu:              10.1 elap:               0.4
 (Enter /tmpu/scunam/7/gaussian-2016.03/g1/g16/l701.exe)
 ... and contract with generalized density number  0.
 Compute integral second derivatives.
   1 Symmetry operations used in ECPInt.
 ECPInt:  NShTT=   12090 NPrTT=   35220 LenC2=   11307 LenP2D=   25537.
 LDataN:  DoStor=T MaxTD1= 8 Len=  415
 Leave Link  701 at Tue Jun  4 00:23:44 2024, MaxMem= 13421772800 cpu:              10.4 elap:               0.4
 (Enter /tmpu/scunam/7/gaussian-2016.03/g1/g16/l702.exe)
 L702 exits ... SP integral derivatives will be done elsewhere.
 Leave Link  702 at Tue Jun  4 00:23:44 2024, MaxMem= 13421772800 cpu:               1.6 elap:               0.1
 (Enter /tmpu/scunam/7/gaussian-2016.03/g1/g16/l703.exe)
 Integral derivatives from FoFJK, PRISM(SPDF).
 Compute integral second derivatives, UseDBF=F ICtDFT=           0.
 Calling FoFJK, ICntrl=    100127 FMM=F ISym2X=0 I1Cent= 0 IOpClX= 0 NMat=1 NMatS=1 NMatT=0.
 FoFJK:  IHMeth= 1 ICntrl=  100127 DoSepK=F KAlg= 0 I1Cent=           0 FoldK=F
 IRaf=         0 NMat=       1 IRICut=       1 DoRegI=T DoRafI=F ISym2E= 0 IDoP0=0 IntGTp=1.
 FoFCou: FMM=F IPFlag=           0 FMFlag=      100000 FMFlg1=         800
         NFxFlg=           0 DoJE=F BraDBF=F KetDBF=F FulRan=T
         wScrn=  0.000000 ICntrl=    100127 IOpCl=  0 I1Cent=           0 NGrid=           0
         NMat0=    1 NMatS0=      1 NMatT0=    0 NMatD0=    1 NMtDS0=    0 NMtDT0=    0
 Symmetry not used in FoFCou.
 Leave Link  703 at Tue Jun  4 00:25:42 2024, MaxMem= 13421772800 cpu:            3762.7 elap:             118.2
 (Enter /tmpu/scunam/7/gaussian-2016.03/g1/g16/l716.exe)
 Dipole        =-3.04164062D-01-8.07503179D-01 6.58369807D-01
 Polarizability= 1.31745060D+02-2.63629849D+00 9.10171403D+01
                -4.82654034D+00-2.95840042D-02 8.33444488D+01
 HyperPolar    =-9.97161940D+01 4.35873237D+00-1.17063802D+01
                -9.26659632D+01 2.34166743D+01-3.55378752D-01
                -1.36546506D+01-2.82034021D+01-2.65838716D+01
                 8.72969502D+01
 Full mass-weighted force constant matrix:
 Low frequencies ---   -7.9525   -0.0006   -0.0006   -0.0005    1.9876    3.0238
 Low frequencies ---   25.3352   44.0596   72.3798
 Diagonal vibrational polarizability:
       25.5332386      42.9134965      94.7050545
 Diagonal vibrational hyperpolarizability:
      107.9520050   -1218.5529982    2011.2699344
 Harmonic frequencies (cm**-1), IR intensities (KM/Mole), Raman scattering
 activities (A**4/AMU), depolarization ratios for plane and unpolarized
 incident light, reduced masses (AMU), force constants (mDyne/A),
 and normal coordinates:
                      1                      2                      3
                      A                      A                      A
 Frequencies --     25.3180                44.0352                72.3796
 Red. masses --      2.7520                 2.9066                 1.7143
 Frc consts  --      0.0010                 0.0033                 0.0053
 IR Inten    --      3.2236                 0.1912                 0.8835
 Raman Activ --      2.2256                 1.4234                 0.3644
 Depolar (P) --      0.7493                 0.6884                 0.7265
 Depolar (U) --      0.8567                 0.8155                 0.8416
  Atom  AN      X      Y      Z        X      Y      Z        X      Y      Z
     1   8    -0.06   0.13   0.17     0.04  -0.06  -0.08     0.02  -0.05  -0.07
     2   6     0.00  -0.06   0.00     0.00   0.09   0.22     0.00   0.03  -0.02
     3   6     0.02  -0.03   0.01     0.04   0.02   0.07    -0.04   0.12   0.17
     4   6     0.01  -0.06   0.06     0.03   0.04   0.13     0.00   0.02  -0.03
     5   6    -0.01   0.01  -0.01    -0.05   0.01   0.00     0.00  -0.01  -0.01
     6   6     0.00   0.01   0.02     0.05  -0.03  -0.04    -0.00   0.01   0.02
     7   6    -0.00  -0.01   0.07    -0.01  -0.04  -0.11     0.01  -0.02  -0.04
     8   6    -0.03   0.09  -0.17    -0.18   0.02  -0.06     0.00  -0.04   0.03
     9   6     0.06  -0.10  -0.16     0.08  -0.04  -0.09     0.01  -0.04  -0.04
    10   1     0.01  -0.04  -0.03    -0.02   0.02   0.36    -0.04   0.08  -0.15
    11   1    -0.02  -0.10  -0.01    -0.02   0.25   0.23     0.07  -0.11  -0.02
    12   1     0.04  -0.03   0.02    -0.03   0.05  -0.01    -0.11   0.01   0.41
    13   1     0.02  -0.02   0.01     0.14  -0.05   0.08    -0.05   0.39   0.20
    14   1     0.02  -0.11   0.17     0.11   0.03   0.15     0.01   0.03  -0.05
    15   1     0.00  -0.07  -0.01     0.02  -0.09  -0.22     0.00  -0.01  -0.02
    16   1    -0.02   0.11   0.10    -0.11  -0.03  -0.14     0.02  -0.05  -0.04
    17   1     0.01  -0.07   0.19     0.09  -0.05  -0.06     0.01   0.00  -0.07
    18   1    -0.03   0.10  -0.22    -0.21   0.05   0.05    -0.01  -0.03   0.03
    19   1    -0.05   0.22  -0.15    -0.33   0.04  -0.10     0.03  -0.08   0.04
    20   1    -0.02   0.03  -0.26    -0.13  -0.01  -0.18    -0.02  -0.03   0.08
    21   1     0.19  -0.04  -0.50    -0.05  -0.06   0.06     0.20   0.02  -0.41
    22   1     0.02   0.10  -0.01     0.09  -0.17  -0.26    -0.02   0.19   0.18
    23   1     0.03  -0.46  -0.11     0.23   0.13  -0.09    -0.13  -0.44  -0.01
                      4                      5                      6
                      A                      A                      A
 Frequencies --     88.6697                99.1188               143.9392
 Red. masses --      2.6902                 1.4065                 1.0541
 Frc consts  --      0.0125                 0.0081                 0.0129
 IR Inten    --      1.3189                 0.1629                 0.3598
 Raman Activ --      1.1399                 0.0993                 0.2894
 Depolar (P) --      0.7443                 0.6225                 0.7385
 Depolar (U) --      0.8534                 0.7673                 0.8496
  Atom  AN      X      Y      Z        X      Y      Z        X      Y      Z
     1   8    -0.11   0.01  -0.04     0.04  -0.04  -0.05    -0.02  -0.01  -0.00
     2   6     0.01  -0.13   0.07    -0.00   0.04   0.03     0.01  -0.01   0.02
     3   6     0.05  -0.10   0.04     0.02  -0.04  -0.10     0.01  -0.02   0.01
     4   6    -0.01  -0.09   0.06     0.00   0.03   0.02     0.00   0.00   0.00
     5   6    -0.01  -0.00   0.01    -0.01   0.01   0.02    -0.01   0.01  -0.01
     6   6     0.00   0.01  -0.00     0.01  -0.01  -0.02     0.00  -0.01   0.00
     7   6    -0.10   0.15  -0.14     0.01  -0.02   0.03    -0.01   0.02  -0.03
     8   6     0.08  -0.02   0.05    -0.05   0.02  -0.01    -0.00  -0.00   0.01
     9   6     0.09   0.14  -0.02    -0.03   0.03   0.08     0.02   0.01  -0.00
    10   1     0.02  -0.13   0.06     0.02  -0.01   0.15     0.02  -0.02   0.04
    11   1    -0.01  -0.13   0.07    -0.04   0.15   0.04     0.01   0.00   0.02
    12   1     0.10  -0.09   0.03     0.04   0.02  -0.26     0.01  -0.02  -0.01
    13   1     0.08  -0.12   0.05     0.02  -0.21  -0.12     0.01  -0.04   0.01
    14   1    -0.06  -0.07   0.03     0.02   0.02   0.03    -0.00   0.00   0.00
    15   1     0.02   0.27  -0.21    -0.00  -0.05   0.02     0.06  -0.04  -0.20
    16   1    -0.24   0.16  -0.18     0.02  -0.02   0.03    -0.13   0.17  -0.04
    17   1    -0.16   0.15  -0.16     0.04  -0.03   0.04     0.04  -0.06   0.12
    18   1     0.16  -0.16   0.24    -0.06   0.04  -0.01    -0.13   0.24  -0.43
    19   1    -0.11  -0.03  -0.01    -0.06   0.03  -0.01     0.52  -0.05   0.18
    20   1     0.25   0.13  -0.03    -0.05  -0.01  -0.03    -0.38  -0.23   0.34
    21   1     0.30   0.15  -0.15     0.27   0.09  -0.29     0.04   0.01  -0.00
    22   1     0.03   0.34   0.06    -0.06   0.34   0.45     0.01   0.03  -0.01
    23   1     0.02  -0.02  -0.01    -0.35  -0.38   0.08     0.02   0.01  -0.00
                      7                      8                      9
                      A                      A                      A
 Frequencies --    188.3389               221.7195               285.4449
 Red. masses --      1.3887                 2.4327                 2.6603
 Frc consts  --      0.0290                 0.0705                 0.1277
 IR Inten    --      3.2672                 3.6423                 0.6681
 Raman Activ --      0.0513                 0.5945                 1.2788
 Depolar (P) --      0.6219                 0.1910                 0.0889
 Depolar (U) --      0.7669                 0.3207                 0.1633
  Atom  AN      X      Y      Z        X      Y      Z        X      Y      Z
     1   8    -0.09  -0.03   0.00     0.19   0.05   0.01    -0.00   0.03  -0.05
     2   6     0.02   0.00   0.05    -0.04  -0.06  -0.03    -0.06   0.08   0.16
     3   6    -0.01  -0.06   0.04     0.06   0.06  -0.04    -0.02   0.07   0.02
     4   6     0.01   0.04  -0.04    -0.05  -0.09   0.07     0.04  -0.10   0.00
     5   6     0.01   0.03  -0.05    -0.07  -0.03   0.01     0.04  -0.10  -0.03
     6   6    -0.02  -0.03   0.02     0.09   0.06  -0.02    -0.04   0.06  -0.02
     7   6     0.04  -0.01   0.02    -0.14   0.05  -0.01    -0.04   0.02   0.01
     8   6    -0.00   0.03  -0.04    -0.06  -0.02  -0.01     0.21  -0.04  -0.10
     9   6     0.04   0.03  -0.01     0.02  -0.03   0.02    -0.13  -0.05  -0.01
    10   1     0.04  -0.03   0.11    -0.07  -0.02  -0.12    -0.19  -0.03   0.38
    11   1     0.08   0.06   0.07    -0.13  -0.14  -0.07    -0.03   0.35   0.21
    12   1    -0.02  -0.04   0.01     0.11   0.04   0.01    -0.02   0.11  -0.08
    13   1    -0.01  -0.08   0.04     0.09   0.09  -0.02     0.05  -0.05   0.02
    14   1     0.01   0.05  -0.07    -0.07  -0.11   0.11     0.14  -0.09  -0.02
    15   1    -0.17   0.12   0.50    -0.21   0.29   0.37    -0.01   0.12   0.07
    16   1     0.39  -0.43   0.05     0.07  -0.28  -0.02    -0.01   0.03   0.02
    17   1    -0.08   0.20  -0.39    -0.32   0.23  -0.38    -0.16   0.02  -0.02
    18   1    -0.04   0.09  -0.15    -0.10   0.05  -0.16     0.24  -0.10  -0.23
    19   1     0.13   0.02   0.01     0.11  -0.02   0.05     0.30   0.06  -0.05
    20   1    -0.10  -0.04   0.04    -0.18  -0.10   0.09     0.21  -0.01  -0.06
    21   1     0.09   0.03  -0.00    -0.03  -0.02   0.00    -0.25  -0.04  -0.06
    22   1     0.01   0.08  -0.06     0.06  -0.08   0.07    -0.07  -0.15   0.06
    23   1     0.07   0.04  -0.01    -0.02  -0.04   0.02    -0.17  -0.08  -0.01
                     10                     11                     12
                      A                      A                      A
 Frequencies --    306.1569               401.8523               416.9866
 Red. masses --      2.6388                 2.3694                 2.6347
 Frc consts  --      0.1457                 0.2254                 0.2699
 IR Inten    --      0.5645                 1.4336                 4.5725
 Raman Activ --      2.0327                 0.5606                 0.3993
 Depolar (P) --      0.2463                 0.5605                 0.7439
 Depolar (U) --      0.3953                 0.7184                 0.8532
  Atom  AN      X      Y      Z        X      Y      Z        X      Y      Z
     1   8    -0.07   0.04  -0.03     0.06  -0.05   0.04    -0.03  -0.08   0.04
     2   6     0.03  -0.04  -0.04    -0.10   0.04  -0.01    -0.01   0.14  -0.09
     3   6    -0.00   0.00  -0.03    -0.07   0.02  -0.03    -0.08   0.05  -0.06
     4   6     0.07  -0.03   0.19    -0.10   0.03   0.05     0.07  -0.01   0.01
     5   6     0.07   0.02   0.12    -0.10   0.01   0.05     0.10  -0.15   0.16
     6   6    -0.05   0.02  -0.05    -0.00  -0.04   0.04    -0.03  -0.07   0.06
     7   6     0.12  -0.03  -0.14    -0.02  -0.14  -0.07    -0.03   0.08   0.01
     8   6     0.00   0.07   0.03     0.15   0.09  -0.00    -0.03  -0.06  -0.05
     9   6    -0.14  -0.04   0.00     0.10   0.04  -0.01     0.08   0.03  -0.00
    10   1     0.10   0.04  -0.20    -0.06   0.06  -0.05    -0.04   0.13  -0.07
    11   1    -0.08  -0.23  -0.10    -0.16   0.01  -0.04    -0.04   0.13  -0.10
    12   1    -0.01  -0.02   0.02    -0.09   0.04  -0.08    -0.15   0.07  -0.12
    13   1    -0.00   0.06  -0.02    -0.10  -0.03  -0.05    -0.20   0.00  -0.09
    14   1     0.06  -0.08   0.30    -0.08   0.03   0.05     0.13   0.01  -0.03
    15   1     0.14   0.06  -0.08    -0.06  -0.26  -0.13     0.17   0.40   0.02
    16   1     0.03  -0.34  -0.25    -0.08  -0.30  -0.14    -0.21   0.03  -0.07
    17   1     0.24   0.14  -0.39     0.22  -0.06  -0.13    -0.25   0.13  -0.14
    18   1    -0.02   0.12  -0.06     0.29  -0.12  -0.18    -0.12   0.08  -0.14
    19   1     0.06   0.14   0.06     0.26   0.26   0.06    -0.08   0.14  -0.04
    20   1    -0.05  -0.02   0.01     0.23   0.23   0.04    -0.09  -0.29  -0.25
    21   1    -0.24  -0.04  -0.00     0.23   0.04   0.01     0.22   0.02   0.02
    22   1    -0.08  -0.14   0.09     0.01   0.17  -0.13    -0.01   0.16  -0.14
    23   1    -0.23  -0.04  -0.01     0.20   0.05   0.01     0.20   0.04   0.02
                     13                     14                     15
                      A                      A                      A
 Frequencies --    476.6959               485.3860               525.9325
 Red. masses --      1.9388                 2.3007                 2.9619
 Frc consts  --      0.2596                 0.3194                 0.4827
 IR Inten    --      0.5237                 0.5748                13.0295
 Raman Activ --      0.3347                 2.0275                 2.1595
 Depolar (P) --      0.6867                 0.5907                 0.1857
 Depolar (U) --      0.8142                 0.7427                 0.3132
  Atom  AN      X      Y      Z        X      Y      Z        X      Y      Z
     1   8    -0.01  -0.06  -0.07     0.03   0.02  -0.06     0.13  -0.02   0.05
     2   6    -0.01  -0.00  -0.03     0.00  -0.10   0.03    -0.16  -0.09   0.03
     3   6    -0.01   0.04  -0.00     0.04  -0.05   0.06    -0.11   0.00  -0.01
     4   6     0.02  -0.04   0.04    -0.09   0.05  -0.16    -0.03  -0.16  -0.06
     5   6     0.00   0.04  -0.07     0.03  -0.06   0.19     0.10   0.07  -0.01
     6   6    -0.05   0.13   0.20     0.01   0.10   0.06    -0.07  -0.02  -0.02
     7   6     0.02   0.02   0.00     0.01  -0.02  -0.01     0.19   0.08  -0.01
     8   6    -0.01  -0.01   0.01    -0.01   0.06   0.00    -0.04   0.04   0.03
     9   6     0.02  -0.02  -0.01    -0.02  -0.01  -0.01    -0.02   0.07  -0.06
    10   1    -0.04   0.04  -0.13    -0.01  -0.12   0.09    -0.40  -0.20   0.26
    11   1    -0.03  -0.10  -0.05     0.12  -0.02   0.07    -0.12   0.21   0.09
    12   1     0.26   0.20  -0.38     0.23   0.00  -0.04    -0.10  -0.03   0.07
    13   1    -0.19  -0.41  -0.11     0.03  -0.18   0.04    -0.07   0.07   0.01
    14   1     0.04  -0.10   0.16    -0.26   0.21  -0.45    -0.15  -0.18  -0.01
    15   1    -0.02  -0.03   0.03     0.10   0.05  -0.09     0.16   0.04  -0.03
    16   1     0.09   0.04   0.03    -0.16  -0.13  -0.10     0.18   0.05  -0.02
    17   1     0.02   0.00   0.02     0.08   0.03  -0.08     0.25   0.10  -0.02
    18   1    -0.01  -0.01   0.10    -0.05   0.13  -0.15    -0.16   0.22   0.17
    19   1    -0.00  -0.15  -0.01    -0.07   0.37   0.03    -0.11  -0.11  -0.02
    20   1    -0.02   0.05   0.10    -0.01  -0.13  -0.24    -0.12  -0.08   0.01
    21   1    -0.17   0.02  -0.24    -0.20   0.01  -0.13     0.15   0.06  -0.01
    22   1     0.00  -0.12  -0.22     0.03  -0.14  -0.03    -0.12   0.23  -0.17
    23   1     0.34  -0.22   0.07     0.06  -0.12   0.02     0.06   0.10  -0.05
                     16                     17                     18
                      A                      A                      A
 Frequencies --    605.7892               736.6257               788.9556
 Red. masses --      3.4770                 1.4128                 2.6557
 Frc consts  --      0.7518                 0.4517                 0.9740
 IR Inten    --      4.9281                 2.3395                 0.6450
 Raman Activ --      4.4934                 0.9652                 2.8503
 Depolar (P) --      0.3666                 0.7165                 0.5868
 Depolar (U) --      0.5365                 0.8349                 0.7396
  Atom  AN      X      Y      Z        X      Y      Z        X      Y      Z
     1   8     0.20  -0.03   0.06     0.00  -0.02  -0.00    -0.02  -0.05   0.04
     2   6     0.12  -0.02   0.04     0.07  -0.01  -0.07     0.08   0.02  -0.02
     3   6    -0.07  -0.11   0.06     0.03  -0.04  -0.08     0.08   0.12   0.06
     4   6     0.06   0.11   0.05     0.03  -0.02   0.00     0.05  -0.13  -0.10
     5   6    -0.02  -0.03  -0.01    -0.00   0.00  -0.00     0.05  -0.02  -0.02
     6   6    -0.14   0.00   0.01    -0.03   0.03   0.06    -0.00  -0.07  -0.01
     7   6    -0.06  -0.02   0.01    -0.06  -0.04  -0.00    -0.12  -0.09  -0.00
     8   6     0.01  -0.05  -0.03    -0.01   0.05   0.03    -0.02   0.18   0.10
     9   6    -0.19   0.14  -0.16    -0.03   0.03   0.01    -0.06   0.00  -0.07
    10   1     0.36   0.08  -0.15     0.06  -0.21   0.38    -0.20   0.02  -0.06
    11   1     0.19  -0.28   0.02    -0.01   0.46  -0.02     0.26   0.06   0.03
    12   1    -0.01  -0.06  -0.05     0.04  -0.22   0.37     0.18   0.25  -0.27
    13   1    -0.04  -0.20   0.05    -0.08   0.44  -0.03     0.08  -0.26  -0.00
    14   1     0.14   0.11   0.04     0.03  -0.07   0.11     0.08  -0.20   0.03
    15   1    -0.04   0.04   0.03    -0.05  -0.03  -0.01    -0.10  -0.08  -0.03
    16   1    -0.04   0.04   0.03    -0.08  -0.05  -0.01    -0.16  -0.12  -0.03
    17   1    -0.14  -0.04   0.02    -0.06  -0.03  -0.02    -0.14  -0.08  -0.03
    18   1     0.05  -0.11  -0.07     0.00   0.04   0.04    -0.08   0.27   0.18
    19   1     0.03  -0.01  -0.01     0.01   0.03   0.03    -0.04   0.12   0.08
    20   1     0.03  -0.01  -0.02     0.00   0.08   0.06    -0.05   0.15   0.11
    21   1    -0.05   0.14  -0.15    -0.13   0.05  -0.16     0.14  -0.03   0.14
    22   1    -0.31   0.31  -0.33    -0.06  -0.02  -0.15    -0.11   0.17   0.01
    23   1    -0.05   0.14  -0.14     0.20  -0.12   0.06    -0.24   0.19  -0.12
                     19                     20                     21
                      A                      A                      A
 Frequencies --    826.6662               873.2308               927.4824
 Red. masses --      1.9507                 1.7783                 1.5360
 Frc consts  --      0.7854                 0.7989                 0.7785
 IR Inten    --      6.0792                 9.7793                 2.7896
 Raman Activ --     12.3017                 8.9522                 1.5169
 Depolar (P) --      0.1511                 0.2550                 0.6705
 Depolar (U) --      0.2625                 0.4064                 0.8027
  Atom  AN      X      Y      Z        X      Y      Z        X      Y      Z
     1   8     0.04   0.07  -0.04    -0.02  -0.04   0.02    -0.00   0.02  -0.01
     2   6     0.00   0.03  -0.03    -0.01  -0.01  -0.03    -0.03  -0.01   0.10
     3   6    -0.16  -0.13   0.08     0.11   0.05   0.02     0.03   0.01  -0.06
     4   6     0.01   0.01  -0.08    -0.10   0.08  -0.08     0.00   0.03  -0.08
     5   6     0.03  -0.02   0.01    -0.05   0.01   0.05     0.03  -0.03  -0.01
     6   6     0.04   0.05  -0.04     0.01  -0.03   0.02    -0.07  -0.01  -0.06
     7   6    -0.03  -0.04   0.02     0.06   0.04   0.04    -0.00  -0.03   0.01
     8   6    -0.01   0.05   0.01    -0.01  -0.08  -0.06     0.00   0.04   0.01
     9   6     0.07  -0.00   0.01    -0.05   0.00  -0.04    -0.02  -0.02   0.11
    10   1    -0.02  -0.00   0.03    -0.05  -0.06   0.08     0.02   0.13  -0.21
    11   1     0.22   0.07   0.04     0.08   0.17   0.02     0.02  -0.31   0.06
    12   1    -0.22  -0.08  -0.05     0.27   0.06   0.01    -0.15  -0.03   0.01
    13   1    -0.23  -0.17   0.05     0.15  -0.02   0.02     0.42   0.09   0.04
    14   1     0.23  -0.32   0.55     0.01  -0.29   0.64     0.18  -0.11   0.18
    15   1     0.11   0.11  -0.05     0.20   0.14  -0.07     0.08   0.08  -0.01
    16   1    -0.20  -0.08  -0.05    -0.16  -0.08  -0.07    -0.08  -0.00  -0.02
    17   1    -0.09   0.02  -0.10     0.14   0.14  -0.11    -0.11  -0.02  -0.04
    18   1    -0.01   0.05   0.10     0.08  -0.22  -0.06    -0.03   0.09   0.08
    19   1     0.02  -0.09  -0.00     0.07  -0.16  -0.05    -0.00  -0.04  -0.01
    20   1    -0.02   0.11   0.11     0.02   0.06   0.07    -0.03   0.04   0.05
    21   1    -0.10  -0.01   0.02     0.05  -0.01   0.05     0.10   0.01  -0.15
    22   1     0.20  -0.18   0.19    -0.09   0.10  -0.03    -0.17   0.07  -0.28
    23   1    -0.08  -0.03  -0.00    -0.09   0.09  -0.06     0.47  -0.20   0.20
                     22                     23                     24
                      A                      A                      A
 Frequencies --    947.8433               963.1087              1014.8874
 Red. masses --      1.8952                 1.4317                 1.5001
 Frc consts  --      1.0032                 0.7824                 0.9103
 IR Inten    --     10.2496                 0.7886                 0.1510
 Raman Activ --      1.2636                 1.4100                 1.0083
 Depolar (P) --      0.3530                 0.7466                 0.5010
 Depolar (U) --      0.5218                 0.8549                 0.6676
  Atom  AN      X      Y      Z        X      Y      Z        X      Y      Z
     1   8     0.02   0.06  -0.05     0.00   0.01  -0.01     0.00   0.02   0.00
     2   6     0.06  -0.09  -0.01     0.02   0.00   0.00     0.10   0.02  -0.02
     3   6    -0.07   0.06   0.00    -0.01   0.00  -0.00    -0.03   0.02   0.01
     4   6     0.03   0.04   0.03    -0.00   0.01   0.01    -0.03  -0.07  -0.02
     5   6    -0.00   0.01   0.00     0.03   0.07   0.03    -0.05   0.00   0.01
     6   6    -0.12   0.06  -0.04    -0.01   0.01  -0.01    -0.00  -0.02  -0.05
     7   6    -0.00  -0.01  -0.01    -0.11   0.03   0.04    -0.00   0.09  -0.04
     8   6    -0.02  -0.02   0.00     0.10  -0.05  -0.05    -0.03  -0.06   0.07
     9   6     0.03  -0.16   0.04     0.00  -0.01   0.01    -0.01   0.02   0.04
    10   1     0.11  -0.18   0.20     0.01   0.00   0.01    -0.01   0.01  -0.00
    11   1     0.09   0.13   0.03     0.04  -0.00   0.01     0.31   0.09   0.05
    12   1     0.28   0.08  -0.02    -0.01   0.00  -0.01    -0.21   0.06  -0.12
    13   1    -0.17  -0.03  -0.04     0.00  -0.00   0.00     0.05  -0.06   0.01
    14   1    -0.04   0.04   0.02    -0.04   0.00   0.02    -0.05  -0.19   0.20
    15   1     0.00   0.03   0.02    -0.21  -0.30  -0.14    -0.25  -0.25   0.02
    16   1     0.02   0.04   0.01    -0.17  -0.32  -0.07     0.26   0.02   0.05
    17   1    -0.07  -0.03   0.01     0.39   0.16  -0.03     0.27   0.06   0.10
    18   1     0.04  -0.09  -0.07    -0.16   0.33   0.22     0.04  -0.14  -0.27
    19   1     0.02   0.05   0.03    -0.14  -0.31  -0.18    -0.04   0.40   0.14
    20   1     0.03   0.04  -0.00    -0.12  -0.36  -0.11     0.10  -0.12  -0.22
    21   1     0.60  -0.20   0.34     0.05  -0.01   0.01    -0.05   0.04  -0.11
    22   1    -0.17   0.27  -0.03    -0.02   0.02  -0.02    -0.02  -0.03  -0.09
    23   1     0.09   0.17   0.01     0.04  -0.00   0.02     0.16  -0.10   0.08
                     25                     26                     27
                      A                      A                      A
 Frequencies --   1020.5515              1062.5635              1080.3658
 Red. masses --      1.4600                 3.1992                 1.8254
 Frc consts  --      0.8959                 2.1281                 1.2553
 IR Inten    --      4.5857                 1.9042                 3.2381
 Raman Activ --      1.7946                13.5362                 0.9601
 Depolar (P) --      0.3422                 0.1922                 0.5746
 Depolar (U) --      0.5099                 0.3225                 0.7299
  Atom  AN      X      Y      Z        X      Y      Z        X      Y      Z
     1   8    -0.00  -0.02   0.00     0.02   0.05  -0.04     0.00  -0.02  -0.02
     2   6    -0.09  -0.03   0.01    -0.12   0.22  -0.15     0.02   0.05   0.10
     3   6     0.03  -0.01  -0.01     0.13  -0.21   0.15    -0.00  -0.03  -0.09
     4   6     0.01   0.09  -0.04     0.00  -0.07   0.04    -0.01  -0.08  -0.08
     5   6     0.04  -0.00  -0.01    -0.03  -0.03  -0.02    -0.03  -0.07  -0.02
     6   6     0.01   0.02   0.04    -0.03   0.03  -0.02    -0.02   0.07   0.09
     7   6    -0.03  -0.02  -0.08     0.01   0.04  -0.00     0.01   0.08   0.04
     8   6     0.06  -0.02   0.07    -0.00   0.01   0.02    -0.04   0.03   0.03
     9   6     0.01  -0.01  -0.03    -0.06  -0.07   0.03     0.02  -0.04  -0.06
    10   1    -0.01  -0.01  -0.01    -0.13   0.19  -0.09     0.34   0.17  -0.13
    11   1    -0.23  -0.06  -0.03    -0.10   0.20  -0.14    -0.16  -0.25   0.00
    12   1     0.17  -0.05   0.09     0.34  -0.21   0.18     0.02  -0.12   0.15
    13   1    -0.02   0.06  -0.01     0.30  -0.20   0.19    -0.10   0.23  -0.07
    14   1     0.20  -0.13   0.39     0.11   0.03  -0.16     0.36  -0.10  -0.06
    15   1    -0.21  -0.11   0.12    -0.06  -0.07  -0.01    -0.03  -0.12  -0.10
    16   1     0.29   0.20   0.09     0.08  -0.01   0.01    -0.04  -0.16  -0.03
    17   1    -0.18  -0.16   0.12     0.13   0.04   0.02     0.36   0.18  -0.02
    18   1    -0.10   0.25  -0.03    -0.01   0.03  -0.00     0.03  -0.07  -0.04
    19   1    -0.15   0.24   0.04    -0.01   0.07   0.03     0.02   0.10   0.06
    20   1     0.02  -0.33  -0.27     0.01   0.00  -0.01     0.01   0.11   0.04
    21   1     0.02  -0.02   0.08     0.28  -0.08   0.07     0.12  -0.08   0.20
    22   1     0.02   0.02   0.08    -0.22   0.19  -0.16     0.03   0.08   0.15
    23   1    -0.13   0.08  -0.06     0.17   0.05   0.05    -0.21   0.16  -0.11
                     28                     29                     30
                      A                      A                      A
 Frequencies --   1105.9867              1133.1548              1176.0922
 Red. masses --      1.6770                 2.0137                 1.6423
 Frc consts  --      1.2086                 1.5234                 1.3384
 IR Inten    --      0.0728                 8.2272                22.4130
 Raman Activ --      1.2729                 9.7646                 0.6271
 Depolar (P) --      0.7250                 0.4497                 0.6035
 Depolar (U) --      0.8406                 0.6204                 0.7528
  Atom  AN      X      Y      Z        X      Y      Z        X      Y      Z
     1   8     0.00   0.00   0.00    -0.00  -0.01   0.02     0.01  -0.01   0.03
     2   6     0.00  -0.00  -0.00    -0.11  -0.09  -0.02     0.01   0.00  -0.02
     3   6    -0.00   0.00   0.00    -0.00   0.02   0.03    -0.02   0.05   0.05
     4   6    -0.00   0.02  -0.03     0.17   0.09  -0.02    -0.04  -0.01  -0.00
     5   6     0.05  -0.08   0.15     0.07   0.01  -0.02    -0.07  -0.09  -0.02
     6   6     0.00  -0.00  -0.00    -0.00  -0.03  -0.04    -0.08  -0.07  -0.12
     7   6    -0.03   0.06  -0.10    -0.08   0.05   0.06     0.04   0.03   0.00
     8   6    -0.03   0.05  -0.10    -0.09  -0.03   0.02     0.03   0.04   0.01
     9   6    -0.00   0.00   0.00     0.01   0.03   0.02     0.04   0.06   0.04
    10   1    -0.02  -0.01   0.00    -0.31  -0.14   0.04     0.45  -0.04   0.14
    11   1     0.00   0.01   0.00    -0.21   0.01  -0.04    -0.20   0.05  -0.07
    12   1    -0.00   0.00  -0.00     0.16   0.04  -0.01     0.56   0.09   0.03
    13   1    -0.00  -0.00  -0.00     0.02  -0.08   0.02    -0.17  -0.09  -0.01
    14   1     0.01  -0.01   0.03     0.36   0.10  -0.05     0.28   0.01  -0.06
    15   1    -0.37  -0.26   0.13    -0.13  -0.19  -0.13     0.05   0.03  -0.01
    16   1     0.43   0.12   0.09    -0.14  -0.25  -0.04     0.06   0.03   0.01
    17   1     0.08  -0.11   0.22     0.30   0.16  -0.02     0.10   0.05  -0.00
    18   1     0.07  -0.13   0.21     0.10  -0.30  -0.20    -0.05   0.16   0.10
    19   1     0.17  -0.38  -0.10     0.13   0.20   0.13    -0.07  -0.05  -0.03
    20   1    -0.09   0.29   0.32     0.11   0.22   0.02    -0.06  -0.05   0.02
    21   1    -0.00   0.00  -0.00    -0.08   0.04  -0.07    -0.14   0.07  -0.12
    22   1    -0.00  -0.00  -0.00     0.05  -0.08  -0.01     0.15  -0.22   0.02
    23   1     0.00  -0.00   0.00     0.03  -0.07   0.03     0.06  -0.18   0.07
                     31                     32                     33
                      A                      A                      A
 Frequencies --   1177.0828              1245.2940              1300.1160
 Red. masses --      1.8769                 2.0876                 1.4819
 Frc consts  --      1.5321                 1.9074                 1.4758
 IR Inten    --     56.1832                 0.7861                19.0938
 Raman Activ --      2.1868                 2.3883                12.2622
 Depolar (P) --      0.7260                 0.4936                 0.5108
 Depolar (U) --      0.8413                 0.6610                 0.6762
  Atom  AN      X      Y      Z        X      Y      Z        X      Y      Z
     1   8    -0.03   0.04  -0.02     0.01   0.01   0.00    -0.02  -0.01   0.00
     2   6     0.01  -0.03   0.02     0.01   0.09   0.07    -0.12   0.01  -0.01
     3   6    -0.01   0.01   0.04     0.01  -0.02   0.02    -0.09   0.02  -0.06
     4   6    -0.01   0.01  -0.02    -0.02  -0.09  -0.06     0.01  -0.03   0.03
     5   6    -0.02  -0.04  -0.01     0.15   0.18   0.05     0.02   0.04   0.01
     6   6     0.23  -0.04  -0.00    -0.02  -0.03  -0.05     0.11  -0.01   0.02
     7   6     0.01   0.01   0.01    -0.04  -0.05  -0.01    -0.01  -0.01  -0.01
     8   6     0.01   0.02   0.01    -0.06  -0.05  -0.01    -0.01  -0.00   0.00
     9   6    -0.11  -0.03   0.04     0.00   0.02   0.02    -0.02  -0.00   0.01
    10   1     0.12  -0.04   0.06     0.33   0.17  -0.08     0.33   0.00   0.05
    11   1    -0.32  -0.02  -0.07    -0.36  -0.08  -0.06     0.70  -0.07   0.20
    12   1    -0.11   0.04  -0.05     0.35  -0.03   0.10     0.42  -0.03   0.12
    13   1    -0.60  -0.07  -0.10    -0.32   0.01  -0.05     0.16   0.05   0.01
    14   1     0.14  -0.01   0.01    -0.33  -0.14   0.07     0.16   0.04  -0.08
    15   1     0.02   0.01  -0.01    -0.08  -0.07   0.02    -0.03  -0.01   0.02
    16   1     0.00  -0.01  -0.00    -0.11  -0.04  -0.03    -0.01   0.00  -0.00
    17   1     0.05   0.03  -0.01    -0.24  -0.11   0.01    -0.04  -0.02   0.01
    18   1    -0.02   0.06   0.03     0.10  -0.28  -0.18     0.03  -0.06  -0.04
    19   1    -0.02  -0.01  -0.01     0.09  -0.01   0.04     0.00  -0.03  -0.00
    20   1    -0.02  -0.01   0.01     0.07   0.05  -0.07     0.00  -0.02  -0.03
    21   1     0.12   0.01  -0.14    -0.01   0.02  -0.03    -0.03   0.02  -0.09
    22   1    -0.33   0.25  -0.35     0.03  -0.07  -0.02    -0.08   0.07  -0.10
    23   1     0.17   0.07   0.06     0.04  -0.06   0.03    -0.04   0.07  -0.01
                     34                     35                     36
                      A                      A                      A
 Frequencies --   1315.9596              1375.1061              1387.5112
 Red. masses --      1.1576                 1.4133                 1.3442
 Frc consts  --      1.1811                 1.5745                 1.5247
 IR Inten    --      2.0702                20.8823                47.9562
 Raman Activ --      7.6709                 9.0473                 3.2527
 Depolar (P) --      0.6910                 0.3425                 0.6391
 Depolar (U) --      0.8172                 0.5102                 0.7798
  Atom  AN      X      Y      Z        X      Y      Z        X      Y      Z
     1   8    -0.00  -0.01  -0.00     0.01   0.01  -0.00    -0.01  -0.00   0.00
     2   6    -0.02  -0.03  -0.06    -0.07  -0.03  -0.02    -0.00   0.01   0.00
     3   6    -0.03   0.03   0.04     0.13   0.01   0.02    -0.05   0.00  -0.01
     4   6    -0.01  -0.02  -0.01    -0.02  -0.02   0.00     0.01   0.01   0.00
     5   6     0.03   0.03   0.01    -0.02   0.07   0.04     0.01  -0.03  -0.02
     6   6     0.02   0.02   0.03    -0.06  -0.00  -0.01     0.06  -0.01   0.01
     7   6    -0.01  -0.01  -0.00     0.01  -0.01  -0.01    -0.01   0.01   0.01
     8   6    -0.01   0.01   0.01    -0.00   0.02   0.01    -0.00  -0.01  -0.00
     9   6    -0.00  -0.01  -0.01    -0.02   0.02  -0.03    -0.11   0.06  -0.08
    10   1     0.56  -0.13   0.23     0.11  -0.04   0.02     0.06  -0.00   0.03
    11   1    -0.31   0.12  -0.12     0.30   0.01   0.09    -0.02  -0.02  -0.01
    12   1    -0.35   0.10  -0.15    -0.37  -0.00  -0.02     0.10   0.01  -0.01
    13   1     0.50  -0.12   0.14    -0.40  -0.04  -0.11     0.11   0.02   0.03
    14   1     0.13  -0.02  -0.03     0.50   0.04  -0.14    -0.21  -0.01   0.06
    15   1    -0.02  -0.02   0.00    -0.04   0.01   0.08     0.02  -0.00  -0.04
    16   1    -0.02  -0.02  -0.01    -0.06   0.06  -0.01     0.03  -0.03   0.01
    17   1    -0.04  -0.02   0.01    -0.06  -0.03   0.00     0.03   0.01  -0.00
    18   1     0.04  -0.07  -0.06     0.09  -0.13  -0.10    -0.04   0.06   0.04
    19   1    -0.01  -0.06  -0.01    -0.02  -0.18  -0.03     0.00   0.08   0.02
    20   1    -0.01  -0.03  -0.04    -0.03  -0.13  -0.12     0.02   0.06   0.05
    21   1    -0.02  -0.01   0.01     0.12  -0.02   0.20     0.37  -0.03   0.42
    22   1    -0.02   0.06   0.03     0.08  -0.11   0.13     0.15  -0.25   0.35
    23   1    -0.02   0.05  -0.02     0.15  -0.18   0.04     0.47  -0.34   0.08
                     37                     38                     39
                      A                      A                      A
 Frequencies --   1396.7486              1412.2692              1422.3853
 Red. masses --      1.4731                 1.3719                 1.2561
 Frc consts  --      1.6933                 1.6121                 1.4973
 IR Inten    --      5.2524                 8.4440                 2.2552
 Raman Activ --      2.8983                 6.7586                17.9281
 Depolar (P) --      0.7472                 0.7405                 0.3114
 Depolar (U) --      0.8553                 0.8509                 0.4749
  Atom  AN      X      Y      Z        X      Y      Z        X      Y      Z
     1   8    -0.01  -0.01   0.00     0.00   0.00  -0.00     0.00  -0.00   0.00
     2   6     0.11  -0.01   0.01     0.01   0.00  -0.00     0.00   0.00  -0.01
     3   6    -0.10  -0.02  -0.02     0.00   0.00   0.00     0.01   0.00   0.00
     4   6    -0.05  -0.03  -0.01    -0.02  -0.03  -0.01    -0.01  -0.01  -0.00
     5   6    -0.04   0.08   0.06     0.01   0.07   0.04    -0.01   0.04   0.02
     6   6     0.04   0.00   0.01    -0.00   0.00   0.00    -0.00   0.00  -0.00
     7   6     0.03  -0.02  -0.02    -0.10  -0.08  -0.01     0.07   0.03  -0.01
     8   6     0.00   0.01   0.00     0.01  -0.08  -0.04     0.02  -0.10  -0.06
     9   6    -0.02   0.01  -0.01     0.00  -0.00   0.00     0.00  -0.00   0.00
    10   1    -0.46   0.03  -0.13    -0.00  -0.01   0.02     0.00  -0.04   0.07
    11   1    -0.23   0.08  -0.08    -0.01  -0.02  -0.01     0.02  -0.06  -0.01
    12   1     0.27  -0.01   0.02    -0.02  -0.00   0.00    -0.03   0.01  -0.02
    13   1     0.26   0.04   0.07     0.00  -0.01   0.00    -0.01   0.01  -0.00
    14   1     0.57   0.04  -0.16     0.24   0.00  -0.07     0.20   0.01  -0.06
    15   1    -0.05   0.01   0.13     0.28   0.40  -0.07    -0.22  -0.25   0.15
    16   1    -0.11   0.09  -0.03     0.36   0.25   0.22    -0.31  -0.09  -0.16
    17   1    -0.08  -0.04  -0.00     0.40   0.07  -0.08    -0.30  -0.08   0.06
    18   1     0.09  -0.13  -0.08    -0.13   0.15   0.11    -0.20   0.24   0.17
    19   1     0.01  -0.18  -0.03    -0.06   0.30   0.01    -0.12   0.45   0.01
    20   1    -0.03  -0.15  -0.13     0.02   0.18   0.25     0.00   0.26   0.39
    21   1     0.06   0.00   0.02    -0.00  -0.00  -0.00    -0.01  -0.00   0.00
    22   1     0.01  -0.03   0.05    -0.00   0.00  -0.00    -0.00   0.01  -0.00
    23   1     0.07  -0.00   0.01    -0.00   0.00  -0.00    -0.00  -0.00  -0.00
                     40                     41                     42
                      A                      A                      A
 Frequencies --   1449.2961              1465.8579              1472.7621
 Red. masses --      1.0753                 1.0584                 1.0463
 Frc consts  --      1.3307                 1.3400                 1.3371
 IR Inten    --      7.5413                18.2559                 0.9389
 Raman Activ --      6.4037                10.8221                14.4163
 Depolar (P) --      0.7352                 0.7386                 0.7494
 Depolar (U) --      0.8474                 0.8497                 0.8568
  Atom  AN      X      Y      Z        X      Y      Z        X      Y      Z
     1   8    -0.00  -0.00   0.00    -0.00  -0.02   0.01     0.00   0.00  -0.00
     2   6    -0.01   0.01  -0.01    -0.01   0.00  -0.00     0.00   0.00  -0.00
     3   6     0.01  -0.06   0.04     0.01  -0.01   0.01    -0.00   0.00  -0.00
     4   6    -0.00  -0.00   0.00    -0.00   0.00   0.00    -0.00   0.00  -0.00
     5   6     0.00   0.00   0.00     0.00   0.00   0.00    -0.00   0.00  -0.00
     6   6     0.00   0.00  -0.01    -0.01   0.01  -0.01     0.00   0.00   0.00
     7   6    -0.00  -0.00  -0.00    -0.00   0.00  -0.00    -0.01   0.02  -0.04
     8   6    -0.00   0.00   0.00    -0.00  -0.00   0.00     0.01  -0.02   0.03
     9   6     0.01   0.00  -0.00    -0.04  -0.03   0.01     0.00   0.00   0.00
    10   1    -0.01  -0.05   0.11     0.01  -0.01   0.03    -0.02  -0.01   0.02
    11   1     0.03  -0.12  -0.01     0.02  -0.04   0.00    -0.01  -0.03  -0.01
    12   1     0.11   0.24  -0.61    -0.00   0.06  -0.15    -0.00  -0.01   0.04
    13   1    -0.04   0.66   0.11    -0.05   0.16   0.01     0.01  -0.04  -0.01
    14   1     0.02   0.00  -0.01     0.00   0.00  -0.00     0.00  -0.00   0.00
    15   1     0.01   0.02   0.01     0.00   0.01   0.01     0.06   0.33   0.21
    16   1     0.00  -0.00   0.00    -0.00  -0.01  -0.01    -0.04  -0.37  -0.13
    17   1     0.01  -0.01   0.01     0.01  -0.01   0.02     0.15  -0.26   0.49
    18   1    -0.00   0.01  -0.03    -0.01   0.01  -0.02    -0.11   0.20  -0.36
    19   1     0.01  -0.04  -0.00    -0.00  -0.01  -0.00    -0.18  -0.20  -0.08
    20   1     0.02   0.01  -0.03     0.02   0.01  -0.01     0.19   0.22   0.00
    21   1    -0.09  -0.02   0.13     0.19   0.07  -0.52     0.02  -0.00   0.01
    22   1    -0.05   0.10  -0.07     0.14  -0.17   0.38     0.00  -0.02  -0.03
    23   1    -0.04  -0.14   0.01     0.30   0.58  -0.03    -0.03  -0.02  -0.00
                     43                     44                     45
                      A                      A                      A
 Frequencies --   1477.3662              1480.0190              1491.4246
 Red. masses --      1.0513                 1.0679                 1.0429
 Frc consts  --      1.3519                 1.3782                 1.3668
 IR Inten    --     10.6813                 0.9605                14.5577
 Raman Activ --      7.0632                 3.7539                 0.9186
 Depolar (P) --      0.7387                 0.6502                 0.6188
 Depolar (U) --      0.8497                 0.7880                 0.7645
  Atom  AN      X      Y      Z        X      Y      Z        X      Y      Z
     1   8     0.00   0.00  -0.00     0.00   0.00  -0.00    -0.00  -0.00   0.00
     2   6     0.00  -0.00   0.00     0.01   0.05  -0.02     0.00   0.01  -0.00
     3   6    -0.00   0.01   0.00     0.00   0.01  -0.01     0.00   0.00   0.00
     4   6     0.00   0.00  -0.00    -0.02   0.00   0.00    -0.00  -0.00   0.00
     5   6    -0.00  -0.00  -0.00     0.00  -0.00  -0.00    -0.01   0.02  -0.02
     6   6    -0.00  -0.02  -0.02    -0.00  -0.00  -0.00    -0.00   0.00  -0.00
     7   6    -0.00   0.00  -0.00     0.01  -0.02  -0.01    -0.01   0.02  -0.02
     8   6     0.00   0.00   0.00    -0.04  -0.02   0.00    -0.01   0.02  -0.03
     9   6     0.02  -0.04  -0.03     0.00  -0.00  -0.00     0.00   0.00   0.00
    10   1    -0.00   0.02  -0.05    -0.08  -0.15   0.38    -0.01  -0.03   0.06
    11   1     0.00   0.04   0.01     0.02  -0.42  -0.08    -0.00  -0.06  -0.01
    12   1     0.05  -0.02   0.05    -0.02  -0.03   0.08    -0.01   0.00  -0.00
    13   1    -0.04  -0.05  -0.01    -0.00  -0.09  -0.02    -0.00   0.00  -0.00
    14   1    -0.01   0.00   0.00     0.01  -0.00   0.01     0.02  -0.01   0.01
    15   1     0.01   0.02   0.00    -0.09   0.02   0.18     0.09   0.23   0.07
    16   1     0.01  -0.03  -0.01    -0.15   0.17  -0.01     0.01  -0.32  -0.09
    17   1     0.00  -0.02   0.03     0.13   0.04  -0.06     0.06  -0.19   0.36
    18   1     0.00  -0.00  -0.02    -0.15   0.18   0.16     0.14  -0.26   0.48
    19   1    -0.03   0.00  -0.01     0.43  -0.11   0.13     0.25   0.28   0.11
    20   1    -0.01   0.00   0.02     0.28   0.11  -0.33    -0.25  -0.32  -0.04
    21   1    -0.55  -0.05   0.12    -0.04  -0.00   0.01     0.00   0.00  -0.00
    22   1    -0.10   0.55   0.43    -0.01   0.04   0.03     0.00  -0.00  -0.00
    23   1     0.39   0.02   0.03     0.02  -0.00   0.00    -0.00   0.00  -0.00
                     46                     47                     48
                      A                      A                      A
 Frequencies --   1492.0754              1499.2724              1732.3854
 Red. masses --      1.0689                 1.0838                 6.4081
 Frc consts  --      1.4021                 1.4354                11.3310
 IR Inten    --      9.1563                 5.5342                 1.6390
 Raman Activ --      4.8721                32.2208                84.3671
 Depolar (P) --      0.5398                 0.5345                 0.2100
 Depolar (U) --      0.7011                 0.6966                 0.3472
  Atom  AN      X      Y      Z        X      Y      Z        X      Y      Z
     1   8     0.00  -0.00   0.00     0.00  -0.00   0.00     0.00   0.00  -0.00
     2   6    -0.02  -0.04   0.02     0.00  -0.04   0.01    -0.07  -0.00   0.02
     3   6    -0.00  -0.01   0.01     0.00  -0.01   0.01    -0.01  -0.00   0.00
     4   6     0.02   0.00  -0.00    -0.04   0.00   0.02     0.43  -0.09  -0.18
     5   6     0.00  -0.01  -0.01     0.01   0.01   0.00    -0.43   0.14   0.21
     6   6     0.00   0.00   0.00    -0.00   0.00  -0.00     0.00  -0.00   0.00
     7   6     0.01  -0.03  -0.02    -0.00   0.02   0.01     0.04   0.00  -0.01
     8   6    -0.01  -0.00  -0.00    -0.03  -0.03  -0.01     0.04  -0.03  -0.03
     9   6    -0.00   0.00   0.00    -0.00   0.00   0.00    -0.00   0.00  -0.00
    10   1     0.16   0.15  -0.35     0.07   0.12  -0.30     0.19   0.03  -0.01
    11   1    -0.01   0.40   0.08     0.02   0.35   0.06    -0.15  -0.04  -0.02
    12   1     0.00   0.02  -0.06    -0.01   0.02  -0.05     0.02   0.00   0.00
    13   1    -0.00   0.06   0.01    -0.01   0.04   0.01     0.03  -0.00   0.01
    14   1    -0.09  -0.01   0.02     0.13   0.03  -0.04    -0.36  -0.21   0.00
    15   1    -0.19   0.12   0.46     0.12  -0.07  -0.29     0.15   0.08  -0.11
    16   1    -0.36   0.28  -0.07     0.22  -0.23   0.02     0.19  -0.00   0.05
    17   1     0.34   0.03   0.00    -0.24  -0.05   0.04    -0.18  -0.06   0.03
    18   1    -0.04   0.04   0.12    -0.19   0.24   0.17    -0.11   0.17   0.12
    19   1     0.13   0.04   0.05     0.39  -0.06   0.12     0.13  -0.18  -0.01
    20   1     0.04   0.00  -0.07     0.28   0.15  -0.26     0.08  -0.08  -0.18
    21   1     0.01   0.00  -0.00     0.01   0.00  -0.00     0.00   0.00  -0.00
    22   1     0.00  -0.01  -0.01     0.00  -0.01  -0.01    -0.00  -0.00   0.00
    23   1    -0.00   0.00  -0.00    -0.00  -0.00  -0.00    -0.00   0.00  -0.00
                     49                     50                     51
                      A                      A                      A
 Frequencies --   1782.9995              3007.3304              3008.6285
 Red. masses --     10.2544                 1.0617                 1.0391
 Frc consts  --     19.2071                 5.6571                 5.5417
 IR Inten    --    162.4859                17.2993                26.5564
 Raman Activ --     10.2778                46.5844               114.7978
 Depolar (P) --      0.7314                 0.1332                 0.1102
 Depolar (U) --      0.8448                 0.2351                 0.1986
  Atom  AN      X      Y      Z        X      Y      Z        X      Y      Z
     1   8    -0.09  -0.39   0.26     0.00   0.00  -0.00     0.00  -0.00   0.00
     2   6     0.00   0.01  -0.00     0.00   0.01  -0.00    -0.00  -0.00   0.00
     3   6     0.00  -0.02   0.02    -0.01  -0.07   0.01     0.00   0.01  -0.00
     4   6     0.00  -0.01   0.00    -0.00   0.00   0.00    -0.00  -0.00  -0.00
     5   6    -0.00   0.00   0.00     0.00   0.00  -0.00     0.00  -0.00  -0.00
     6   6     0.14   0.59  -0.40     0.00  -0.00   0.00    -0.00   0.00  -0.00
     7   6     0.00  -0.00  -0.00     0.01   0.00  -0.00     0.05   0.01  -0.01
     8   6     0.00  -0.00   0.00    -0.00  -0.00  -0.00    -0.01   0.01   0.01
     9   6    -0.00  -0.03   0.02    -0.00   0.01  -0.00     0.00  -0.00   0.00
    10   1     0.03   0.02   0.01     0.00  -0.06  -0.03    -0.00   0.01   0.01
    11   1     0.03   0.01  -0.01    -0.02  -0.01   0.06     0.01   0.00  -0.02
    12   1    -0.15  -0.05   0.11    -0.04   0.78   0.34     0.00  -0.08  -0.04
    13   1    -0.17  -0.16  -0.05     0.10   0.04  -0.47    -0.01  -0.00   0.05
    14   1    -0.02  -0.01  -0.00     0.00  -0.01  -0.01     0.00   0.01   0.01
    15   1     0.00   0.00  -0.00    -0.06   0.04  -0.04    -0.44   0.30  -0.28
    16   1     0.01   0.00   0.00    -0.02  -0.02   0.08    -0.18  -0.14   0.57
    17   1    -0.00  -0.00  -0.00     0.01  -0.04  -0.02     0.06  -0.28  -0.17
    18   1    -0.00   0.00  -0.00     0.00   0.00   0.00    -0.09  -0.05  -0.00
    19   1    -0.00  -0.01  -0.00    -0.00   0.00   0.00     0.08   0.05  -0.23
    20   1     0.00  -0.00  -0.00     0.00  -0.00   0.00     0.17  -0.14   0.12
    21   1     0.06  -0.05   0.20    -0.00  -0.10  -0.02     0.00   0.01   0.00
    22   1    -0.12   0.16  -0.17     0.04   0.02  -0.01    -0.01  -0.00   0.00
    23   1     0.04  -0.17   0.04    -0.01   0.01   0.09     0.00  -0.00  -0.01
                     52                     53                     54
                      A                      A                      A
 Frequencies --   3016.5703              3028.5092              3033.4364
 Red. masses --      1.0413                 1.0843                 1.0396
 Frc consts  --      5.5829                 5.8597                 5.6359
 IR Inten    --     52.0818                 3.4949                 2.7964
 Raman Activ --    338.8073                99.7981               223.7941
 Depolar (P) --      0.0448                 0.3905                 0.0044
 Depolar (U) --      0.0857                 0.5617                 0.0087
  Atom  AN      X      Y      Z        X      Y      Z        X      Y      Z
     1   8     0.00  -0.00   0.00     0.00  -0.00   0.00    -0.00  -0.00   0.00
     2   6     0.00   0.00  -0.00     0.01   0.01  -0.05    -0.00  -0.01   0.01
     3   6     0.00   0.00   0.00    -0.01   0.02   0.06     0.00   0.01   0.00
     4   6    -0.00  -0.00  -0.00     0.00   0.00   0.00    -0.00  -0.00  -0.00
     5   6     0.00  -0.00  -0.00    -0.00   0.00   0.00     0.00  -0.00  -0.00
     6   6    -0.00   0.00  -0.00     0.00   0.00   0.00     0.00   0.00  -0.00
     7   6     0.02   0.00  -0.00    -0.00   0.00  -0.00     0.00  -0.00   0.00
     8   6     0.03  -0.03  -0.03    -0.00   0.00   0.00     0.00  -0.00  -0.00
     9   6     0.00  -0.00   0.00    -0.00   0.00  -0.01    -0.02   0.02  -0.04
    10   1     0.00  -0.03  -0.01     0.01  -0.08  -0.05    -0.00   0.06   0.03
    11   1    -0.00  -0.00   0.02    -0.19  -0.09   0.66     0.06   0.03  -0.20
    12   1     0.00  -0.04  -0.02     0.01  -0.37  -0.14     0.01  -0.10  -0.04
    13   1    -0.00  -0.00   0.02     0.13   0.08  -0.55    -0.01  -0.00   0.04
    14   1     0.00   0.03   0.01     0.00  -0.03  -0.01    -0.00   0.01   0.00
    15   1    -0.17   0.12  -0.11     0.01  -0.00   0.00    -0.00   0.00  -0.00
    16   1    -0.07  -0.05   0.22    -0.00  -0.00   0.01     0.00   0.00  -0.00
    17   1     0.03  -0.12  -0.07    -0.00   0.00   0.00     0.00  -0.00  -0.00
    18   1     0.23   0.14   0.01    -0.00   0.00   0.00    -0.00  -0.00  -0.00
    19   1    -0.19  -0.12   0.59     0.00   0.00  -0.01    -0.00  -0.00   0.01
    20   1    -0.43   0.34  -0.29     0.01  -0.01   0.01    -0.01   0.01  -0.00
    21   1     0.00   0.01   0.00    -0.00  -0.04  -0.01    -0.01  -0.55  -0.10
    22   1    -0.00  -0.00   0.00     0.04   0.02  -0.02     0.34   0.15  -0.10
    23   1     0.00  -0.00  -0.01    -0.02   0.02   0.13    -0.11   0.11   0.67
                     55                     56                     57
                      A                      A                      A
 Frequencies --   3041.1998              3046.9839              3050.9288
 Red. masses --      1.0787                 1.0992                 1.0987
 Frc consts  --      5.8780                 6.0125                 6.0253
 IR Inten    --     21.0110                 8.5230                34.8837
 Raman Activ --     14.6462                48.3251               153.9344
 Depolar (P) --      0.2200                 0.7499                 0.7472
 Depolar (U) --      0.3606                 0.8571                 0.8553
  Atom  AN      X      Y      Z        X      Y      Z        X      Y      Z
     1   8     0.00  -0.00   0.00    -0.00   0.00  -0.00    -0.00  -0.00   0.00
     2   6     0.01   0.03  -0.04    -0.00  -0.00   0.00     0.00   0.00   0.00
     3   6     0.01  -0.01  -0.06    -0.00   0.00   0.00     0.00  -0.00  -0.00
     4   6     0.00   0.00   0.00    -0.00   0.00  -0.00    -0.00   0.00  -0.00
     5   6    -0.00   0.00   0.00    -0.00   0.00  -0.00    -0.00   0.00  -0.00
     6   6     0.00   0.00  -0.00    -0.00  -0.00   0.00     0.00   0.00  -0.00
     7   6    -0.00   0.00  -0.00    -0.02   0.04  -0.07    -0.01   0.01  -0.03
     8   6    -0.00  -0.00   0.00     0.01  -0.01   0.03    -0.02   0.04  -0.07
     9   6    -0.00   0.01  -0.00     0.00  -0.00  -0.00    -0.00   0.00   0.00
    10   1     0.02  -0.24  -0.12    -0.00   0.01   0.00    -0.00  -0.00  -0.00
    11   1    -0.17  -0.08   0.61     0.01   0.00  -0.02    -0.00  -0.00   0.00
    12   1    -0.01   0.24   0.09     0.00  -0.01  -0.00    -0.00   0.00   0.00
    13   1    -0.14  -0.09   0.63     0.00   0.00  -0.01    -0.00  -0.00   0.01
    14   1     0.00  -0.01  -0.01    -0.00  -0.00  -0.00    -0.00   0.00  -0.00
    15   1     0.01  -0.01   0.01     0.50  -0.33   0.29     0.18  -0.12   0.10
    16   1    -0.01  -0.00   0.02    -0.22  -0.14   0.60    -0.08  -0.05   0.22
    17   1    -0.00   0.00   0.00    -0.01   0.01  -0.02    -0.00   0.00  -0.00
    18   1     0.01   0.01   0.00     0.00  -0.00   0.01    -0.00   0.01  -0.02
    19   1     0.01   0.01  -0.03     0.08   0.04  -0.22    -0.22  -0.11   0.61
    20   1     0.00  -0.00   0.00    -0.17   0.13  -0.10     0.48  -0.37   0.29
    21   1    -0.00  -0.13  -0.02     0.00   0.00   0.00    -0.00  -0.00  -0.00
    22   1     0.07   0.03  -0.02    -0.00  -0.00   0.00     0.00   0.00  -0.00
    23   1    -0.01   0.01   0.08    -0.00  -0.00   0.00    -0.00   0.00   0.00
                     58                     59                     60
                      A                      A                      A
 Frequencies --   3087.7344              3091.9578              3100.7462
 Red. masses --      1.0977                 1.0903                 1.0980
 Frc consts  --      6.1663                 6.1412                 6.2198
 IR Inten    --      8.6470                 4.6066                 5.2916
 Raman Activ --     67.2237                61.8556                46.2045
 Depolar (P) --      0.6670                 0.1645                 0.7473
 Depolar (U) --      0.8002                 0.2825                 0.8554
  Atom  AN      X      Y      Z        X      Y      Z        X      Y      Z
     1   8     0.00  -0.00  -0.00    -0.00   0.00  -0.00     0.00  -0.00   0.00
     2   6    -0.00   0.01   0.01     0.01  -0.05  -0.04    -0.00   0.02   0.02
     3   6     0.00  -0.00  -0.00     0.00  -0.01  -0.01    -0.00   0.00   0.00
     4   6     0.00  -0.00  -0.00    -0.00   0.04   0.02    -0.00   0.02   0.01
     5   6    -0.00   0.00   0.00     0.00  -0.00  -0.00     0.00  -0.00  -0.00
     6   6    -0.00  -0.00  -0.00    -0.00  -0.00   0.00     0.00   0.00  -0.00
     7   6    -0.00   0.00   0.00     0.01  -0.01  -0.01     0.03  -0.06  -0.04
     8   6    -0.00  -0.00   0.00     0.01   0.00  -0.00    -0.01  -0.00   0.00
     9   6     0.02  -0.06  -0.06     0.00  -0.01  -0.01    -0.00   0.00   0.00
    10   1     0.01  -0.10  -0.05    -0.04   0.67   0.31     0.02  -0.28  -0.13
    11   1     0.01   0.00  -0.02    -0.05  -0.04   0.17     0.03   0.02  -0.09
    12   1    -0.00   0.04   0.02    -0.00   0.08   0.03     0.00  -0.04  -0.01
    13   1    -0.01  -0.01   0.04    -0.02  -0.01   0.09     0.01   0.00  -0.03
    14   1     0.00   0.04   0.02    -0.01  -0.51  -0.27    -0.01  -0.21  -0.11
    15   1     0.00  -0.00   0.00    -0.04   0.02  -0.03    -0.16   0.10  -0.12
    16   1     0.00   0.00  -0.00    -0.01  -0.01   0.04    -0.07  -0.07   0.21
    17   1     0.00  -0.01  -0.00    -0.02   0.11   0.07    -0.14   0.72   0.42
    18   1     0.01   0.01   0.00    -0.12  -0.07  -0.01     0.08   0.05   0.00
    19   1     0.00   0.00  -0.01    -0.02  -0.01   0.06     0.00   0.00  -0.01
    20   1     0.01  -0.00   0.00    -0.04   0.03  -0.03     0.01  -0.01   0.01
    21   1     0.01   0.73   0.11     0.00   0.08   0.01    -0.00  -0.01  -0.00
    22   1    -0.10  -0.06   0.01    -0.01  -0.01   0.00     0.00   0.00  -0.00
    23   1    -0.10   0.08   0.64    -0.01   0.01   0.07     0.00  -0.00  -0.01
                     61                     62                     63
                      A                      A                      A
 Frequencies --   3109.6303              3127.1407              3140.2901
 Red. masses --      1.0900                 1.0933                 1.1020
 Frc consts  --      6.2098                 6.2992                 6.4027
 IR Inten    --     49.0034                28.9333                11.8104
 Raman Activ --     64.9799                45.6111                94.3599
 Depolar (P) --      0.3453                 0.5427                 0.5780
 Depolar (U) --      0.5134                 0.7036                 0.7326
  Atom  AN      X      Y      Z        X      Y      Z        X      Y      Z
     1   8     0.00   0.00  -0.00    -0.00   0.00  -0.00     0.00   0.00  -0.00
     2   6     0.01  -0.03  -0.03     0.00  -0.02  -0.01     0.00  -0.00  -0.00
     3   6     0.00  -0.00  -0.00     0.00  -0.00  -0.00     0.00  -0.00   0.00
     4   6     0.00  -0.06  -0.03     0.00  -0.01  -0.00    -0.00  -0.00  -0.00
     5   6    -0.00  -0.00   0.00    -0.00   0.00   0.00     0.00  -0.00  -0.00
     6   6    -0.00  -0.00   0.00    -0.00  -0.00   0.00    -0.00  -0.00   0.00
     7   6     0.01  -0.03  -0.02     0.00  -0.00  -0.00     0.00  -0.00  -0.00
     8   6     0.02   0.01  -0.00    -0.08  -0.04   0.00    -0.00  -0.00   0.00
     9   6     0.00  -0.00  -0.00     0.00  -0.00  -0.00    -0.07  -0.05   0.03
    10   1    -0.02   0.39   0.18    -0.01   0.23   0.10    -0.00   0.01   0.00
    11   1    -0.04  -0.03   0.13    -0.01  -0.01   0.04     0.00   0.00  -0.00
    12   1    -0.01   0.05   0.02    -0.00   0.02   0.01    -0.00   0.01   0.00
    13   1    -0.01  -0.01   0.03    -0.00  -0.00   0.01     0.00   0.00  -0.01
    14   1     0.02   0.68   0.35     0.00   0.07   0.04     0.00   0.00   0.00
    15   1    -0.06   0.04  -0.05    -0.00   0.00  -0.00    -0.00   0.00  -0.00
    16   1    -0.02  -0.02   0.08     0.00   0.00   0.00    -0.00  -0.00   0.00
    17   1    -0.06   0.31   0.18    -0.00   0.01   0.01    -0.00   0.00   0.00
    18   1    -0.16  -0.10  -0.01     0.78   0.49   0.04     0.00   0.00   0.00
    19   1    -0.01  -0.01   0.03     0.04   0.03  -0.18     0.00   0.00  -0.00
    20   1    -0.02   0.02  -0.02     0.11  -0.11   0.09    -0.00   0.00  -0.00
    21   1     0.00   0.01   0.00     0.00   0.00   0.00    -0.01   0.32   0.06
    22   1    -0.01  -0.00   0.00    -0.00  -0.00   0.00     0.81   0.35  -0.23
    23   1    -0.00   0.00   0.01    -0.00   0.00   0.00     0.02  -0.04  -0.21

 -------------------
 - Thermochemistry -
 -------------------
 Temperature   298.150 Kelvin.  Pressure   1.00000 Atm.
 Atom     1 has atomic number  8 and mass  15.99491
 Atom     2 has atomic number  6 and mass  12.00000
 Atom     3 has atomic number  6 and mass  12.00000
 Atom     4 has atomic number  6 and mass  12.00000
 Atom     5 has atomic number  6 and mass  12.00000
 Atom     6 has atomic number  6 and mass  12.00000
 Atom     7 has atomic number  6 and mass  12.00000
 Atom     8 has atomic number  6 and mass  12.00000
 Atom     9 has atomic number  6 and mass  12.00000
 Atom    10 has atomic number  1 and mass   1.00783
 Atom    11 has atomic number  1 and mass   1.00783
 Atom    12 has atomic number  1 and mass   1.00783
 Atom    13 has atomic number  1 and mass   1.00783
 Atom    14 has atomic number  1 and mass   1.00783
 Atom    15 has atomic number  1 and mass   1.00783
 Atom    16 has atomic number  1 and mass   1.00783
 Atom    17 has atomic number  1 and mass   1.00783
 Atom    18 has atomic number  1 and mass   1.00783
 Atom    19 has atomic number  1 and mass   1.00783
 Atom    20 has atomic number  1 and mass   1.00783
 Atom    21 has atomic number  1 and mass   1.00783
 Atom    22 has atomic number  1 and mass   1.00783
 Atom    23 has atomic number  1 and mass   1.00783
 Molecular mass:   126.10447 amu.
 Principal axes and moments of inertia in atomic units:
                           1         2         3
     Eigenvalues --   444.875513109.399323238.46503
           X            0.99990  -0.01312   0.00580
           Y            0.01273   0.99789   0.06374
           Z           -0.00663  -0.06366   0.99795
 This molecule is an asymmetric top.
 Rotational symmetry number  1.
 Warning -- assumption of classical behavior for rotation
           may cause significant error
 Rotational temperatures (Kelvin)      0.19469     0.02786     0.02675
 Rotational constants (GHZ):           4.05673     0.58041     0.55728
 Zero-point vibrational energy     528224.8 (Joules/Mol)
                                  126.24877 (Kcal/Mol)
 Warning -- explicit consideration of  16 degrees of freedom as
           vibrations may cause significant error
 Vibrational temperatures:     36.43    63.36   104.14   127.58   142.61
          (Kelvin)            207.10   270.98   319.00   410.69   440.49
                              578.18   599.95   685.86   698.36   756.70
                              871.60  1059.84  1135.13  1189.39  1256.38
                             1334.44  1363.74  1385.70  1460.20  1468.35
                             1528.79  1554.41  1591.27  1630.36  1692.13
                             1693.56  1791.70  1870.58  1893.37  1978.47
                             1996.32  2009.61  2031.94  2046.50  2085.21
                             2109.04  2118.98  2125.60  2129.42  2145.83
                             2146.76  2157.12  2492.52  2565.34  4326.88
                             4328.75  4340.17  4357.35  4364.44  4375.61
                             4383.93  4389.61  4442.56  4448.64  4461.28
                             4474.06  4499.26  4518.18
 
 Zero-point correction=                           0.201190 (Hartree/Particle)
 Thermal correction to Energy=                    0.212866
 Thermal correction to Enthalpy=                  0.213810
 Thermal correction to Gibbs Free Energy=         0.162072
 Sum of electronic and zero-point Energies=           -388.450052
 Sum of electronic and thermal Energies=              -388.438376
 Sum of electronic and thermal Enthalpies=            -388.437432
 Sum of electronic and thermal Free Energies=         -388.489170
 
                     E (Thermal)             CV                S
                      KCal/Mol        Cal/Mol-Kelvin    Cal/Mol-Kelvin
 Total                  133.576             40.330            108.892
 Electronic               0.000              0.000              0.000
 Translational            0.889              2.981             40.409
 Rotational               0.889              2.981             29.884
 Vibrational            131.798             34.369             38.599
 Vibration     1          0.593              1.985              6.166
 Vibration     2          0.595              1.980              5.069
 Vibration     3          0.598              1.967              4.088
 Vibration     4          0.601              1.957              3.689
 Vibration     5          0.604              1.950              3.472
 Vibration     6          0.616              1.909              2.751
 Vibration     7          0.633              1.856              2.244
 Vibration     8          0.648              1.808              1.945
 Vibration     9          0.683              1.701              1.501
 Vibration    10          0.697              1.662              1.383
 Vibration    11          0.767              1.466              0.956
 Vibration    12          0.780              1.433              0.902
 Vibration    13          0.833              1.302              0.719
 Vibration    14          0.841              1.282              0.696
 Vibration    15          0.881              1.193              0.596
 Vibration    16          0.964              1.020              0.440
                       Q            Log10(Q)             Ln(Q)
 Total Bot       0.283082D-74        -74.548087       -171.653314
 Total V=0       0.983796D+18         17.992905         41.430195
 Vib (Bot)       0.671260D-88        -88.173110       -203.026088
 Vib (Bot)    1  0.817980D+01          0.912743          2.101668
 Vib (Bot)    2  0.469704D+01          0.671825          1.546933
 Vib (Bot)    3  0.284852D+01          0.454620          1.046801
 Vib (Bot)    4  0.231931D+01          0.365358          0.841268
 Vib (Bot)    5  0.207087D+01          0.316153          0.727970
 Vib (Bot)    6  0.141113D+01          0.149566          0.344389
 Vib (Bot)    7  0.106330D+01          0.026655          0.061376
 Vib (Bot)    8  0.891489D+00         -0.049884         -0.114862
 Vib (Bot)    9  0.671601D+00         -0.172889         -0.398091
 Vib (Bot)   10  0.619004D+00         -0.208307         -0.479643
 Vib (Bot)   11  0.442934D+00         -0.353661         -0.814334
 Vib (Bot)   12  0.422058D+00         -0.374628         -0.862612
 Vib (Bot)   13  0.351838D+00         -0.453658         -1.044586
 Vib (Bot)   14  0.342968D+00         -0.464746         -1.070118
 Vib (Bot)   15  0.305237D+00         -0.515364         -1.186668
 Vib (Bot)   16  0.245019D+00         -0.610801         -1.406421
 Vib (V=0)       0.233283D+05          4.367883         10.057422
 Vib (V=0)    1  0.869507D+01          0.939273          2.162756
 Vib (V=0)    2  0.522358D+01          0.717968          1.653183
 Vib (V=0)    3  0.339207D+01          0.530465          1.221441
 Vib (V=0)    4  0.287259D+01          0.458274          1.055214
 Vib (V=0)    5  0.263038D+01          0.420018          0.967128
 Vib (V=0)    6  0.199709D+01          0.300398          0.691692
 Vib (V=0)    7  0.167499D+01          0.224012          0.515808
 Vib (V=0)    8  0.152213D+01          0.182452          0.420112
 Vib (V=0)    9  0.133729D+01          0.126224          0.290642
 Vib (V=0)   10  0.129572D+01          0.112510          0.259064
 Vib (V=0)   11  0.116798D+01          0.067434          0.155272
 Vib (V=0)   12  0.115432D+01          0.062326          0.143510
 Vib (V=0)   13  0.111138D+01          0.045864          0.105606
 Vib (V=0)   14  0.110632D+01          0.043882          0.101042
 Vib (V=0)   15  0.108581D+01          0.035752          0.082323
 Vib (V=0)   16  0.105681D+01          0.023996          0.055252
 Electronic      0.100000D+01          0.000000          0.000000
 Translational   0.556608D+08          7.745550         17.834787
 Rotational      0.757657D+06          5.879473         13.537986
 ***** Axes restored to original set *****
 -------------------------------------------------------------------
 Center     Atomic                   Forces (Hartrees/Bohr)
 Number     Number              X              Y              Z
 -------------------------------------------------------------------
      1        8           0.000000462    0.000003062   -0.000002825
      2        6           0.000003057    0.000001643   -0.000002279
      3        6           0.000001474   -0.000012564    0.000003022
      4        6          -0.000004111   -0.000001602    0.000001478
      5        6          -0.000000092   -0.000001934    0.000000984
      6        6          -0.000001097    0.000002554   -0.000003311
      7        6          -0.000001039    0.000002544    0.000001255
      8        6           0.000000265    0.000001819    0.000000366
      9        6          -0.000001622   -0.000006895    0.000005606
     10        1          -0.000000498    0.000000187    0.000000885
     11        1          -0.000000785    0.000000678   -0.000000370
     12        1          -0.000002187    0.000003815   -0.000000368
     13        1           0.000001098    0.000002651   -0.000001623
     14        1          -0.000000022    0.000000358   -0.000000461
     15        1           0.000000681   -0.000000058    0.000000220
     16        1          -0.000000065   -0.000000312   -0.000000007
     17        1           0.000000325   -0.000000129    0.000000596
     18        1           0.000000177    0.000000585    0.000000134
     19        1           0.000000071    0.000000473    0.000000890
     20        1           0.000000125    0.000001136    0.000000407
     21        1           0.000000919    0.000001738   -0.000001014
     22        1           0.000000984    0.000000055   -0.000000994
     23        1           0.000001882    0.000000197   -0.000002591
 -------------------------------------------------------------------
 Cartesian Forces:  Max     0.000012564 RMS     0.000002400
 FormGI is forming the generalized inverse of G from B-inverse, IUseBI=4.
 Leave Link  716 at Tue Jun  4 00:25:42 2024, MaxMem= 13421772800 cpu:               1.4 elap:               0.1
 (Enter /tmpu/scunam/7/gaussian-2016.03/g1/g16/l103.exe)

 GradGradGradGradGradGradGradGradGradGradGradGradGradGradGradGradGradGrad
 Berny optimization.
 Red2BG is reusing G-inverse.
 Internal  Forces:  Max     0.000003950 RMS     0.000001170
 Search for a local minimum.
 Step number   1 out of a maximum of    2
 All quantities printed in internal units (Hartrees-Bohrs-Radians)
 Second derivative matrix not updated -- analytic derivatives used.
 ITU=  0
     Eigenvalues ---    0.00027   0.00120   0.00135   0.00149   0.00192
     Eigenvalues ---    0.00269   0.01451   0.01938   0.02697   0.02721
     Eigenvalues ---    0.03515   0.04053   0.04063   0.04308   0.05339
     Eigenvalues ---    0.05557   0.05574   0.05667   0.05815   0.05958
     Eigenvalues ---    0.07667   0.07855   0.10000   0.11858   0.11961
     Eigenvalues ---    0.12026   0.12301   0.12660   0.13086   0.13409
     Eigenvalues ---    0.14060   0.14229   0.14330   0.14459   0.17022
     Eigenvalues ---    0.17701   0.19033   0.20752   0.21108   0.21809
     Eigenvalues ---    0.25112   0.27400   0.29301   0.30440   0.31296
     Eigenvalues ---    0.31516   0.32024   0.32114   0.32356   0.32470
     Eigenvalues ---    0.33162   0.33212   0.33262   0.33425   0.33831
     Eigenvalues ---    0.34029   0.34272   0.34416   0.34565   0.34830
     Eigenvalues ---    0.36387   0.61983   0.84134
 Angle between quadratic step and forces=  71.25 degrees.
 Linear search not attempted -- first point.
 Iteration  1 RMS(Cart)=  0.00080841 RMS(Int)=  0.00000091
 Iteration  2 RMS(Cart)=  0.00000094 RMS(Int)=  0.00000001
 ITry= 1 IFail=0 DXMaxC= 3.99D-03 DCOld= 1.00D+10 DXMaxT= 3.00D-01 DXLimC= 3.00D+00 Rises=F
 Variable       Old X    -DE/DX   Delta X   Delta X   Delta X     New X
                                 (Linear)    (Quad)   (Total)
    R1        2.28547   0.00000   0.00000  -0.00000  -0.00000   2.28547
    R2        2.89259  -0.00000   0.00000  -0.00001  -0.00001   2.89258
    R3        2.83535   0.00000   0.00000   0.00002   0.00002   2.83537
    R4        2.05865  -0.00000   0.00000  -0.00000  -0.00000   2.05865
    R5        2.06756  -0.00000   0.00000  -0.00000  -0.00000   2.06756
    R6        2.87123   0.00000   0.00000  -0.00001  -0.00001   2.87122
    R7        2.07349  -0.00000   0.00000  -0.00001  -0.00001   2.07347
    R8        2.07066   0.00000   0.00000   0.00002   0.00002   2.07068
    R9        2.52448  -0.00000   0.00000  -0.00000  -0.00000   2.52448
   R10        2.05753  -0.00000   0.00000  -0.00000  -0.00000   2.05752
   R11        2.84555   0.00000   0.00000   0.00000   0.00000   2.84555
   R12        2.84295   0.00000   0.00000   0.00000   0.00000   2.84295
   R13        2.86280   0.00000   0.00000   0.00001   0.00001   2.86282
   R14        2.06923  -0.00000   0.00000   0.00000   0.00000   2.06923
   R15        2.06925  -0.00000   0.00000  -0.00000  -0.00000   2.06924
   R16        2.06010   0.00000   0.00000   0.00000   0.00000   2.06011
   R17        2.05560   0.00000   0.00000   0.00000   0.00000   2.05560
   R18        2.06879  -0.00000   0.00000  -0.00000  -0.00000   2.06879
   R19        2.06886  -0.00000   0.00000  -0.00000  -0.00000   2.06886
   R20        2.06415  -0.00000   0.00000  -0.00003  -0.00003   2.06412
   R21        2.05570   0.00000   0.00000   0.00001   0.00001   2.05571
   R22        2.06681   0.00000   0.00000   0.00002   0.00002   2.06684
    A1        1.95735   0.00000   0.00000   0.00001   0.00001   1.95736
    A2        1.90419  -0.00000   0.00000  -0.00000  -0.00000   1.90419
    A3        1.88783  -0.00000   0.00000   0.00000   0.00000   1.88783
    A4        1.95233  -0.00000   0.00000  -0.00000  -0.00000   1.95232
    A5        1.91369  -0.00000   0.00000  -0.00001  -0.00001   1.91368
    A6        1.84399   0.00000   0.00000  -0.00000  -0.00000   1.84399
    A7        1.99684   0.00000   0.00000   0.00002   0.00002   1.99686
    A8        1.93016  -0.00000   0.00000   0.00004   0.00004   1.93020
    A9        1.93459   0.00000   0.00000  -0.00001  -0.00001   1.93457
   A10        1.87171   0.00000   0.00000   0.00006   0.00006   1.87177
   A11        1.89215  -0.00000   0.00000  -0.00009  -0.00009   1.89206
   A12        1.82982  -0.00000   0.00000  -0.00002  -0.00002   1.82980
   A13        2.24592  -0.00000   0.00000  -0.00001  -0.00001   2.24591
   A14        1.99715   0.00000   0.00000   0.00001   0.00001   1.99716
   A15        2.04011   0.00000   0.00000   0.00001   0.00001   2.04012
   A16        2.10836   0.00000   0.00000   0.00001   0.00001   2.10836
   A17        2.18005  -0.00000   0.00000  -0.00001  -0.00001   2.18004
   A18        1.99477   0.00000   0.00000  -0.00000  -0.00000   1.99477
   A19        2.13278   0.00000   0.00000   0.00002   0.00002   2.13280
   A20        2.12096  -0.00000   0.00000  -0.00003  -0.00003   2.12093
   A21        2.02944  -0.00000   0.00000   0.00000   0.00000   2.02944
   A22        1.93658  -0.00000   0.00000  -0.00001  -0.00001   1.93656
   A23        1.93742   0.00000   0.00000   0.00001   0.00001   1.93743
   A24        1.95218  -0.00000   0.00000  -0.00000  -0.00000   1.95218
   A25        1.85786   0.00000   0.00000   0.00000   0.00000   1.85786
   A26        1.88760   0.00000   0.00000  -0.00000  -0.00000   1.88760
   A27        1.88871   0.00000   0.00000   0.00001   0.00001   1.88872
   A28        1.97943  -0.00000   0.00000   0.00000   0.00000   1.97943
   A29        1.92792  -0.00000   0.00000  -0.00001  -0.00001   1.92792
   A30        1.92782   0.00000   0.00000   0.00001   0.00001   1.92783
   A31        1.88518   0.00000   0.00000   0.00000   0.00000   1.88518
   A32        1.88229  -0.00000   0.00000  -0.00000  -0.00000   1.88228
   A33        1.85631  -0.00000   0.00000   0.00000   0.00000   1.85631
   A34        1.93938   0.00000   0.00000   0.00024   0.00024   1.93962
   A35        1.91982  -0.00000   0.00000  -0.00000  -0.00000   1.91982
   A36        1.91094  -0.00000   0.00000  -0.00022  -0.00022   1.91072
   A37        1.92145  -0.00000   0.00000   0.00011   0.00011   1.92156
   A38        1.86641  -0.00000   0.00000   0.00005   0.00005   1.86646
   A39        1.90486  -0.00000   0.00000  -0.00018  -0.00018   1.90467
    D1        3.07153   0.00000   0.00000  -0.00002  -0.00002   3.07151
    D2        0.95599  -0.00000   0.00000  -0.00015  -0.00015   0.95584
    D3       -1.06574  -0.00000   0.00000  -0.00014  -0.00014  -1.06588
    D4       -1.03874   0.00000   0.00000  -0.00002  -0.00002  -1.03876
    D5        3.12891  -0.00000   0.00000  -0.00014  -0.00014   3.12877
    D6        1.10718  -0.00000   0.00000  -0.00013  -0.00013   1.10704
    D7        0.95905   0.00000   0.00000  -0.00002  -0.00002   0.95903
    D8       -1.15649  -0.00000   0.00000  -0.00014  -0.00014  -1.15663
    D9        3.10497  -0.00000   0.00000  -0.00013  -0.00013   3.10483
   D10        2.06976  -0.00000   0.00000  -0.00006  -0.00006   2.06970
   D11       -1.07125  -0.00000   0.00000  -0.00006  -0.00006  -1.07131
   D12       -0.07623  -0.00000   0.00000  -0.00006  -0.00006  -0.07629
   D13        3.06595  -0.00000   0.00000  -0.00007  -0.00007   3.06588
   D14       -2.11592   0.00000   0.00000  -0.00005  -0.00005  -2.11597
   D15        1.02626   0.00000   0.00000  -0.00006  -0.00006   1.02620
   D16       -0.10324   0.00000   0.00000   0.00024   0.00024  -0.10300
   D17        3.03303   0.00000   0.00000   0.00004   0.00004   3.03307
   D18        2.04420   0.00000   0.00000   0.00035   0.00035   2.04455
   D19       -1.10272   0.00000   0.00000   0.00015   0.00015  -1.10256
   D20       -2.27193   0.00000   0.00000   0.00031   0.00031  -2.27162
   D21        0.86433   0.00000   0.00000   0.00011   0.00011   0.86444
   D22        3.13714  -0.00000   0.00000  -0.00003  -0.00003   3.13711
   D23        0.00251  -0.00000   0.00000  -0.00003  -0.00003   0.00248
   D24       -0.00505  -0.00000   0.00000  -0.00003  -0.00003  -0.00508
   D25       -3.13968  -0.00000   0.00000  -0.00003  -0.00003  -3.13971
   D26       -2.10374   0.00000   0.00000   0.00020   0.00020  -2.10353
   D27        2.11726   0.00000   0.00000   0.00020   0.00020   2.11746
   D28        0.00576   0.00000   0.00000   0.00019   0.00019   0.00595
   D29        1.03159   0.00000   0.00000   0.00020   0.00020   1.03179
   D30       -1.03060   0.00000   0.00000   0.00020   0.00020  -1.03040
   D31        3.14109   0.00000   0.00000   0.00019   0.00019   3.14128
   D32       -0.02554   0.00000   0.00000   0.00003   0.00003  -0.02550
   D33       -2.14463   0.00000   0.00000   0.00003   0.00003  -2.14459
   D34        2.08973   0.00000   0.00000   0.00003   0.00003   2.08977
   D35        3.12262  -0.00000   0.00000   0.00003   0.00003   3.12265
   D36        1.00353  -0.00000   0.00000   0.00004   0.00004   1.00356
   D37       -1.04529  -0.00000   0.00000   0.00003   0.00003  -1.04526
   D38       -2.29514  -0.00000   0.00000  -0.00276  -0.00276  -2.29790
   D39       -0.16289   0.00000   0.00000  -0.00246  -0.00246  -0.16535
   D40        1.93025  -0.00000   0.00000  -0.00282  -0.00282   1.92743
   D41        0.85174  -0.00000   0.00000  -0.00257  -0.00257   0.84917
   D42        2.98400   0.00000   0.00000  -0.00226  -0.00226   2.98173
   D43       -1.20605  -0.00000   0.00000  -0.00263  -0.00263  -1.20868
         Item               Value     Threshold  Converged?
 Maximum Force            0.000004     0.000450     YES
 RMS     Force            0.000001     0.000300     YES
 Maximum Displacement     0.003989     0.001800     NO 
 RMS     Displacement     0.000808     0.001200     YES
 Predicted change in Energy=-1.230401D-08
 Optimization completed on the basis of negligible forces.
    -- Stationary point found.
                           ----------------------------
                           !   Optimized Parameters   !
                           ! (Angstroms and Degrees)  !
 --------------------------                            --------------------------
 ! Name  Definition              Value          Derivative Info.                !
 --------------------------------------------------------------------------------
 ! R1    R(1,6)                  1.2094         -DE/DX =    0.0                 !
 ! R2    R(2,3)                  1.5307         -DE/DX =    0.0                 !
 ! R3    R(2,4)                  1.5004         -DE/DX =    0.0                 !
 ! R4    R(2,10)                 1.0894         -DE/DX =    0.0                 !
 ! R5    R(2,11)                 1.0941         -DE/DX =    0.0                 !
 ! R6    R(3,6)                  1.5194         -DE/DX =    0.0                 !
 ! R7    R(3,12)                 1.0972         -DE/DX =    0.0                 !
 ! R8    R(3,13)                 1.0957         -DE/DX =    0.0                 !
 ! R9    R(4,5)                  1.3359         -DE/DX =    0.0                 !
 ! R10   R(4,14)                 1.0888         -DE/DX =    0.0                 !
 ! R11   R(5,7)                  1.5058         -DE/DX =    0.0                 !
 ! R12   R(5,8)                  1.5044         -DE/DX =    0.0                 !
 ! R13   R(6,9)                  1.5149         -DE/DX =    0.0                 !
 ! R14   R(7,15)                 1.095          -DE/DX =    0.0                 !
 ! R15   R(7,16)                 1.095          -DE/DX =    0.0                 !
 ! R16   R(7,17)                 1.0902         -DE/DX =    0.0                 !
 ! R17   R(8,18)                 1.0878         -DE/DX =    0.0                 !
 ! R18   R(8,19)                 1.0948         -DE/DX =    0.0                 !
 ! R19   R(8,20)                 1.0948         -DE/DX =    0.0                 !
 ! R20   R(9,21)                 1.0923         -DE/DX =    0.0                 !
 ! R21   R(9,22)                 1.0878         -DE/DX =    0.0                 !
 ! R22   R(9,23)                 1.0937         -DE/DX =    0.0                 !
 ! A1    A(3,2,4)              112.1476         -DE/DX =    0.0                 !
 ! A2    A(3,2,10)             109.1023         -DE/DX =    0.0                 !
 ! A3    A(3,2,11)             108.1646         -DE/DX =    0.0                 !
 ! A4    A(4,2,10)             111.86           -DE/DX =    0.0                 !
 ! A5    A(4,2,11)             109.6463         -DE/DX =    0.0                 !
 ! A6    A(10,2,11)            105.6528         -DE/DX =    0.0                 !
 ! A7    A(2,3,6)              114.4105         -DE/DX =    0.0                 !
 ! A8    A(2,3,12)             110.5898         -DE/DX =    0.0                 !
 ! A9    A(2,3,13)             110.8436         -DE/DX =    0.0                 !
 ! A10   A(6,3,12)             107.2412         -DE/DX =    0.0                 !
 ! A11   A(6,3,13)             108.412          -DE/DX =    0.0                 !
 ! A12   A(12,3,13)            104.8409         -DE/DX =    0.0                 !
 ! A13   A(2,4,5)              128.6818         -DE/DX =    0.0                 !
 ! A14   A(2,4,14)             114.4283         -DE/DX =    0.0                 !
 ! A15   A(5,4,14)             116.8898         -DE/DX =    0.0                 !
 ! A16   A(4,5,7)              120.7999         -DE/DX =    0.0                 !
 ! A17   A(4,5,8)              124.9074         -DE/DX =    0.0                 !
 ! A18   A(7,5,8)              114.2916         -DE/DX =    0.0                 !
 ! A19   A(1,6,3)              122.1991         -DE/DX =    0.0                 !
 ! A20   A(1,6,9)              121.522          -DE/DX =    0.0                 !
 ! A21   A(3,6,9)              116.2782         -DE/DX =    0.0                 !
 ! A22   A(5,7,15)             110.9576         -DE/DX =    0.0                 !
 ! A23   A(5,7,16)             111.0058         -DE/DX =    0.0                 !
 ! A24   A(5,7,17)             111.8516         -DE/DX =    0.0                 !
 ! A25   A(15,7,16)            106.4476         -DE/DX =    0.0                 !
 ! A26   A(15,7,17)            108.1517         -DE/DX =    0.0                 !
 ! A27   A(16,7,17)            108.2151         -DE/DX =    0.0                 !
 ! A28   A(5,8,18)             113.4128         -DE/DX =    0.0                 !
 ! A29   A(5,8,19)             110.4619         -DE/DX =    0.0                 !
 ! A30   A(5,8,20)             110.4562         -DE/DX =    0.0                 !
 ! A31   A(18,8,19)            108.0129         -DE/DX =    0.0                 !
 ! A32   A(18,8,20)            107.847          -DE/DX =    0.0                 !
 ! A33   A(19,8,20)            106.3585         -DE/DX =    0.0                 !
 ! A34   A(6,9,21)             111.118          -DE/DX =    0.0                 !
 ! A35   A(6,9,22)             109.9975         -DE/DX =    0.0                 !
 ! A36   A(6,9,23)             109.4887         -DE/DX =    0.0                 !
 ! A37   A(21,9,22)            110.0907         -DE/DX =    0.0                 !
 ! A38   A(21,9,23)            106.9376         -DE/DX =    0.0                 !
 ! A39   A(22,9,23)            109.1402         -DE/DX =    0.0                 !
 ! D1    D(4,2,3,6)            175.9856         -DE/DX =    0.0                 !
 ! D2    D(4,2,3,12)            54.7742         -DE/DX =    0.0                 !
 ! D3    D(4,2,3,13)           -61.0624         -DE/DX =    0.0                 !
 ! D4    D(10,2,3,6)           -59.5155         -DE/DX =    0.0                 !
 ! D5    D(10,2,3,12)          179.2731         -DE/DX =    0.0                 !
 ! D6    D(10,2,3,13)           63.4365         -DE/DX =    0.0                 !
 ! D7    D(11,2,3,6)            54.9494         -DE/DX =    0.0                 !
 ! D8    D(11,2,3,12)          -66.262          -DE/DX =    0.0                 !
 ! D9    D(11,2,3,13)          177.9014         -DE/DX =    0.0                 !
 ! D10   D(3,2,4,5)            118.5884         -DE/DX =    0.0                 !
 ! D11   D(3,2,4,14)           -61.3782         -DE/DX =    0.0                 !
 ! D12   D(10,2,4,5)            -4.3675         -DE/DX =    0.0                 !
 ! D13   D(10,2,4,14)          175.666          -DE/DX =    0.0                 !
 ! D14   D(11,2,4,5)          -121.2333         -DE/DX =    0.0                 !
 ! D15   D(11,2,4,14)           58.8002         -DE/DX =    0.0                 !
 ! D16   D(2,3,6,1)             -5.9151         -DE/DX =    0.0                 !
 ! D17   D(2,3,6,9)            173.7796         -DE/DX =    0.0                 !
 ! D18   D(12,3,6,1)           117.1242         -DE/DX =    0.0                 !
 ! D19   D(12,3,6,9)           -63.1812         -DE/DX =    0.0                 !
 ! D20   D(13,3,6,1)          -130.1722         -DE/DX =    0.0                 !
 ! D21   D(13,3,6,9)            49.5225         -DE/DX =    0.0                 !
 ! D22   D(2,4,5,7)            179.7446         -DE/DX =    0.0                 !
 ! D23   D(2,4,5,8)              0.1437         -DE/DX =    0.0                 !
 ! D24   D(14,4,5,7)            -0.2896         -DE/DX =    0.0                 !
 ! D25   D(14,4,5,8)          -179.8905         -DE/DX =    0.0                 !
 ! D26   D(4,5,7,15)          -120.5352         -DE/DX =    0.0                 !
 ! D27   D(4,5,7,16)           121.3103         -DE/DX =    0.0                 !
 ! D28   D(4,5,7,17)             0.3302         -DE/DX =    0.0                 !
 ! D29   D(8,5,7,15)            59.1057         -DE/DX =    0.0                 !
 ! D30   D(8,5,7,16)           -59.0488         -DE/DX =    0.0                 !
 ! D31   D(8,5,7,17)           179.9712         -DE/DX =    0.0                 !
 ! D32   D(4,5,8,18)            -1.4631         -DE/DX =    0.0                 !
 ! D33   D(4,5,8,19)          -122.8782         -DE/DX =    0.0                 !
 ! D34   D(4,5,8,20)           119.7329         -DE/DX =    0.0                 !
 ! D35   D(7,5,8,18)           178.9129         -DE/DX =    0.0                 !
 ! D36   D(7,5,8,19)            57.4979         -DE/DX =    0.0                 !
 ! D37   D(7,5,8,20)           -59.891          -DE/DX =    0.0                 !
 ! D38   D(1,6,9,21)          -131.502          -DE/DX =    0.0                 !
 ! D39   D(1,6,9,22)            -9.3328         -DE/DX =    0.0                 !
 ! D40   D(1,6,9,23)           110.5953         -DE/DX =    0.0                 !
 ! D41   D(3,6,9,21)            48.8011         -DE/DX =    0.0                 !
 ! D42   D(3,6,9,22)           170.9703         -DE/DX =    0.0                 !
 ! D43   D(3,6,9,23)           -69.1016         -DE/DX =    0.0                 !
 --------------------------------------------------------------------------------
 GradGradGradGradGradGradGradGradGradGradGradGradGradGradGradGradGradGrad

 Leave Link  103 at Tue Jun  4 00:25:43 2024, MaxMem= 13421772800 cpu:               4.2 elap:               0.2
 (Enter /tmpu/scunam/7/gaussian-2016.03/g1/g16/l9999.exe)

 ----------------------------------------------------------------------

 Electric dipole moment (input orientation):
 (Debye = 10**-18 statcoulomb cm , SI units = C m)
                  (au)            (Debye)         (10**-30 SI)
   Tot        0.108537D+01      0.275874D+01      0.920215D+01
   x         -0.335559D+00     -0.852906D+00     -0.284499D+01
   y          0.519200D+00      0.131967D+01      0.440196D+01
   z          0.892110D+00      0.226752D+01      0.756362D+01

 Dipole polarizability, Alpha (input orientation).
 (esu units = cm**3 , SI units = C**2 m**2 J**-1)
 Alpha(0;0):
               (au)            (10**-24 esu)      (10**-40 SI)
   iso        0.102036D+03      0.151201D+02      0.168234D+02
   aniso      0.460529D+02      0.682433D+01      0.759309D+01
   xx         0.131485D+03      0.194841D+02      0.216790D+02
   yx        -0.542119D+01     -0.803337D+00     -0.893833D+00
   yy         0.836020D+02      0.123885D+02      0.137841D+02
   zx         0.336239D+01      0.498255D+00      0.554384D+00
   zy        -0.142900D+01     -0.211756D+00     -0.235611D+00
   zz         0.910194D+02      0.134877D+02      0.150071D+02

 First dipole hyperpolarizability, Beta (input orientation).
 ||, _|_  parallel and perpendicular components, (z) with respect to z axis,
 vector components x,y,z.  Values do not include the 1/n! factor of 1/2.
 (esu units = statvolt**-1 cm**4 , SI units = C**3 m**3 J**-2)
 Beta(0;0,0):
               (au)            (10**-30 esu)      (10**-50 SI)
   || (z)     0.742766D+02      0.641692D+00      0.238158D+00
   _|_(z)     0.247589D+02      0.213897D+00      0.793858D-01
   x         -0.432067D+03     -0.373272D+01     -0.138536D+01
   y          0.233313D+03      0.201565D+01      0.748087D+00
   z          0.371383D+03      0.320846D+01      0.119079D+01
   ||         0.123133D+03      0.106377D+01      0.394808D+00
   xxx       -0.990826D+02     -0.855996D+00     -0.317695D+00
   xxy        0.241672D+02      0.208786D+00      0.774889D-01
   yxy       -0.294431D+02     -0.254366D+00     -0.944053D-01
   yyy        0.701220D+02      0.605799D+00      0.224836D+00
   xxz       -0.323845D+01     -0.279777D-01     -0.103837D-01
   yxz       -0.507830D+00     -0.438725D-02     -0.162829D-02
   yyz        0.436789D+02      0.377352D+00      0.140050D+00
   zxz       -0.154967D+02     -0.133879D+00     -0.496880D-01
   zyz       -0.165181D+02     -0.142703D+00     -0.529630D-01
   zzz        0.833538D+02      0.720112D+00      0.267263D+00

 ----------------------------------------------------------------------

 Dipole orientation:
     8          4.32119694          0.58733145         -3.64535041
     6         -0.18799505         -0.49583379         -1.00637798
     6          2.36637202         -0.29837544          0.33648204
     6         -2.24588479         -1.37470695          0.73485320
     6         -4.35870173         -0.17161925          1.41425953
     6          4.55727713          0.40925018         -1.37908749
     6         -6.21811695         -1.38481513          3.19411422
     6         -5.11766253          2.41664114          0.51580090
     6          7.06796379          0.89685429         -0.09287914
     1         -0.63720554          1.31819760         -1.86983292
     1          0.01016315         -1.82694703         -2.57598791
     1          2.85350787         -2.09738396          1.24511211
     1          2.28006028          1.07225027          1.88617701
     1         -1.94307711         -3.24657886          1.53348698
     1         -8.07581450         -1.57972676          2.30378573
     1         -6.49668487         -0.22102190          4.88224057
     1         -5.59565587         -3.25407130          3.79615399
     1         -3.73927628          3.28215970         -0.73975769
     1         -5.40324644          3.68569519          2.12447532
     1         -6.92474247          2.33250396         -0.48797938
     1          7.53342420         -0.61905787          1.22851827
     1          8.55377286          1.08742926         -1.50070097
     1          6.95081418          2.64141208          1.00916933

 Electric dipole moment (dipole orientation):
 (Debye = 10**-18 statcoulomb cm , SI units = C m)
                  (au)            (Debye)         (10**-30 SI)
   Tot        0.108537D+01      0.275874D+01      0.920215D+01
   x          0.000000D+00      0.000000D+00      0.000000D+00
   y          0.000000D+00      0.000000D+00      0.000000D+00
   z          0.108537D+01      0.275874D+01      0.920215D+01

 Dipole polarizability, Alpha (dipole orientation).
 (esu units = cm**3 , SI units = C**2 m**2 J**-1)
 Alpha(0;0):
               (au)            (10**-24 esu)      (10**-40 SI)
   iso        0.102036D+03      0.151201D+02      0.168234D+02
   aniso      0.460529D+02      0.682433D+01      0.759309D+01
   xx         0.128366D+03      0.190219D+02      0.211647D+02
   yx        -0.371189D+01     -0.550046D+00     -0.612008D+00
   yy         0.857796D+02      0.127112D+02      0.141431D+02
   zx        -0.124729D+02     -0.184829D+01     -0.205650D+01
   zy        -0.284151D+01     -0.421068D+00     -0.468501D+00
   zz         0.919609D+02      0.136272D+02      0.151623D+02

 First dipole hyperpolarizability, Beta (dipole orientation).
 ||, _|_  parallel and perpendicular components, (z) with respect to z axis,
 vector components x,y,z.  Values do not include the 1/n! factor of 1/2.
 (esu units = statvolt**-1 cm**4 , SI units = C**3 m**3 J**-2)
 Beta(0;0,0):
               (au)            (10**-30 esu)      (10**-50 SI)
   || (z)     0.110089D+03      0.951080D+00      0.352984D+00
   _|_(z)     0.366962D+02      0.317027D+00      0.117661D+00
   x         -0.275642D+03     -0.238134D+01     -0.883809D+00
   y         -0.871799D+01     -0.753167D-01     -0.279530D-01
   z          0.550443D+03      0.475540D+01      0.176492D+01
   ||         0.123133D+03      0.106377D+01      0.394808D+00
   xxx       -0.841563D+02     -0.727045D+00     -0.269835D+00
   xxy        0.107005D+02      0.924439D-01      0.343096D-01
   yxy        0.175459D+00      0.151583D-02      0.562586D-03
   yyy       -0.259324D+02     -0.224036D+00     -0.831486D-01
   xxz        0.322381D+02      0.278512D+00      0.103367D+00
   yxz       -0.125477D+02     -0.108402D+00     -0.402325D-01
   yyz        0.668407D+02      0.577452D+00      0.214315D+00
   zxz       -0.789999D+01     -0.682497D-01     -0.253302D-01
   zyz        0.123259D+02      0.106486D+00      0.395213D-01
   zzz        0.844023D+02      0.729170D+00      0.270624D+00

 ----------------------------------------------------------------------
 1\1\GINC-MN458\Freq\RB3LYP\def2TZVP\C8H14O1\ANDFAG_A\04-Jun-2024\0\\#P
  Geom=AllCheck Guess=TCheck SCRF=Check GenChk RB3LYP/def2TZVP Freq\\S3
 6\\0,1\O,2.7883347143,-0.4653939398,-1.0272672627\C,0.0490845948,-0.49
 22574876,-0.3429684388\C,1.1186688802,0.0487617104,0.6090302137\C,-1.3
 053961581,-0.5465490091,0.3001828579\C,-2.4242693464,0.0913642003,-0.0
 545193271\C,2.5282912939,0.0360242062,0.0421515834\C,-3.699911734,-0.0
 993205838,0.7225323417\C,-2.546654132,1.0289532966,-1.2246623587\C,3.5
 977051875,0.6950809396,0.8889161864\H,0.0430295615,0.1092510374,-1.251
 2233193\H,0.3480594606,-1.4969989285,-0.6562986768\H,1.1369947761,-0.5
 32730882,1.5393359627\H,0.8807309594,1.0715492613,0.9219947265\H,-1.36
 46293237,-1.1975186297,1.1709332929\H,-4.4941015056,-0.4946827936,0.08
 06960709\H,-4.0657821896,0.8545465666,1.1166113724\H,-3.5665899904,-0.
 7851146015,1.5594079843\H,-1.6129181423,1.1708196653,-1.7643577406\H,-
 2.8985224291,2.0111124101,-0.8929345089\H,-3.2921440457,0.6583032721,-
 1.9356047861\H,3.549793011,0.3481372029,1.9235473054\H,4.5812231291,0.
 4907120705,0.4714223928\H,3.4336034285,1.7762510162,0.9074741281\\Vers
 ion=ES64L-G16RevA.03\State=1-A\HF=-388.651242\RMSD=1.795e-09\RMSF=2.40
 0e-06\ZeroPoint=0.2011902\Thermal=0.2128662\Dipole=-0.3355589,0.519199
 9,0.8921097\DipoleDeriv=-0.7490894,0.0060177,0.0997503,-0.0110605,-0.4
 464617,-0.2828256,0.1566665,-0.2972944,-0.8704431,0.0217813,0.0081007,
 0.0148112,0.0626525,0.1269394,0.025069,0.0312506,0.0577365,0.0756116,-
 0.363513,-0.0075136,0.1219567,-0.0120478,0.128953,-0.0460127,0.3053337
 ,-0.0862643,0.0036876,0.0815546,-0.0719815,-0.038533,-0.0351061,-0.128
 4721,-0.1199665,-0.2241234,-0.1207826,-0.0802951,0.2016901,-0.0787163,
 -0.0630045,-0.1285932,-0.0224388,-0.1982501,0.0084042,-0.19495,0.10081
 33,1.2153074,0.1667015,-0.0370335,0.1601067,0.3583414,0.4234332,-0.182
 3116,0.4381678,0.8939157,0.0140781,-0.00906,0.0683648,0.0436937,0.1196
 506,0.0624314,0.0108043,0.0688705,0.0593749,0.0158757,0.0242435,0.0267
 954,0.0054858,0.0889682,0.1020902,0.0451944,0.1021953,0.0175788,-0.262
 3164,-0.1474595,-0.1788668,-0.1728759,-0.0501119,-0.1583919,-0.1322601
 ,-0.1269846,-0.0770945,0.0221737,-0.0082154,-0.0107055,-0.0351139,-0.0
 009544,0.0797377,-0.0129959,0.0569189,-0.0681261,-0.0282653,0.0526438,
 0.0052471,0.0229559,-0.0715714,-0.0520717,0.015009,-0.0431729,0.047669
 2,0.0231523,0.0016742,-0.0068243,-0.0053552,0.0246172,0.0905569,-0.057
 1868,0.0511506,-0.0641162,0.0227116,0.0088204,0.0182697,-0.0117843,-0.
 0903537,-0.069496,-0.0470454,-0.0376915,0.0482877,0.0030834,0.0105606,
 0.0219845,0.0284508,0.015875,0.1214653,0.0389931,0.1323291,-0.0601729,
 -0.1291811,-0.0308284,-0.0462056,-0.0838562,0.0535126,-0.0338469,-0.09
 05185,-0.0582372,-0.0266632,-0.0371844,0.0329789,0.0282047,0.096852,-0
 .1071295,-0.0746205,0.0915764,-0.0479854,0.0417448,0.0361475,0.0435639
 ,-0.0409738,-0.0131606,-0.0164708,0.112958,0.0326329,0.0931378,-0.0639
 689,-0.0684448,-0.0455453,0.1093332,-0.0198484,0.0499153,0.0189996,0.0
 767054,0.0336059,-0.0013125,0.0362168,0.0667688,0.0098266,0.1124389,-0
 .1152642,0.000365,0.0073054,-0.0687328,0.0130388,-0.0516004,-0.0307134
 ,-0.1098602,-0.0488366,0.0189541,-0.0447462,-0.1242109,0.0196819,-0.03
 59113,0.0531443,-0.0415378,0.0237923,-0.0029621,0.0594684,0.0781601,0.
 0044449,0.0386243,-0.0686001,-0.0995602,-0.0009253,0.0119257,0.0261869
 ,0.0711213,-0.0224524,0.0573883,-0.0230451,0.0372038,0.0422378,0.05042
 22,-0.0282549,0.0217775,-0.067088,-0.0125859,-0.0110565,0.0127223,0.07
 77778\Polar=131.4852479,-5.4211895,83.6019707,3.3623924,-1.429003,91.0
 194308\PolarDeriv=0.9112815,-1.4760618,0.5621628,-2.9873433,0.6042847,
 1.2381018,-0.4476321,1.2339785,-3.320071,0.7326414,-3.1607166,-1.59704
 88,-0.2894459,0.7959456,-1.630957,2.5688693,-2.412816,-8.7648708,-12.4
 333609,0.8642315,-1.6911444,-2.2965597,-1.1849856,-0.8208218,-0.858303
 1,-2.5388598,4.2006746,-1.7211851,3.2569298,-2.5026634,-2.7557152,-2.0
 876209,2.8535358,-1.0255507,-1.912652,3.4919414,-1.9063939,-0.0550836,
 0.9190511,1.5184159,1.1282744,1.1234192,2.0780961,1.502169,-3.8193014,
 1.3423627,-3.1150827,1.9711712,7.2781596,0.9557089,-2.2547318,1.980520
 1,1.6643791,-4.3413752,23.696081,-4.5197435,2.8392832,3.7270828,-0.685
 3532,2.4685678,-5.2297464,4.2083467,-4.1647721,0.6365633,-1.9115206,2.
 1181292,3.4245011,0.9994524,-2.5808617,2.7719648,2.2044023,-1.3818899,
 -20.6659326,4.5573056,-3.0637227,-3.688563,-0.0828045,-1.4873143,8.706
 8884,-5.512691,3.8774699,0.771441,0.4853013,-0.2024348,-5.8380755,0.46
 16248,0.1556613,-3.7610304,-0.0568644,-0.8029113,5.1797533,-0.5413069,
 -0.4139821,-0.848019,-0.7695044,-1.3197236,-3.7836543,-0.7377692,1.455
 6563,-1.6584721,1.4777588,0.6586209,-6.8137944,-1.7452858,0.579303,-2.
 452555,1.0063085,4.409819,10.5471356,-0.913789,1.3627267,2.174129,2.78
 79319,-0.2430704,-0.2344104,3.7880031,-2.3583188,2.996946,-3.615998,2.
 4041884,1.9135784,3.2394414,-3.1503021,2.0924753,2.1600146,-1.8030525,
 -0.2067249,-1.620091,2.5043931,5.8208301,0.8428568,1.554129,-1.8278706
 ,4.5720599,-5.5934657,0.749184,-0.6418765,1.4780862,6.8180462,0.526361
 9,-1.5363471,3.2342035,0.2581237,2.2383223,-2.3494242,2.3063528,1.6722
 284,3.9810434,0.2247701,0.6300422,4.6701566,0.5466038,-5.6062605,0.583
 1973,-1.0849236,1.6390724,6.5710397,0.7437395,-0.2784449,0.0802056,1.5
 259176,-4.804345,-0.4243785,0.9409283,0.1338807,-0.8017845,0.1825644,0
 .212854,2.2110812,0.2561025,1.0190445,0.2830581,-1.7407385,2.1800176,-
 1.6123931,0.2352908,-1.2333956,0.0608643,1.4649354,-4.7591577,4.537770
 1,-1.7845702,1.4251959,-0.0775532,0.5845039,0.434905,-4.3730684,2.3417
 169,-6.8288322,0.7302244,-2.2009647,-1.0172483,0.097853,0.7723525,-1.5
 940756,0.9532303,-1.345267,-1.4332567,0.2914351,-0.7676361,-0.1854998,
 0.8931599,-0.1888518,-0.0973879,-1.7580353,-0.370762,-1.4802329,-0.326
 4761,2.1328665,-2.3993247,1.4305144,-0.1224222,1.4877422,-0.2272392,-2
 .0165348,6.1829097,-1.2195423,1.2528227,-0.974203,0.1709309,-0.4514362
 ,-0.5596447,2.1811528,-0.5121873,5.4445147,-0.2906252,2.178004,1.24749
 19,0.2675008,-0.2185713,1.2491478,-0.6935896,1.1341526,1.693872,1.2616
 235,-1.1062105,0.0171736,0.8201227,0.1718188,-0.2227261,-2.1458003,-0.
 1680665,-2.8775497,-0.4754941,2.6385514,-2.564884,0.9267039,-0.4229856
 ,2.6856249,-0.4353244,-3.0845296,4.5363691,-10.3584143,-1.8008167,-1.1
 663048,-1.973834,-0.7787458,-1.0608836,-2.5539788,-2.5761028,-1.014866
 9,-1.0345772,-0.3106429,-0.6709311,-5.1923756,-1.161071,-0.3837495,-2.
 2733129,-0.8543241,-2.1675462,-5.1054282,2.2300625,-1.4308551,1.193334
 4,-1.0956107,-0.7357904,4.8889624,-3.6887518,5.4474377,-2.2887355,2.16
 95621,1.4794214,1.2022432,-1.5407756,1.5248949,-1.9544156,1.5495716,2.
 0361186,0.347187,-0.647998,0.0005889,0.3211362,-0.2580749,0.3522479,-1
 .2720707,-1.0153722,-2.7002169,0.6909674,2.5586345,-2.5979663,0.892817
 6,0.3941572,2.0014725,-1.3131475,-2.5306354,5.1532735,4.7242976,0.4940
 007,1.2649716,-1.9582914,-1.323212,2.3830889,0.0956455,0.8713736,1.077
 4697,-0.8073701,-0.5422804,0.1159032,-1.8247701,-0.6837994,-0.3777828,
 1.6490302,0.689579,-2.9278504,-2.3028767,2.5222438,-2.3940839,-0.86126
 31,0.2455623,-0.9924826,2.3541466,-3.7456215,8.874524,0.1283206,-0.360
 7248,0.7100352,0.1565068,-0.8815997,1.6533998,-0.9285175,0.8893877,0.6
 149832,-5.4556736,0.2103465,-1.3444808,-4.3178698,0.2861421,-3.6227371
 ,-1.3161619,-1.5804457,-0.0927246,-1.0968112,-0.7316552,-1.5849467,-3.
 6915772,-0.0924492,-0.2388247,-4.0530789,-0.2315975,-5.6302458,0.27451
 79,-0.7586475,-0.2424349,0.8836625,-0.1367621,0.1143667,-1.0942189,0.3
 441437,-0.121879,-0.3277767,1.5518375,-1.567582,1.2569068,0.0524023,1.
 2576997,1.7851925,-0.9011975,8.0611501,10.3918489,-0.4119724,0.8281161
 ,-1.2947487,0.0540357,1.0083506,-1.8257876,1.4578105,0.0674437,-0.0473
 859,-0.2438038,-0.4604835,-3.606386,-0.2205848,-0.472765,1.543412,-0.3
 978373,-0.7872121,0.2652186,1.0256327,-0.6230608,-0.3980181,-0.1574039
 ,-0.3574907,1.5346092,1.3243213,8.5142565,0.4300032,1.2114821,1.163375
 9,-0.6118387,0.0006883,0.2837561,0.3977937,1.1974835,1.1849546\HyperPo
 lar=-99.0825697,24.1672355,-29.4431282,70.1219548,-3.2384538,-0.507829
 8,43.6789119,-15.4967044,-16.5180861,83.3538313\Quadrupole=-0.0717296,
 0.756177,-0.6844473,2.0702843,5.6446933,-1.6434643\PG=C01 [X(C8H14O1)]
 \NImag=0\\0.13138288,-0.05292059,0.16705691,-0.14237952,0.29745393,0.6
 5369701,0.00245552,-0.00168171,-0.00382635,0.45733314,0.00109986,-0.00
 267795,-0.00069057,-0.03160083,0.55993173,0.00165161,0.00003702,-0.002
 12592,-0.02613186,-0.04670525,0.53865132,-0.00627188,0.00884054,0.0291
 1724,-0.11351589,-0.02339511,-0.04283649,0.44471842,0.01665878,0.01857
 188,-0.02193369,-0.02246834,-0.09016455,-0.02366809,-0.01057060,0.5340
 9729,0.04342415,-0.01792146,-0.02918593,-0.03935697,-0.02223046,-0.122
 73156,0.00803673,0.00485482,0.51489034,0.00077579,0.00018723,0.0003354
 4,-0.17912274,-0.00124149,0.05274259,-0.03450942,-0.00241668,0.0047342
 1,0.69899483,0.00055743,0.00110877,0.00085902,-0.00212060,-0.08069082,
 0.01369847,-0.01053866,-0.00088083,0.00514963,-0.17919142,0.38758811,0
 .00049054,0.00055132,0.00200667,0.05362177,0.01318041,-0.11125595,-0.0
 1900608,0.00158689,0.01341948,0.00510783,-0.23723042,0.45510669,0.0003
 2973,-0.00002481,-0.00025631,-0.02584638,0.01324731,-0.00491488,0.0006
 0325,0.00155757,0.00258223,-0.38629000,0.17303478,-0.08533859,0.699744
 00,-0.00046931,-0.00003773,0.00039590,0.00302322,0.00460697,-0.0037809
 2,-0.00332345,0.00000132,0.00071467,0.16765973,-0.16943621,0.07860626,
 -0.18546027,0.38931608,0.00027499,0.00027268,0.00002227,0.01022456,-0.
 00802141,0.00983610,0.00125961,-0.00045565,-0.00225033,-0.07930406,0.0
 7670939,-0.12024517,0.02617109,-0.18549516,0.41654696,-0.13715144,0.04
 998345,0.12042191,-0.02975618,-0.00441039,0.00418344,-0.16404863,-0.00
 869120,0.00826036,-0.00177068,0.00009650,-0.00156549,-0.00069724,-0.00
 000871,0.00020692,0.49702607,0.04899197,-0.18543021,-0.24165111,-0.011
 34883,0.00011451,0.00707135,-0.01069241,-0.09076848,0.00346376,-0.0015
 9487,-0.00076273,-0.00315651,-0.00062976,0.00012932,0.00018725,-0.0029
 8675,0.37992944,0.11921937,-0.24160141,-0.58337755,-0.01799452,0.00304
 758,0.01397737,0.00692666,0.00369420,-0.08155463,-0.00230630,-0.002798
 36,-0.00668625,-0.00059631,-0.00067703,0.00080978,-0.10052487,0.259757
 42,0.78600825,-0.00009027,-0.00010132,-0.00010997,0.00164318,0.0037677
 6,0.00019119,0.00017654,0.00013317,-0.00003449,-0.03546271,0.00100892,
 0.01554358,-0.16404258,-0.01063944,0.05171671,-0.00002899,0.00007090,0
 .00016167,0.48971916,0.00000572,-0.00014688,-0.00030820,0.00342909,0.0
 0694770,0.00738672,0.00237765,-0.00017707,-0.00168530,0.01477291,0.005
 46732,-0.00630075,-0.01350210,-0.08062893,0.01523125,0.00005384,0.0004
 0513,0.00113509,-0.01632475,0.54780150,-0.00031372,-0.00016250,-0.0000
 4088,-0.00030495,0.00760551,0.00378539,0.00124018,0.00003279,-0.000123
 27,-0.00163879,-0.00093766,0.00708965,0.05505649,0.01421868,-0.1146576
 9,0.00032263,0.00020476,0.00032282,0.03468646,-0.02501470,0.54133578,-
 0.00007283,0.00000748,0.00026073,0.00069690,-0.00097357,-0.00099825,-0
 .00056604,-0.00000399,0.00019119,0.00182864,0.01944601,-0.02316411,-0.
 08813076,0.00556894,-0.00168967,0.00015477,-0.00010345,-0.00039600,0.0
 0190226,-0.01802612,0.02403005,0.57397816,0.00008055,0.00001114,0.0000
 7220,-0.00206959,-0.00303728,-0.00287607,-0.00064200,-0.00003829,0.000
 69117,0.00722986,-0.00794366,0.01728433,0.00544226,-0.12295462,0.06044
 126,-0.00011831,-0.00004652,-0.00040662,-0.00223967,-0.00262859,0.0079
 2222,0.00778364,0.50125986,0.00009730,0.00001545,-0.00017051,-0.000009
 82,-0.00313248,-0.00129087,-0.00001353,0.00008164,-0.00028645,-0.00655
 322,0.01234398,-0.00575827,-0.00176590,0.06035948,-0.15249486,-0.00009
 551,0.00003568,0.00011844,0.00331267,0.01434627,-0.01725177,-0.0318907
 9,0.02384875,0.50295774,0.01792375,-0.00281621,-0.00494706,-0.00288390
 ,0.00042025,0.00394797,-0.02135569,-0.01535266,-0.01554418,-0.00070441
 ,-0.00035635,-0.00178640,-0.00006086,-0.00035587,0.00040703,-0.1547858
 3,-0.02960640,-0.03046374,-0.00002155,0.00030307,-0.00001029,-0.000080
 15,-0.00006547,0.00001198,0.53397034,-0.01213077,0.00365607,-0.0350146
 8,0.00099672,0.00159298,-0.00061636,-0.00390360,0.01430722,-0.00294360
 ,0.00002007,0.00017047,0.00017969,0.00012091,-0.00013596,0.00000160,-0
 .02667377,-0.09574846,-0.00751024,-0.00001036,-0.00000886,-0.00002068,
 0.00002040,-0.00000987,-0.00002542,-0.03698542,0.49984175,-0.02274733,
 -0.03967475,-0.03922126,0.00317159,-0.00015775,-0.00180294,0.00704053,
 -0.00121472,0.01432874,0.00037792,0.00032434,0.00109015,0.00020506,0.0
 0006666,-0.00019188,-0.03003327,-0.00824985,-0.09523262,-0.00001510,-0
 .00018992,-0.00005882,0.00003640,0.00008346,0.00000029,-0.06155197,-0.
 00917914,0.53002322,0.00000660,0.00020422,0.00139218,-0.04748894,0.001
 44647,-0.00197247,-0.00237328,0.01333889,-0.01959058,0.00187037,-0.018
 91933,0.02557020,0.00151596,-0.00023058,-0.00045509,0.00129530,0.00005
 579,-0.00227904,-0.00003347,0.00004880,-0.00014581,-0.00173973,0.00032
 046,0.00015211,-0.00001679,-0.00007989,0.00002346,0.05555330,-0.000579
 79,0.00008109,-0.00081323,0.00174293,-0.13156413,0.12245352,-0.0004707
 7,0.00731277,-0.01170493,-0.00167735,-0.00097487,0.00050785,0.00027153
 ,-0.00042582,0.00026676,-0.00005242,0.00070060,0.00102395,-0.00007732,
 0.00002953,-0.00000008,0.00107416,-0.00055366,-0.00014805,0.00018885,-
 0.00025577,-0.00016046,-0.00118401,0.14055534,0.00008432,0.00034659,0.
 00144682,-0.00124897,0.12113883,-0.22604898,-0.00305388,0.01095001,-0.
 01847927,0.00129705,0.00782264,-0.01184834,-0.00116896,0.00066240,-0.0
 0050050,0.00142397,-0.00052602,-0.00112173,0.00013218,-0.00007800,0.00
 004404,-0.00076071,0.00040147,-0.00023778,-0.00015814,0.00010833,-0.00
 005835,0.00504540,-0.13450769,0.24840852,-0.00080429,0.00047858,0.0006
 9374,-0.06084711,0.06622475,0.01942346,0.00502393,-0.02314661,-0.00745
 237,-0.01450447,0.02934568,0.00771825,-0.00093710,-0.00125492,0.003235
 48,0.00106957,-0.00098198,-0.00071672,-0.00126725,-0.00143022,-0.00182
 188,0.00005682,0.00055433,0.00078170,0.00005301,0.00010531,0.00006853,
 -0.00046187,0.00064865,0.00001104,0.07466562,0.00072362,0.00159415,0.0
 0169393,0.06113587,-0.26253713,-0.06129107,0.00053792,-0.01276288,-0.0
 0433351,0.00208988,0.00418578,0.00114867,-0.00085570,0.00062789,-0.000
 44101,0.00168754,-0.00091895,-0.00239998,0.00008986,-0.00022275,-0.000
 25630,-0.00008600,-0.00035684,0.00008180,-0.00019707,0.00002205,0.0003
 2963,0.00469309,-0.01742372,-0.00406864,-0.06863509,0.28550577,0.00002
 451,0.00053587,0.00044760,0.01902975,-0.06237264,-0.06651603,0.0025261
 8,-0.02239981,-0.00834574,0.00566158,-0.01271788,-0.00316296,0.0002638
 9,0.00069584,-0.00141715,0.00086680,0.00004396,0.00011850,0.00043963,0
 .00047329,0.00078387,-0.00006386,0.00013798,-0.00024889,0.00001816,-0.
 00007697,-0.00007077,-0.00696650,0.02503300,0.00760892,-0.01932076,0.0
 7204866,0.07171719,-0.00492764,0.00415718,0.00042036,-0.00173892,0.012
 77076,-0.02025264,-0.04556179,-0.00432766,0.00103138,0.00171590,0.0012
 6010,-0.00102613,-0.00022816,0.00002590,0.00018663,0.00382771,-0.01902
 923,0.02693199,-0.00003696,-0.00003384,0.00001337,0.00013626,0.0000939
 9,-0.00012271,-0.00050856,0.00191577,-0.00249538,-0.00334387,-0.002305
 61,-0.00273695,0.00097263,-0.00011441,0.00087501,0.05073559,0.00066715
 ,-0.00098531,-0.00027536,-0.00014187,0.00674541,-0.01059814,-0.0011469
 5,-0.11444001,0.11427042,0.00030724,0.00043348,-0.00023713,0.00013861,
 -0.00007996,-0.00012283,0.00171437,-0.00002856,-0.00200499,-0.00001485
 ,-0.00010257,-0.00001634,-0.00000639,0.00014824,0.00002175,-0.00027380
 ,-0.00047680,0.00034060,-0.00186926,0.00016560,-0.00184667,0.00049937,
 0.00081483,0.00002420,0.00115868,0.12572080,0.00303998,-0.00087599,0.0
 0099579,-0.00172723,0.01055429,-0.01839718,-0.00346754,0.11648040,-0.2
 1911120,0.00184192,0.00002519,0.00061715,-0.00031752,0.00001446,0.0002
 4083,0.00078758,0.00705865,-0.01507008,-0.00002018,0.00001053,-0.00001
 970,0.00017496,-0.00003647,-0.00013827,-0.00004517,-0.00123829,-0.0002
 3263,-0.00269751,-0.00215355,-0.00158707,0.00040377,-0.00016461,0.0005
 2112,0.00383063,-0.12505042,0.24328095,-0.00494992,-0.00303368,0.00448
 111,0.00372169,-0.02290545,-0.00659517,-0.06165154,0.05631195,0.013711
 09,0.00233991,-0.00061155,0.00001256,-0.00024069,0.00057894,0.00009447
 ,-0.00267355,0.03224407,0.00639436,-0.00003885,-0.00001832,0.00001596,
 -0.00002007,0.00005371,-0.00008750,0.00059862,-0.00307308,0.00011050,0
 .00095584,0.00078702,0.00069352,-0.00361771,-0.00183598,-0.00302135,0.
 00030805,-0.00061451,-0.00029145,0.06616820,0.00046366,0.00007133,0.00
 164915,0.00137516,-0.01029698,-0.00323331,0.05298965,-0.26408021,-0.06
 508561,0.00104250,0.00070632,0.00015748,-0.00045751,0.00028097,0.00026
 185,-0.00035744,-0.00022354,-0.00129087,-0.00007404,-0.00001025,-0.000
 08818,-0.00001314,0.00004377,0.00000372,-0.00029860,-0.00071490,0.0001
 7310,-0.00005505,0.00090061,-0.00010072,-0.00185391,0.00071765,-0.0014
 6959,0.00510781,-0.01854118,-0.00395684,-0.05743071,0.29031624,0.00314
 336,0.00145595,-0.00106727,0.00392587,-0.01982164,-0.00606839,0.013577
 27,-0.06700727,-0.05947477,0.00121615,0.00072354,0.00026596,-0.0001472
 0,0.00011623,0.00026799,0.00427512,-0.01413135,-0.00693138,-0.00006933
 ,-0.00006549,-0.00014015,-0.00006483,0.00008897,0.00011578,-0.00065120
 ,0.00034372,-0.00007123,0.00068761,0.00016255,0.00045329,-0.00299156,-
 0.00168078,-0.00216223,-0.00727872,0.02590112,0.00689901,-0.01522734,0
 .07309734,0.06802585,-0.00023810,-0.00014662,-0.00054234,-0.00163583,-
 0.01735920,0.02281441,0.00213516,0.00007569,0.00120582,-0.05428748,-0.
 00768110,0.01728441,0.00114275,0.01781893,-0.02157873,-0.00026370,0.00
 056188,0.00043978,-0.00010965,0.00016079,-0.00356166,-0.00287381,0.003
 47275,0.00158067,0.00001260,-0.00008960,0.00001192,-0.00483700,-0.0000
 1778,0.00203119,0.00089822,0.00060598,-0.00031439,-0.00033535,0.000187
 70,-0.00074477,-0.00007176,-0.00010378,-0.00004553,0.06109138,0.000114
 91,-0.00016965,-0.00027892,0.00098993,0.00100746,0.00123598,0.00083584
 ,0.00031634,0.00011831,-0.00466926,-0.13740718,0.13186607,0.00023385,-
 0.00809396,0.01637165,-0.00036263,0.00015053,0.00002243,-0.00287972,-0
 .00453969,-0.00331429,0.00426750,0.00691992,0.00440938,0.00000444,-0.0
 0003514,0.00004928,0.00019819,0.00151023,0.00003064,-0.00089175,0.0004
 8799,0.00025422,-0.00046145,0.00005385,-0.00017641,-0.00008415,-0.0001
 9033,0.00006224,0.00200098,0.13979232,0.00003691,0.00008029,0.00021274
 ,0.00057658,0.00909049,-0.01069992,-0.00033662,-0.00037009,0.00030418,
 0.01308133,0.13300226,-0.21422037,0.00117827,0.00899697,-0.00743656,0.
 00023335,-0.00015472,0.00002717,0.00041839,-0.00462046,-0.00223806,0.0
 0059565,0.00475058,0.00527930,0.00009863,0.00004762,-0.00004214,0.0026
 7533,-0.00000767,0.00012386,-0.00032328,-0.00034532,0.00038510,0.00050
 035,0.00013139,0.00051189,0.00000096,-0.00001980,-0.00001978,-0.018172
 56,-0.15012520,0.22692183,-0.00023953,-0.00003779,0.00006862,0.0000066
 3,0.00245570,0.00096317,0.00026872,0.00006493,0.00017496,-0.00139730,-
 0.00231167,0.00261496,-0.02499110,-0.00818551,-0.01580366,0.00030334,0
 .00004654,-0.00004526,-0.17266796,-0.06724988,-0.10899049,0.00080979,0
 .00076582,-0.00105585,-0.00007561,-0.00001879,-0.00000525,-0.00007810,
 -0.00007442,0.00009324,-0.00071242,-0.00014920,0.00030029,0.00001880,-
 0.00000132,-0.00001878,0.00001871,-0.00003901,-0.00005479,-0.00039645,
 -0.00102735,-0.00068078,0.19351843,-0.00004791,-0.00000972,0.00004110,
 -0.00001450,0.00012749,-0.00035981,-0.00009925,-0.00004299,0.00011473,
 0.00049922,-0.00021757,0.00039806,-0.00105137,-0.00068426,-0.00164461,
 0.00006978,0.00000187,-0.00007289,-0.06733255,-0.07876194,-0.05279183,
 -0.00005641,0.00009673,-0.00021389,-0.00003171,-0.00000427,0.00000624,
 0.00000532,-0.00003488,0.00000627,-0.00004611,-0.00007062,0.00001883,0
 .00000746,0.00000664,0.00000467,0.00000334,-0.00000481,-0.00001421,0.0
 0009338,0.00044491,0.00010283,0.07352687,0.08228478,0.00001848,0.00004
 822,0.00003425,0.00005083,-0.00138685,-0.00040391,-0.00015958,0.000008
 16,-0.00000993,0.00125449,0.00049074,-0.00084626,0.01232603,0.00781025
 ,0.01216469,0.00000564,-0.00005121,-0.00007865,-0.10696362,-0.05250340
 ,-0.13707312,0.00003304,-0.00017406,0.00082659,-0.00000657,0.00000214,
 0.00000940,-0.00006557,0.00005009,0.00004238,0.00038037,-0.00000454,-0
 .00008559,0.00000762,-0.00000895,-0.00000409,-0.00001105,0.00002592,0.
 00000847,0.00020678,-0.00008175,0.00029450,0.11745790,0.06041018,0.147
 05198,-0.00009884,0.00002379,0.00009177,-0.00109134,-0.00160818,-0.001
 95760,-0.00066827,0.00016669,0.00071415,-0.00163495,-0.00113546,0.0030
 7552,-0.01381643,0.02633865,0.01055827,0.00011429,-0.00012998,-0.00038
 738,-0.06846284,0.07188617,0.02973827,0.00063884,0.00062392,-0.0011872
 8,-0.00014551,-0.00000243,0.00006197,-0.00002725,-0.00004840,0.0000769
 1,0.00028681,0.00003072,-0.00008633,0.00002157,0.00004425,-0.00001344,
 -0.00001265,-0.00005166,0.00000559,0.00022693,0.00099680,0.00087167,0.
 00776741,-0.02094782,-0.00815414,0.07872446,0.00007684,0.00002151,-0.0
 0001232,-0.00016372,-0.00009994,-0.00020919,-0.00001484,-0.00000318,-0
 .00013993,-0.00068948,0.00047488,-0.00031184,0.00139195,0.00563776,0.0
 0260598,-0.00013150,-0.00002768,0.00002139,0.07017701,-0.24053779,-0.0
 7665996,-0.00015614,0.00043277,0.00014114,0.00003300,0.00000692,0.0000
 0207,0.00008752,0.00006021,-0.00003858,0.00004321,-0.00001622,0.000022
 66,-0.00001442,-0.00000932,0.00000142,-0.00001133,0.00001633,0.0000064
 9,-0.00017443,-0.00000899,-0.00035646,0.00309308,-0.01156743,-0.004531
 98,-0.07869141,0.26177985,0.00010474,-0.00002949,-0.00012429,0.0003336
 9,0.00036966,0.00108768,0.00042370,-0.00007700,-0.00041017,0.00047172,
 0.00094823,-0.00139731,0.00553140,-0.01422030,-0.00537283,-0.00015271,
 0.00007550,0.00027933,0.03008692,-0.07761980,-0.07944162,-0.00019076,-
 0.00063245,0.00057765,0.00009290,0.00000342,-0.00003617,-0.00000601,-0
 .00000530,-0.00005901,-0.00004539,0.00000701,-0.00005550,-0.00003032,-
 0.00000583,0.00000159,-0.00003059,-0.00000098,0.00001228,0.00004928,-0
 .00021790,0.00015147,0.00596605,-0.01815393,-0.00785896,-0.03472345,0.
 08712319,0.08228279,0.00004910,-0.00000244,-0.00002285,0.00014100,0.00
 012045,-0.00027103,0.00000066,-0.00003970,-0.00003580,0.00104613,-0.00
 137748,0.00115062,0.00436030,-0.01830380,0.02139677,-0.00007279,0.0000
 0075,0.00002289,-0.05234962,0.02395734,-0.02893320,-0.00461499,0.00008
 679,0.00211568,0.00001921,0.00000310,0.00000064,0.00017694,-0.00002882
 ,-0.00001579,0.00001892,-0.00002201,0.00001467,-0.00002726,0.00000277,
 -0.00000339,0.00000613,0.00000428,0.00001672,-0.00037328,0.00061970,-0
 .00045919,-0.00289887,0.01550424,-0.01620265,-0.00220004,0.00523261,-0
 .00794741,0.05665323,-0.00001263,-0.00001366,-0.00002598,-0.00023771,0
 .00010810,-0.00024427,-0.00004538,0.00001688,0.00008958,0.00127490,-0.
 00003560,-0.00117306,0.00073217,-0.00392720,0.00277219,0.00000604,0.00
 000662,-0.00001079,0.02177488,-0.15206584,0.12751910,-0.00136553,0.000
 92938,0.00046375,-0.00002073,-0.00000965,0.00000635,0.00009719,0.00004
 013,-0.00011684,-0.00002237,-0.00000956,-0.00000856,-0.00002054,0.0000
 2757,-0.00001173,0.00000166,-0.00002140,0.00001882,-0.00015990,0.00068
 293,-0.00028473,-0.00091314,0.00840886,-0.00974509,0.00359947,-0.01659
 796,0.02163794,-0.02511498,0.16176511,0.00002590,-0.00001187,-0.000008
 90,0.00018737,-0.00040451,0.00024852,0.00003295,-0.00000508,-0.0000522
 9,-0.00229144,-0.00002895,0.00052872,-0.00344180,0.01065183,-0.0140122
 7,-0.00004055,0.00000850,0.00002871,-0.02607108,0.12658067,-0.20103265
 ,0.00413016,-0.00013358,-0.00058160,0.00001528,0.00000812,-0.00000521,
 -0.00019455,-0.00005288,0.00015189,0.00009898,0.00002147,-0.00003616,0
 .00002084,-0.00000107,0.00001972,-0.00001804,-0.00000364,-0.00001294,0
 .00053080,-0.00062523,0.00095906,-0.00211626,0.01174631,-0.01403663,0.
 00144039,-0.00728921,0.01032932,0.02789570,-0.14131948,0.21743893,0.00
 004858,-0.00000853,-0.00005259,-0.00114812,0.00121801,-0.00116720,0.00
 015592,0.00002636,-0.00008789,-0.00088658,-0.00003468,0.00045356,0.004
 77205,-0.00087517,-0.00132842,-0.00007571,0.00002789,0.00008360,0.0008
 5926,0.00012536,-0.00020881,-0.24753851,-0.02914516,0.11396273,0.00002
 293,0.00000244,-0.00001063,-0.00160165,0.00177137,-0.00120346,0.000107
 18,0.00004270,0.00001861,-0.00004203,-0.00005085,-0.00005424,-0.000010
 71,-0.00002904,-0.00000787,0.00017022,-0.00015195,0.00008564,0.0002520
 5,0.00022636,-0.00010584,-0.00002107,0.00004742,-0.00015488,0.00008306
 ,0.00021840,-0.00008711,0.27113520,-0.00007975,-0.00003384,-0.00007966
 ,0.00030659,-0.00079168,0.00081784,0.00011843,0.00032935,-0.00018426,-
 0.00030772,0.00046472,-0.00073568,-0.02003342,-0.00198364,0.00781648,0
 .00013706,0.00006961,0.00007641,0.00153341,-0.00204971,0.00314137,-0.0
 2712188,-0.05157149,0.01604394,-0.00003919,-0.00002172,-0.00001028,0.0
 0177929,-0.00019902,0.00009129,0.00003901,0.00019162,-0.00026461,-0.00
 014344,-0.00006082,-0.00010565,-0.00003608,-0.00005714,-0.00004487,-0.
 00007752,0.00013489,-0.00012701,0.00047310,0.00007625,-0.00019619,-0.0
 0018290,0.00029308,0.00024646,-0.00088385,0.00014105,0.00098660,0.0290
 4933,0.05219582,0.00010922,-0.00002353,-0.00001400,-0.00000278,0.00016
 218,-0.00052264,-0.00021368,-0.00018056,0.00027363,0.00068680,-0.00095
 875,0.00061278,0.02336292,0.00069935,-0.01180861,-0.00027987,-0.000038
 98,-0.00002062,-0.00196881,0.00375560,-0.00320746,0.11167542,0.0167987
 4,-0.11118911,0.00002536,0.00003720,0.00000762,-0.00107594,0.00022033,
 0.00102358,-0.00001356,-0.00027517,0.00034055,0.00016653,0.00000645,0.
 00011978,-0.00002981,0.00000950,-0.00012744,0.00005480,-0.00012711,0.0
 0009994,0.00017277,0.00011229,0.00023316,-0.00042871,-0.00005752,0.000
 30206,0.00137457,0.00052588,-0.00065824,-0.12397184,-0.02026127,0.1186
 1638,-0.00004915,-0.00003618,-0.00006893,-0.00014822,0.00037966,0.0003
 0432,0.00008436,0.00013980,0.00004889,0.00084037,0.00007365,0.00008191
 ,-0.00330319,0.00504076,-0.00182848,0.00007614,0.00002114,0.00008006,0
 .00008163,-0.00062264,0.00016349,-0.07109062,0.07110104,0.02935096,-0.
 00003128,0.00000393,-0.00001470,0.00037783,0.00004054,-0.00028616,-0.0
 0011672,0.00020042,-0.00034419,-0.00007244,-0.00005666,-0.00003939,-0.
 00005825,-0.00007244,-0.00006078,-0.00015542,0.00004893,-0.00028624,0.
 00007748,-0.00017321,0.00000924,0.00036447,-0.00005423,0.00011957,-0.0
 0009667,-0.00002299,-0.00016091,-0.00806517,0.02556182,0.00849552,0.07
 413219,0.00016829,0.00000665,-0.00008853,-0.00034403,-0.00049366,-0.00
 002080,0.00021856,-0.00007588,-0.00033014,-0.00242784,-0.00076998,0.00
 188322,0.00896205,-0.01953640,-0.00317755,-0.00023721,0.00002485,0.000
 15572,0.00059187,0.00071856,-0.00082547,0.07156929,-0.24704634,-0.0721
 7513,0.00009241,0.00000751,-0.00001052,0.00005216,0.00002694,-0.000109
 33,0.00011249,0.00004784,-0.00005956,-0.00006118,0.00001052,-0.0000195
 5,-0.00001829,0.00004339,0.00003953,0.00078628,0.00064528,0.00100638,-
 0.00005899,-0.00010996,-0.00007245,-0.00071880,0.00027545,0.00064985,0
 .00005120,0.00055889,0.00013718,-0.00094061,0.00494024,0.00126524,-0.0
 8098058,0.27201530,-0.00003390,0.00001815,0.00006142,0.00046534,0.0007
 4268,0.00005910,-0.00008726,-0.00002437,0.00013139,0.00092200,0.001543
 00,-0.00273178,-0.00952891,0.02640328,0.00835330,0.00002658,-0.0000710
 7,-0.00008375,-0.00068145,-0.00009254,0.00097308,0.02816036,-0.0705779
 6,-0.06981523,-0.00002082,0.00001209,0.00000897,-0.00017248,-0.0000889
 3,0.00027778,-0.00013992,-0.00008393,0.00015220,0.00007631,0.00000767,
 0.00007037,-0.00002357,-0.00001277,-0.00002427,-0.00112503,-0.00118618
 ,-0.00144590,0.00006203,-0.00013256,-0.00013490,0.00033498,-0.00026899
 ,-0.00020171,-0.00024267,-0.00029133,0.00018241,0.00341996,-0.01335370
 ,-0.00549673,-0.02846148,0.07653738,0.07715362,-0.00011945,0.00004493,
 0.00007376,-0.00025410,-0.00014958,-0.00011407,-0.00001111,0.00022199,
 -0.00005632,0.00127323,-0.00049154,-0.00037701,-0.00385011,0.00314888,
 -0.00386041,0.00021944,-0.00002167,-0.00011740,0.00023756,0.00000280,0
 .00067260,-0.16345590,-0.06331013,-0.10858510,-0.00004725,-0.00002145,
 0.00001452,0.00026360,-0.00000654,-0.00024919,0.00000621,0.00001211,0.
 00004523,-0.00005023,-0.00000175,-0.00006651,0.00002149,0.00000439,0.0
 0005758,-0.00008828,0.00023679,-0.00012700,0.00043754,-0.00012717,-0.0
 0008466,0.00008149,-0.00009189,0.00007593,0.00007546,0.00024100,0.0000
 3914,-0.01822477,-0.01007011,-0.01814351,0.00717326,0.00315316,0.00705
 587,0.17632134,0.00001351,0.00000148,-0.00002874,0.00003929,0.00044785
 ,0.00061268,0.00015615,-0.00006996,-0.00015833,-0.00077267,-0.00141910
 ,0.00203303,0.01694214,0.00735672,0.01635284,-0.00000665,0.00001055,0.
 00009317,0.00055096,0.00046526,-0.00055958,-0.06181055,-0.07364140,-0.
 05650810,0.00002743,-0.00000260,-0.00001449,0.00004587,0.00013039,-0.0
 0008839,-0.00000007,0.00002834,-0.00003764,-0.00003197,-0.00000121,-0.
 00000966,-0.00000368,0.00000750,0.00001658,0.00005888,-0.00169507,-0.0
 0081127,-0.00035529,0.00006275,-0.00008856,-0.00017321,-0.00013074,-0.
 00011000,0.00018771,-0.00000558,-0.00026397,-0.00152390,-0.00205503,-0
 .00165551,-0.02058006,-0.01130000,-0.01907751,0.06722297,0.08179897,-0
 .00012822,-0.00000436,0.00011797,-0.00000022,-0.00034009,-0.00065296,-
 0.00021130,-0.00005162,0.00038033,0.00245290,0.00104075,-0.00231895,-0
 .01912459,-0.00621633,-0.01792821,0.00018390,-0.00002017,-0.00021452,-
 0.00074983,-0.00048111,0.00095661,-0.11006390,-0.05767287,-0.15041986,
 -0.00008321,-0.00000340,0.00002155,-0.00018479,-0.00012469,0.00017697,
 -0.00012108,-0.00009215,0.00006122,0.00005042,0.00001358,0.00002705,0.
 00001303,-0.00000842,-0.00004690,-0.00009718,0.00173807,0.00081109,0.0
 0090105,0.00042490,-0.00013567,-0.00001566,-0.00005051,-0.00007568,0.0
 0014597,0.00020088,0.00054854,0.01041207,0.00614997,0.01142580,-0.0070
 9733,-0.00479224,-0.00748983,0.12374095,0.06029906,0.16476333,-0.00171
 966,-0.00499790,-0.00236303,0.00028200,-0.00004670,-0.00001022,-0.0000
 0038,-0.00155024,0.00216722,0.00003337,0.00003556,0.00010016,-0.000007
 84,0.00002796,-0.00001795,0.00524651,0.01342664,-0.02027720,-0.0000011
 9,-0.00001989,-0.00000593,0.00000881,0.00000736,-0.00000222,-0.0513555
 6,-0.00334773,0.01094369,0.00006283,0.00000605,0.00003954,0.00009061,0
 .00008864,0.00001795,-0.00135562,-0.00033286,-0.00020755,0.00001043,0.
 00015761,-0.00018677,-0.00000640,-0.00001024,-0.00000440,0.00000419,0.
 00000220,0.00000456,0.00000493,0.00000034,-0.00000648,-0.00000287,-0.0
 0000267,-0.00000080,-0.00000188,-0.00000149,-0.00000098,-0.00000469,-0
 .00000277,0.00000132,0.00000613,-0.00000118,0.00000601,0.04765092,-0.0
 0254021,-0.00359940,-0.00193911,0.00027822,-0.00013460,-0.00009561,0.0
 0026153,-0.00071378,0.00092271,0.00001901,0.00001521,0.00004988,0.0000
 0753,0.00000165,-0.00000936,0.00253076,0.00522574,-0.01568576,-0.00000
 175,-0.00000985,-0.00000445,-0.00000273,0.00001013,0.00000751,-0.00399
 944,-0.06617006,0.08021702,0.00000562,-0.00000885,-0.00002637,-0.00001
 856,0.00000977,-0.00003856,-0.00065889,0.00031100,-0.00000807,0.000238
 43,-0.00010420,0.00016606,0.00000354,0.00001211,-0.00000186,0.00000050
 ,0.00000026,-0.00000154,0.00000934,-0.00000370,-0.00000155,0.00000085,
 0.00000486,-0.00000069,0.00000129,-0.00000125,-0.00000429,0.00000005,-
 0.00000304,0.00000143,0.00000321,-0.00000105,0.00000093,0.00578062,0.0
 7388461,-0.00421958,-0.00314443,-0.00124110,-0.00016863,-0.00049991,0.
 00024441,0.00070008,-0.00011824,0.00065568,0.00001230,0.00003342,0.000
 02355,-0.00002760,0.00001650,-0.00000202,0.00492654,0.00610821,-0.0174
 7060,-0.00000095,-0.00000968,-0.00000596,0.00001350,0.00000129,0.00000
 132,0.01143316,0.08256694,-0.27993901,0.00019054,0.00003069,0.00012209
 ,0.00004594,0.00009808,-0.00002855,-0.00033477,-0.00036787,0.00093028,
 0.00000732,-0.00000637,-0.00010369,-0.00001931,-0.00001210,0.00000595,
 0.00000070,0.00000103,0.00000263,0.00000233,0.00000073,-0.00000290,-0.
 00000199,-0.00000272,0.00000234,-0.00000267,0.00000315,-0.00000284,0.0
 0000039,-0.00000186,0.00000062,0.00000480,-0.00000239,0.00000277,-0.01
 218097,-0.08832769,0.30507645,0.00523617,0.00079516,0.00070549,-0.0007
 4032,0.00011777,0.00120136,-0.00168647,-0.00270894,-0.00418429,-0.0001
 7407,-0.00011306,-0.00057590,-0.00001866,-0.00012011,0.00012817,-0.024
 76197,0.00566010,0.01219208,-0.00000383,0.00010412,-0.00000130,-0.0000
 2831,-0.00002188,0.00000415,-0.26809970,0.04736000,0.09387326,-0.00003
 389,0.00005370,-0.00005307,-0.00006054,-0.00010381,-0.00002141,0.00018
 386,-0.00008630,0.00011617,0.00060160,0.00014570,-0.00013477,0.0000047
 6,0.00000074,0.00003421,-0.00002636,-0.00001125,-0.00000375,-0.0000476
 8,0.00000975,0.00003199,0.00000630,-0.00000609,0.00000572,0.00000957,-
 0.00001061,0.00001196,-0.00000680,0.00003004,-0.00000764,-0.00001928,0
 .00000784,-0.00002869,0.00138502,-0.00079746,-0.00052380,0.29074546,0.
 00175971,0.00009219,0.00205696,-0.00081460,0.00040010,0.00044656,-0.00
 149313,-0.00107180,-0.00280211,-0.00009982,-0.00007650,-0.00028219,-0.
 00004764,-0.00003335,0.00006140,-0.01616377,0.00176939,0.00625233,-0.0
 0000128,0.00005085,0.00000856,-0.00000930,-0.00001874,-0.00000119,0.04
 954434,-0.05636618,-0.02011142,-0.00002520,0.00000829,-0.00004785,0.00
 006861,0.00000260,0.00007558,0.00034458,0.00012680,-0.00022359,-0.0000
 6296,0.00039040,0.00020335,-0.00000603,-0.00000847,0.00001560,-0.00000
 447,-0.00000209,-0.00000098,-0.00002289,0.00000216,0.00001151,0.000001
 42,-0.00000282,0.00000144,0.00000189,-0.00000354,-0.00000287,-0.000005
 33,0.00000930,-0.00000371,-0.00000404,0.00000716,-0.00000860,-0.010817
 18,0.00152898,0.00352413,-0.05084384,0.05746166,0.00140946,0.00114708,
 0.00123674,-0.00085834,-0.00022245,0.00067257,-0.00142841,-0.00198931,
 -0.00161921,-0.00010426,-0.00007212,-0.00029203,-0.00005066,-0.0000169
 3,0.00006153,-0.01856395,0.00470710,0.00763645,-0.00000143,0.00004589,
 0.00000563,-0.00000896,-0.00001342,-0.00000090,0.09780970,-0.01998422,
 -0.09022734,0.00006285,0.00006041,0.00005918,0.00003507,-0.00001177,0.
 00003641,-0.00026437,-0.00028320,0.00017836,0.00012524,-0.00000276,-0.
 00027886,0.00000279,-0.00001318,0.00001149,-0.00000257,-0.00000218,0.0
 0000080,-0.00002055,0.00000324,0.00000928,0.00000014,-0.00000370,0.000
 00039,0.00000318,-0.00000191,-0.00000099,-0.00000428,0.00000744,-0.000
 00299,-0.00000151,0.00000429,-0.00000733,0.02639116,-0.00698233,-0.009
 27523,-0.10339728,0.02329252,0.09228589,-0.00147510,0.00108522,-0.0034
 9339,-0.00006207,0.00042176,-0.00020165,-0.00094653,0.00258079,0.00006
 049,0.00002629,0.00002430,0.00001382,-0.00000693,-0.00000478,0.0000057
 7,0.00675358,-0.02398236,0.00365227,-0.00000189,0.00000009,-0.00000267
 ,0.00000046,-0.00000427,-0.00000055,-0.05242781,0.03578823,0.00093364,
 -0.00004273,-0.00006158,0.00000693,0.00007994,0.00006092,0.00003651,0.
 00030845,-0.00012277,-0.00048034,-0.00140497,-0.00045443,0.00001543,-0
 .00000951,-0.00001009,0.00000280,0.00000060,0.00000106,0.00000246,-0.0
 0000436,0.00000067,0.00000011,-0.00000005,-0.00000106,-0.00000067,0.00
 000017,-0.00001008,-0.00000636,-0.00000910,0.00000250,0.00000038,0.000
 00375,0.00000648,-0.00000030,-0.00032967,-0.00112147,0.00014267,-0.002
 46489,0.02870093,-0.00113304,0.05201238,-0.00260105,0.00083119,-0.0010
 8209,-0.00031069,0.00045842,-0.00006124,-0.00000012,0.00033684,-0.0008
 7016,-0.00001394,0.,-0.00000553,-0.00002007,-0.00000063,0.00001499,0.0
 0392140,-0.01458302,-0.00082077,-0.00000168,0.00000488,-0.00000096,-0.
 00000222,-0.00000464,0.,0.03978512,-0.29964473,-0.00262544,-0.00001556
 ,-0.00008101,-0.00000337,0.00016159,0.00008241,0.00008173,0.00036040,0
 .00016100,-0.00011879,-0.00047935,0.00075042,0.00036311,-0.00001082,-0
 .00001028,0.00000017,0.00000027,0.00000001,0.00000187,-0.00000666,0.00
 000205,0.00000177,-0.00000015,-0.00000111,-0.00000197,0.00000106,-0.00
 000776,-0.00000722,-0.00000741,0.00000452,-0.00000011,0.00000364,0.000
 00478,-0.00000158,0.00159787,-0.01025456,0.00010911,0.00053844,-0.0042
 6636,0.00033152,-0.04290006,0.32621759,-0.00333258,0.00148726,-0.00370
 166,0.00004328,0.00009439,-0.00004519,-0.00006675,0.00180658,-0.000749
 02,0.00000187,0.00002953,0.00000283,0.00000186,-0.00002210,0.00001465,
 0.00513148,-0.02067113,-0.00148444,-0.00000315,0.00000405,-0.00000572,
 -0.00000962,0.00000108,0.00000728,0.00140857,-0.00669788,-0.03829959,0
 .00000663,-0.00004168,0.00000171,0.00005019,0.00001952,-0.00004309,0.0
 0043058,0.00010164,0.00014631,-0.00032426,-0.00009819,0.00048067,-0.00
 001115,0.,0.00000315,-0.00000203,-0.00000153,-0.00000115,0.00000271,-0
 .00000185,0.00000270,0.00000157,0.00000378,-0.00000168,0.00000411,-0.0
 0000843,-0.00000660,-0.00000149,0.00000118,0.00000282,0.00000231,0.000
 00252,-0.00000332,-0.00440711,0.03176169,0.00100379,0.00062729,-0.0124
 6542,-0.00048983,0.00044568,0.00469499,0.04316538\\-0.00000046,-0.0000
 0306,0.00000283,-0.00000306,-0.00000164,0.00000228,-0.00000147,0.00001
 256,-0.00000302,0.00000411,0.00000160,-0.00000148,0.00000009,0.0000019
 3,-0.00000098,0.00000110,-0.00000255,0.00000331,0.00000104,-0.00000254
 ,-0.00000125,-0.00000027,-0.00000182,-0.00000037,0.00000162,0.00000689
 ,-0.00000561,0.00000050,-0.00000019,-0.00000088,0.00000079,-0.00000068
 ,0.00000037,0.00000219,-0.00000381,0.00000037,-0.00000110,-0.00000265,
 0.00000162,0.00000002,-0.00000036,0.00000046,-0.00000068,0.00000006,-0
 .00000022,0.00000007,0.00000031,0.,-0.00000032,0.00000013,-0.00000060,
 -0.00000018,-0.00000058,-0.00000013,-0.00000007,-0.00000047,-0.0000008
 9,-0.00000012,-0.00000114,-0.00000041,-0.00000092,-0.00000174,0.000001
 01,-0.00000098,-0.00000006,0.00000099,-0.00000188,-0.00000020,0.000002
 59\\\@


 WHEN HAVING A MEETING OF THE MINDS,
 MAKE SURE YOU HAVE THE EQUIPMENT FOR IT.
 Job cpu time:       0 days  3 hours  9 minutes  3.2 seconds.
 Elapsed time:       0 days  0 hours  5 minutes 55.9 seconds.
 File lengths (MBytes):  RWF=    275 Int=      0 D2E=      0 Chk=     12 Scr=      1
 Normal termination of Gaussian 16 at Tue Jun  4 00:25:43 2024.


PS:

Read file <S36.err> for stderr output of this job.

