Sender: LSF System <lsfadmin@mn75>
Subject: Job 425760: <#!/bin/bash;#BSUB -q q_hpc;#BSUB -oo Acetophenone.out;#BSUB -eo Acetophenone.err;#BSUB -n 16; #BSUB -R "span[hosts=1]";#BSUB -m "g1 g3_a g3_b"; module load gaussian/2016.03;input=Acetophenone.com; sed -i "s/\( % nprocshared =\).*/\1 $LSB_DJOB_NUMPROC /g" $input;echo " Ejecucion de Gaussian ";g16 < $input> in cluster <cluster1> Done

Job <#!/bin/bash;#BSUB -q q_hpc;#BSUB -oo Acetophenone.out;#BSUB -eo Acetophenone.err;#BSUB -n 16; #BSUB -R "span[hosts=1]";#BSUB -m "g1 g3_a g3_b"; module load gaussian/2016.03;input=Acetophenone.com; sed -i "s/\( % nprocshared =\).*/\1 $LSB_DJOB_NUMPROC /g" $input;echo " Ejecucion de Gaussian ";g16 < $input> was submitted from host <mn325> by user <agrc_a> in cluster <cluster1>.
Job was executed on host(s) <16*mn75>, in queue <q_hpc>, as user <agrc_a> in cluster <cluster1>.
</home/ilgs_g/agrc_a> was used as the home directory.
</home/ilgs_g/agrc_a/work/g16scrdir/Test/Apocinaceas> was used as the working directory.
Started at Wed Feb  7 20:00:48 2024
Results reported on Wed Feb  7 20:16:36 2024

Your job looked like:

------------------------------------------------------------
# LSBATCH: User input
#!/bin/bash
#BSUB -q q_hpc
#BSUB -oo Acetophenone.out
#BSUB -eo Acetophenone.err
#BSUB -n 16

#BSUB -R "span[hosts=1]"
#BSUB -m "g1 g3_a g3_b"

module load gaussian/2016.03
input=Acetophenone.com

sed -i "s/\( % nprocshared =\).*/\1 $LSB_DJOB_NUMPROC /g" $input
echo " Ejecucion de Gaussian "
g16 < $input


------------------------------------------------------------

Successfully completed.

Resource usage summary:

    CPU time :                                   14192.61 sec.
    Max Memory :                                 14136.37 MB
    Average Memory :                             2779.98 MB
    Total Requested Memory :                     -
    Delta Memory :                               -
    Max Swap :                                   54737 MB
    Max Processes :                              5
    Max Threads :                                21

The output (if any) follows:

	 Directorio de scratch es: 	 /tmpu/ilgs_g/agrc_a/g16scrdir
 Ejecucion de Gaussian 
 Entering Gaussian System, Link 0=g16
 Initial command:
 /tmpu/scunam/7/gaussian-2016.03/g1/g16/l1.exe "/tmpu/ilgs_g/agrc_a/g16scrdir/Gau-64804.inp" -scrdir="/tmpu/ilgs_g/agrc_a/g16scrdir/"
 Entering Link 1 = /tmpu/scunam/7/gaussian-2016.03/g1/g16/l1.exe PID=     64805.
  
 Copyright (c) 1988,1990,1992,1993,1995,1998,2003,2009,2016,
            Gaussian, Inc.  All Rights Reserved.
  
 This is part of the Gaussian(R) 16 program.  It is based on
 the Gaussian(R) 09 system (copyright 2009, Gaussian, Inc.),
 the Gaussian(R) 03 system (copyright 2003, Gaussian, Inc.),
 the Gaussian(R) 98 system (copyright 1998, Gaussian, Inc.),
 the Gaussian(R) 94 system (copyright 1995, Gaussian, Inc.),
 the Gaussian 92(TM) system (copyright 1992, Gaussian, Inc.),
 the Gaussian 90(TM) system (copyright 1990, Gaussian, Inc.),
 the Gaussian 88(TM) system (copyright 1988, Gaussian, Inc.),
 the Gaussian 86(TM) system (copyright 1986, Carnegie Mellon
 University), and the Gaussian 82(TM) system (copyright 1983,
 Carnegie Mellon University). Gaussian is a federally registered
 trademark of Gaussian, Inc.
  
 This software contains proprietary and confidential information,
 including trade secrets, belonging to Gaussian, Inc.
  
 This software is provided under written license and may be
 used, copied, transmitted, or stored only in accord with that
 written license.
  
 The following legend is applicable only to US Government
 contracts under FAR:
  
                    RESTRICTED RIGHTS LEGEND
  
 Use, reproduction and disclosure by the US Government is
 subject to restrictions as set forth in subparagraphs (a)
 and (c) of the Commercial Computer Software - Restricted
 Rights clause in FAR 52.227-19.
  
 Gaussian, Inc.
 340 Quinnipiac St., Bldg. 40, Wallingford CT 06492
  
  
 ---------------------------------------------------------------
 Warning -- This program may not be used in any manner that
 competes with the business of Gaussian, Inc. or will provide
 assistance to any competitor of Gaussian, Inc.  The licensee
 of this program is prohibited from giving any competitor of
 Gaussian, Inc. access to this program.  By using this program,
 the user acknowledges that Gaussian, Inc. is engaged in the
 business of creating and licensing software in the field of
 computational chemistry and represents and warrants to the
 licensee that it is not a competitor of Gaussian, Inc. and that
 it will not use this program in any manner prohibited above.
 ---------------------------------------------------------------
  

 Cite this work as:
 Gaussian 16, Revision A.03,
 M. J. Frisch, G. W. Trucks, H. B. Schlegel, G. E. Scuseria, 
 M. A. Robb, J. R. Cheeseman, G. Scalmani, V. Barone, 
 G. A. Petersson, H. Nakatsuji, X. Li, M. Caricato, A. V. Marenich, 
 J. Bloino, B. G. Janesko, R. Gomperts, B. Mennucci, H. P. Hratchian, 
 J. V. Ortiz, A. F. Izmaylov, J. L. Sonnenberg, D. Williams-Young, 
 F. Ding, F. Lipparini, F. Egidi, J. Goings, B. Peng, A. Petrone, 
 T. Henderson, D. Ranasinghe, V. G. Zakrzewski, J. Gao, N. Rega, 
 G. Zheng, W. Liang, M. Hada, M. Ehara, K. Toyota, R. Fukuda, 
 J. Hasegawa, M. Ishida, T. Nakajima, Y. Honda, O. Kitao, H. Nakai, 
 T. Vreven, K. Throssell, J. A. Montgomery, Jr., J. E. Peralta, 
 F. Ogliaro, M. J. Bearpark, J. J. Heyd, E. N. Brothers, K. N. Kudin, 
 V. N. Staroverov, T. A. Keith, R. Kobayashi, J. Normand, 
 K. Raghavachari, A. P. Rendell, J. C. Burant, S. S. Iyengar, 
 J. Tomasi, M. Cossi, J. M. Millam, M. Klene, C. Adamo, R. Cammi, 
 J. W. Ochterski, R. L. Martin, K. Morokuma, O. Farkas, 
 J. B. Foresman, and D. J. Fox, Gaussian, Inc., Wallingford CT, 2016.
 
 ******************************************
 Gaussian 16:  ES64L-G16RevA.03 25-Dec-2016
                 7-Feb-2024 
 ******************************************
 %NProcShared=16
 Will use up to   16 processors via shared memory.
 %Mem=50GB
 %chk=Acetophenone.chk
 ----------------------------------------------------------------------
 #p b3lyp/def2TZVP opt=(cartesian,maxcycle=500) freq=raman scf=(maxcycl
 e=2000,direct,noincore,xqc)
 ----------------------------------------------------------------------
 1/6=500,10=7,18=10,26=3,38=1/1,3;
 2/12=2,17=6,18=5,29=2,40=1/2;
 3/5=44,7=101,11=2,25=1,30=1,71=1,74=-5/1,2,3;
 4//1;
 5/5=2,7=2000,8=3,13=1,38=5/2,8;
 6/7=2,8=2,9=2,10=2,28=1/1;
 7/7=1,29=1/1,2,3,16;
 1/6=500,10=7,18=10,26=3/3(2);
 2/29=1/2;
 99/12=1/99;
 2/29=1/2;
 3/5=44,7=101,11=2,25=1,30=1,71=1,74=-5/1,2,3;
 4/5=5,16=3,69=1/1;
 5/5=2,7=2000,8=3,13=1,38=5/2,8;
 7/7=1/1,2,3,16;
 1/6=500,18=10,26=3/3(-5);
 2/29=1/2;
 6/7=2,8=2,9=2,10=2,19=2,28=1/1;
 99/9=1,12=1/99;
 Leave Link    1 at Wed Feb  7 20:00:49 2024, MaxMem=  6710886400 cpu:               1.7 elap:               0.1
 (Enter /tmpu/scunam/7/gaussian-2016.03/g1/g16/l101.exe)
 ------------
 Acetophenone
 ------------
 Symbolic Z-matrix:
 Charge =  0 Multiplicity = 1
 O                     2.3824   -1.1634    0.0004 
 C                     0.2856   -0.044    -0.0003 
 C                    -0.3633    1.1908   -0.0001 
 C                    -0.4592   -1.2233   -0.0002 
 C                     1.7385   -0.1016   -0.0003 
 C                    -1.7571    1.2462    0.0002 
 C                    -1.853    -1.1679    0. 
 C                    -2.502     0.0668    0.0002 
 C                     2.5282    1.1963    0.0001 
 H                     0.173     2.1344   -0.0001 
 H                     0.0253   -2.1961   -0.0003 
 H                    -2.2631    2.2073    0.0003 
 H                    -2.4332   -2.086     0.0001 
 H                    -3.5872    0.11      0.0004 
 H                     2.313     1.7744   -0.9025 
 H                     3.5985    0.965    -0.0003 
 H                     2.3133    1.7735    0.9032 
 
 ITRead=  0  0  0  0  0  0  0  0  0  0  0  0  0  0  0  0  0
 MicOpt= -1 -1 -1 -1 -1 -1 -1 -1 -1 -1 -1 -1 -1 -1 -1 -1 -1
 NAtoms=     17 NQM=       17 NQMF=       0 NMMI=      0 NMMIF=      0
                NMic=       0 NMicF=      0.
                    Isotopes and Nuclear Properties:
 (Nuclear quadrupole moments (NQMom) in fm**2, nuclear magnetic moments (NMagM)
  in nuclear magnetons)

  Atom         1           2           3           4           5           6           7           8           9          10
 IAtWgt=          16          12          12          12          12          12          12          12          12           1
 AtmWgt=  15.9949146  12.0000000  12.0000000  12.0000000  12.0000000  12.0000000  12.0000000  12.0000000  12.0000000   1.0078250
 NucSpn=           0           0           0           0           0           0           0           0           0           1
 AtZEff=  -0.0000000  -0.0000000  -0.0000000  -0.0000000  -0.0000000  -0.0000000  -0.0000000  -0.0000000  -0.0000000  -0.0000000
 NQMom=    0.0000000   0.0000000   0.0000000   0.0000000   0.0000000   0.0000000   0.0000000   0.0000000   0.0000000   0.0000000
 NMagM=    0.0000000   0.0000000   0.0000000   0.0000000   0.0000000   0.0000000   0.0000000   0.0000000   0.0000000   2.7928460
 AtZNuc=   8.0000000   6.0000000   6.0000000   6.0000000   6.0000000   6.0000000   6.0000000   6.0000000   6.0000000   1.0000000

  Atom        11          12          13          14          15          16          17
 IAtWgt=           1           1           1           1           1           1           1
 AtmWgt=   1.0078250   1.0078250   1.0078250   1.0078250   1.0078250   1.0078250   1.0078250
 NucSpn=           1           1           1           1           1           1           1
 AtZEff=  -0.0000000  -0.0000000  -0.0000000  -0.0000000  -0.0000000  -0.0000000  -0.0000000
 NQMom=    0.0000000   0.0000000   0.0000000   0.0000000   0.0000000   0.0000000   0.0000000
 NMagM=    2.7928460   2.7928460   2.7928460   2.7928460   2.7928460   2.7928460   2.7928460
 AtZNuc=   1.0000000   1.0000000   1.0000000   1.0000000   1.0000000   1.0000000   1.0000000
 Leave Link  101 at Wed Feb  7 20:00:50 2024, MaxMem=  6710886400 cpu:               2.9 elap:               0.2
 (Enter /tmpu/scunam/7/gaussian-2016.03/g1/g16/l103.exe)

 GradGradGradGradGradGradGradGradGradGradGradGradGradGradGradGradGradGrad
 Berny optimization.
 Initialization pass.
 No Z-matrix variables, so optimization will use Cartesian coordinates.
 Trust Radius=3.00D-01 FncErr=1.00D-07 GrdErr=1.00D-06 EigMax=2.50D+02 EigMin=1.00D-04
 Number of steps in this run=    102 maximum allowed number of steps=    102.
 GradGradGradGradGradGradGradGradGradGradGradGradGradGradGradGradGradGrad

 Leave Link  103 at Wed Feb  7 20:00:50 2024, MaxMem=  6710886400 cpu:               1.0 elap:               0.1
 (Enter /tmpu/scunam/7/gaussian-2016.03/g1/g16/l202.exe)
 ---------------------------------------------------------------------------------------------------
                            Z-MATRIX (ANGSTROMS AND DEGREES)
   CD    Cent   Atom    N1       Length/X        N2       Alpha/Y        N3        Beta/Z          J
 ---------------------------------------------------------------------------------------------------
      1      1  O        0   2.382400         -1.163400          0.000400
      2      2  C        0   0.285600         -0.044000         -0.000300
      3      3  C        0  -0.363300          1.190800         -0.000100
      4      4  C        0  -0.459200         -1.223300         -0.000200
      5      5  C        0   1.738500         -0.101600         -0.000300
      6      6  C        0  -1.757100          1.246200          0.000200
      7      7  C        0  -1.853000         -1.167900          0.000000
      8      8  C        0  -2.502000          0.066800          0.000200
      9      9  C        0   2.528200          1.196300          0.000100
     10     10  H        0   0.173000          2.134400         -0.000100
     11     11  H        0   0.025300         -2.196100         -0.000300
     12     12  H        0  -2.263100          2.207300          0.000300
     13     13  H        0  -2.433200         -2.086000          0.000100
     14     14  H        0  -3.587200          0.110000          0.000400
     15     15  H        0   2.313000          1.774400         -0.902500
     16     16  H        0   3.598500          0.965000         -0.000300
     17     17  H        0   2.313300          1.773500          0.903200
 ---------------------------------------------------------------------------------------------------
                         Z-Matrix orientation:                         
 ---------------------------------------------------------------------
 Center     Atomic      Atomic             Coordinates (Angstroms)
 Number     Number       Type             X           Y           Z
 ---------------------------------------------------------------------
      1          8           0        2.382400   -1.163400    0.000400
      2          6           0        0.285600   -0.044000   -0.000300
      3          6           0       -0.363300    1.190800   -0.000100
      4          6           0       -0.459200   -1.223300   -0.000200
      5          6           0        1.738500   -0.101600   -0.000300
      6          6           0       -1.757100    1.246200    0.000200
      7          6           0       -1.853000   -1.167900    0.000000
      8          6           0       -2.502000    0.066800    0.000200
      9          6           0        2.528200    1.196300    0.000100
     10          1           0        0.173000    2.134400   -0.000100
     11          1           0        0.025300   -2.196100   -0.000300
     12          1           0       -2.263100    2.207300    0.000300
     13          1           0       -2.433200   -2.086000    0.000100
     14          1           0       -3.587200    0.110000    0.000400
     15          1           0        2.313000    1.774400   -0.902500
     16          1           0        3.598500    0.965000   -0.000300
     17          1           0        2.313300    1.773500    0.903200
 ---------------------------------------------------------------------
                    Distance matrix (angstroms):
                    1          2          3          4          5
     1  O    0.000000
     2  C    2.376894   0.000000
     3  C    3.616784   1.394920   0.000000
     4  C    2.842231   1.394803   2.416004   0.000000
     5  C    1.241784   1.454041   2.467359   2.467407   0.000000
     6  C    4.789742   2.416038   1.394901   2.789798   3.746436
     7  C    4.235402   2.415939   2.789744   1.394901   3.746447
     8  C    5.036939   2.789801   2.416074   2.416069   4.243842
     9  C    2.364200   2.562733   2.891505   3.844349   1.519266
    10  H    3.969500   2.181308   1.085356   3.416698   2.729558
    11  H    2.573401   2.167785   3.409120   1.086775   2.705917
    12  H    5.739537   3.400621   2.154649   3.875961   4.619937
    13  H    4.903182   3.400241   3.875810   2.154281   4.619624
    14  H    6.103906   3.875861   3.400244   3.400305   5.329902
    15  H    3.074201   2.868953   2.884007   4.181560   2.159489
    16  H    2.451323   3.463147   3.968229   4.610161   2.144116
    17  H    3.073305   2.869004   2.884385   4.181351   2.159330
                    6          7          8          9         10
     6  C    0.000000
     7  C    2.416004   0.000000
     8  C    1.394941   1.394878   0.000000
     9  C    4.285591   4.978389   5.155452   0.000000
    10  H    2.124661   3.874256   3.380916   2.535153   0.000000
    11  H    3.876387   2.141309   3.392339   4.215790   4.333018
    12  H    1.086163   3.400023   2.153790   4.896803   2.437191
    13  H    3.400098   1.086066   2.153899   5.948864   4.960247
    14  H    2.154116   2.154177   1.086060   6.211132   4.270515
    15  H    4.202330   5.179497   5.187966   1.093251   2.350218
    16  H    5.362977   5.853897   6.166268   1.095008   3.619606
    17  H    4.202572   5.179349   5.188000   1.093129   2.350975
                   11         12         13         14         15
    11  H    0.000000
    12  H    4.962530   0.000000
    13  H    2.460964   4.296668   0.000000
    14  H    4.285820   2.480304   2.480752   0.000000
    15  H    4.670375   4.684351   6.184156   6.196597   0.000000
    16  H    4.770777   5.991800   6.759438   7.236388   1.766806
    17  H    4.670009   4.684746   6.183898   6.196627   1.805700
                   16         17
    16  H    0.000000
    17  H    1.766840   0.000000
 Stoichiometry    C8H8O
 Framework group  C1[X(C8H8O)]
 Deg. of freedom    45
 Full point group                 C1      NOp   1
 Largest Abelian subgroup         C1      NOp   1
 Largest concise Abelian subgroup C1      NOp   1
                         Standard orientation:                         
 ---------------------------------------------------------------------
 Center     Atomic      Atomic             Coordinates (Angstroms)
 Number     Number       Type             X           Y           Z
 ---------------------------------------------------------------------
      1          8           0        2.255755   -1.291732    0.000375
      2          6           0        0.205550   -0.089116   -0.000325
      3          6           0       -0.393292    1.170722   -0.000125
      4          6           0       -0.585960   -1.237588   -0.000225
      5          6           0        1.654969   -0.204955   -0.000325
      6          6           0       -1.783747    1.281992    0.000175
      7          6           0       -1.976416   -1.126318   -0.000025
      8          6           0       -2.575361    0.133424    0.000175
      9          6           0        2.496101    1.060220    0.000075
     10          1           0        0.180431    2.092047   -0.000125
     11          1           0       -0.140876   -2.229041   -0.000325
     12          1           0       -2.250784    2.262617    0.000275
     13          1           0       -2.592980   -2.020403    0.000075
     14          1           0       -3.657955    0.220124    0.000375
     15          1           0        2.304266    1.646487   -0.902525
     16          1           0        3.556261    0.786169   -0.000325
     17          1           0        2.304530    1.645576    0.903175
 ---------------------------------------------------------------------
 Rotational constants (GHZ):           3.6974347           1.2294802           0.9282402
 Leave Link  202 at Wed Feb  7 20:00:50 2024, MaxMem=  6710886400 cpu:               1.4 elap:               0.1
 (Enter /tmpu/scunam/7/gaussian-2016.03/g1/g16/l301.exe)
 Standard basis: def2TZVP (5D, 7F)
 Ernie: Thresh=  0.10000D-02 Tol=  0.10000D-05 Strict=F.
 There are   372 symmetry adapted cartesian basis functions of A   symmetry.
 There are   327 symmetry adapted basis functions of A   symmetry.
   327 basis functions,   523 primitive gaussians,   372 cartesian basis functions
    32 alpha electrons       32 beta electrons
       nuclear repulsion energy       402.1774119217 Hartrees.
 IExCor=  402 DFT=T Ex+Corr=B3LYP ExCW=0 ScaHFX=  0.200000
 ScaDFX=  0.800000  0.720000  1.000000  0.810000 ScalE2=  1.000000  1.000000
 IRadAn=      5 IRanWt=     -1 IRanGd=            0 ICorTp=0 IEmpDi=  4
 NAtoms=   17 NActive=   17 NUniq=   17 SFac= 1.00D+00 NAtFMM=   60 NAOKFM=F Big=F
 Integral buffers will be    131072 words long.
 Raffenetti 2 integral format.
 Two-electron integral symmetry is turned on.
 Leave Link  301 at Wed Feb  7 20:00:50 2024, MaxMem=  6710886400 cpu:               1.3 elap:               0.1
 (Enter /tmpu/scunam/7/gaussian-2016.03/g1/g16/l302.exe)
 NPDir=0 NMtPBC=     1 NCelOv=     1 NCel=       1 NClECP=     1 NCelD=      1
         NCelK=      1 NCelE2=     1 NClLst=     1 CellRange=     0.0.
 One-electron integrals computed using PRISM.
 One-electron integral symmetry used in STVInt
   1 Symmetry operations used in ECPInt.
 ECPInt:  NShTT=    8646 NPrTT=   26328 LenC2=    8398 LenP2D=   20332.
 LDataN:  DoStor=T MaxTD1= 6 Len=  172
 NBasis=   327 RedAO= T EigKep=  8.84D-06  NBF=   327
 NBsUse=   327 1.00D-06 EigRej= -1.00D+00 NBFU=   327
 Precomputing XC quadrature grid using
 IXCGrd= 4 IRadAn=           5 IRanWt=          -1 IRanGd=           0 AccXCQ= 0.00D+00.
 Generated NRdTot=       0 NPtTot=           0 NUsed=           0 NTot=          32
 NSgBfM=   371   371   371   371   371 MxSgAt=    17 MxSgA2=    17.
 Leave Link  302 at Wed Feb  7 20:00:52 2024, MaxMem=  6710886400 cpu:              29.7 elap:               2.0
 (Enter /tmpu/scunam/7/gaussian-2016.03/g1/g16/l303.exe)
 DipDrv:  MaxL=1.
 Leave Link  303 at Wed Feb  7 20:00:52 2024, MaxMem=  6710886400 cpu:               3.0 elap:               0.2
 (Enter /tmpu/scunam/7/gaussian-2016.03/g1/g16/l401.exe)
 ExpMin= 9.52D-02 ExpMax= 2.70D+04 ExpMxC= 9.22D+02 IAcc=3 IRadAn=         5 AccDes= 0.00D+00
 Harris functional with IExCor=  402 and IRadAn=       5 diagonalized for initial guess.
 HarFok:  IExCor=  402 AccDes= 0.00D+00 IRadAn=         5 IDoV= 1 UseB2=F ITyADJ=14
 ICtDFT=  3500011 ScaDFX=  1.000000  1.000000  1.000000  1.000000
 FoFCou: FMM=F IPFlag=           0 FMFlag=      100000 FMFlg1=           0
         NFxFlg=           0 DoJE=T BraDBF=F KetDBF=T FulRan=T
         wScrn=  0.000000 ICntrl=       500 IOpCl=  0 I1Cent=   200000004 NGrid=           0
         NMat0=    1 NMatS0=      1 NMatT0=    0 NMatD0=    1 NMtDS0=    0 NMtDT0=    0
 Petite list used in FoFCou.
 Harris En= -385.095976307721    
 JPrj=0 DoOrth=F DoCkMO=F.
 Leave Link  401 at Wed Feb  7 20:00:54 2024, MaxMem=  6710886400 cpu:              30.2 elap:               2.1
 (Enter /tmpu/scunam/7/gaussian-2016.03/g1/g16/l502.exe)
 Integral symmetry usage will be decided dynamically.
 Closed shell SCF:
 Using DIIS extrapolation, IDIIS=  1040.
 NGot=  6710886400 LenX=  6710600291 LenY=  6710461466
 Requested convergence on RMS density matrix=1.00D-08 within 128 cycles.
 Requested convergence on MAX density matrix=1.00D-06.
 Requested convergence on             energy=1.00D-06.
 No special actions if energy rises.
 Fock matrices will be formed incrementally for  20 cycles.
 Integral accuracy reduced to 1.0D-05 until final iterations.

 Cycle   1  Pass 0  IDiag  1:
 FoFJK:  IHMeth= 1 ICntrl=       0 DoSepK=F KAlg= 0 I1Cent=           0 FoldK=F
 IRaf= 940000000 NMat=       1 IRICut=       1 DoRegI=T DoRafI=F ISym2E= 0 IDoP0=0 IntGTp=1.
 FoFCou: FMM=F IPFlag=           0 FMFlag=      100000 FMFlg1=           0
         NFxFlg=           0 DoJE=F BraDBF=F KetDBF=F FulRan=T
         wScrn=  0.000000 ICntrl=         0 IOpCl=  0 I1Cent=           0 NGrid=           0
         NMat0=    1 NMatS0=      1 NMatT0=    0 NMatD0=    1 NMtDS0=    0 NMtDT0=    0
 Symmetry not used in FoFCou.
 E= -384.778826522633    
 DIIS: error= 3.43D-02 at cycle   1 NSaved=   1.
 NSaved= 1 IEnMin= 1 EnMin= -384.778826522633     IErMin= 1 ErrMin= 3.43D-02
 ErrMax= 3.43D-02  0.00D+00 EMaxC= 1.00D-01 BMatC= 2.91D-01 BMatP= 2.91D-01
 IDIUse=3 WtCom= 6.57D-01 WtEn= 3.43D-01
 Coeff-Com:  0.100D+01
 Coeff-En:   0.100D+01
 Coeff:      0.100D+01
 Gap=     0.108 Goal=   None    Shift=    0.000
 GapD=    0.108 DampG=1.000 DampE=0.500 DampFc=0.5000 IDamp=-1.
 Damping current iteration by 5.00D-01
 RMSDP=1.21D-02 MaxDP=1.25D+00              OVMax= 2.42D-01

 Cycle   2  Pass 0  IDiag  1:
 RMSU=  6.03D-03    CP:  1.02D+00
 E= -384.872593324681     Delta-E=       -0.093766802049 Rises=F Damp=T
 DIIS: error= 1.11D-02 at cycle   2 NSaved=   2.
 NSaved= 2 IEnMin= 2 EnMin= -384.872593324681     IErMin= 2 ErrMin= 1.11D-02
 ErrMax= 1.11D-02  0.00D+00 EMaxC= 1.00D-01 BMatC= 3.45D-02 BMatP= 2.91D-01
 IDIUse=3 WtCom= 8.89D-01 WtEn= 1.11D-01
 Coeff-Com:  0.157D+00 0.843D+00
 Coeff-En:   0.247D+00 0.753D+00
 Coeff:      0.167D+00 0.833D+00
 Gap=     0.201 Goal=   None    Shift=    0.000
 RMSDP=4.60D-03 MaxDP=4.98D-01 DE=-9.38D-02 OVMax= 2.13D-01

 Cycle   3  Pass 0  IDiag  1:
 RMSU=  1.40D-03    CP:  9.70D-01  2.76D-01
 E= -385.002683961699     Delta-E=       -0.130090637018 Rises=F Damp=F
 DIIS: error= 1.41D-02 at cycle   3 NSaved=   3.
 NSaved= 3 IEnMin= 3 EnMin= -385.002683961699     IErMin= 2 ErrMin= 1.11D-02
 ErrMax= 1.41D-02  0.00D+00 EMaxC= 1.00D-01 BMatC= 4.81D-02 BMatP= 3.45D-02
 IDIUse=2 WtCom= 0.00D+00 WtEn= 1.00D+00
 Coeff-En:   0.000D+00 0.000D+00 0.100D+01
 Coeff:      0.000D+00 0.000D+00 0.100D+01
 Gap=     0.207 Goal=   None    Shift=    0.000
 RMSDP=4.74D-03 MaxDP=6.12D-01 DE=-1.30D-01 OVMax= 2.38D-01

 Cycle   4  Pass 0  IDiag  1:
 RMSU=  1.62D-03    CP:  1.02D+00  9.97D-01  4.01D-01
 E= -384.795213608423     Delta-E=        0.207470353276 Rises=F Damp=F
 DIIS: error= 4.00D-02 at cycle   4 NSaved=   4.
 NSaved= 4 IEnMin= 3 EnMin= -385.002683961699     IErMin= 2 ErrMin= 1.11D-02
 ErrMax= 4.00D-02  0.00D+00 EMaxC= 1.00D-01 BMatC= 3.11D-01 BMatP= 3.45D-02
 IDIUse=2 WtCom= 0.00D+00 WtEn= 1.00D+00
 Coeff-En:   0.000D+00 0.000D+00 0.808D+00 0.192D+00
 Coeff:      0.000D+00 0.000D+00 0.808D+00 0.192D+00
 Gap=     0.160 Goal=   None    Shift=    0.000
 RMSDP=3.18D-03 MaxDP=4.14D-01 DE= 2.07D-01 OVMax= 1.27D-01

 Cycle   5  Pass 0  IDiag  1:
 RMSU=  2.10D-04    CP:  9.91D-01  5.01D-01  8.11D-01  4.84D-01
 E= -385.020296190216     Delta-E=       -0.225082581793 Rises=F Damp=F
 DIIS: error= 1.11D-02 at cycle   5 NSaved=   5.
 NSaved= 5 IEnMin= 5 EnMin= -385.020296190216     IErMin= 5 ErrMin= 1.11D-02
 ErrMax= 1.11D-02  0.00D+00 EMaxC= 1.00D-01 BMatC= 2.65D-02 BMatP= 3.45D-02
 IDIUse=3 WtCom= 8.89D-01 WtEn= 1.11D-01
 Coeff-Com: -0.436D-03 0.275D-01 0.315D+00-0.109D+00 0.767D+00
 Coeff-En:   0.000D+00 0.000D+00 0.388D+00 0.000D+00 0.612D+00
 Coeff:     -0.388D-03 0.244D-01 0.323D+00-0.966D-01 0.749D+00
 Gap=     0.181 Goal=   None    Shift=    0.000
 RMSDP=7.82D-04 MaxDP=9.93D-02 DE=-2.25D-01 OVMax= 5.13D-02

 Cycle   6  Pass 0  IDiag  1:
 RMSU=  5.50D-05    CP:  9.82D-01  3.88D-01  9.10D-01  2.74D-01  8.12D-01
 E= -385.040637603662     Delta-E=       -0.020341413445 Rises=F Damp=F
 DIIS: error= 3.80D-04 at cycle   6 NSaved=   6.
 NSaved= 6 IEnMin= 6 EnMin= -385.040637603662     IErMin= 6 ErrMin= 3.80D-04
 ErrMax= 3.80D-04  0.00D+00 EMaxC= 1.00D-01 BMatC= 1.81D-05 BMatP= 2.65D-02
 IDIUse=3 WtCom= 9.96D-01 WtEn= 3.80D-03
 Coeff-Com: -0.538D-03 0.568D-02 0.117D+00-0.454D-01 0.306D+00 0.617D+00
 Coeff-En:   0.000D+00 0.000D+00 0.000D+00 0.000D+00 0.000D+00 0.100D+01
 Coeff:     -0.536D-03 0.566D-02 0.116D+00-0.452D-01 0.305D+00 0.619D+00
 Gap=     0.182 Goal=   None    Shift=    0.000
 RMSDP=2.48D-05 MaxDP=1.39D-03 DE=-2.03D-02 OVMax= 2.87D-03

 Cycle   7  Pass 0  IDiag  1:
 RMSU=  1.88D-05    CP:  9.82D-01  3.85D-01  9.12D-01  2.75D-01  8.06D-01
                    CP:  8.98D-01
 E= -385.040648425606     Delta-E=       -0.000010821945 Rises=F Damp=F
 DIIS: error= 2.90D-04 at cycle   7 NSaved=   7.
 NSaved= 7 IEnMin= 7 EnMin= -385.040648425606     IErMin= 7 ErrMin= 2.90D-04
 ErrMax= 2.90D-04  0.00D+00 EMaxC= 1.00D-01 BMatC= 8.88D-06 BMatP= 1.81D-05
 IDIUse=3 WtCom= 9.97D-01 WtEn= 2.90D-03
 Coeff-Com:  0.173D-03-0.977D-03 0.394D-01-0.152D-01 0.101D+00 0.378D+00
 Coeff-Com:  0.497D+00
 Coeff-En:   0.000D+00 0.000D+00 0.000D+00 0.000D+00 0.000D+00 0.320D+00
 Coeff-En:   0.680D+00
 Coeff:      0.172D-03-0.975D-03 0.393D-01-0.151D-01 0.101D+00 0.378D+00
 Coeff:      0.497D+00
 Gap=     0.181 Goal=   None    Shift=    0.000
 RMSDP=9.55D-06 MaxDP=2.59D-04 DE=-1.08D-05 OVMax= 1.39D-03

 Initial convergence to 1.0D-05 achieved.  Increase integral accuracy.
 Cycle   8  Pass 1  IDiag  1:
 E= -385.040639423451     Delta-E=        0.000009002155 Rises=F Damp=F
 DIIS: error= 1.44D-04 at cycle   1 NSaved=   1.
 NSaved= 1 IEnMin= 1 EnMin= -385.040639423451     IErMin= 1 ErrMin= 1.44D-04
 ErrMax= 1.44D-04  0.00D+00 EMaxC= 1.00D-01 BMatC= 3.28D-06 BMatP= 3.28D-06
 IDIUse=3 WtCom= 9.99D-01 WtEn= 1.44D-03
 Coeff-Com:  0.100D+01
 Coeff-En:   0.100D+01
 Coeff:      0.100D+01
 Gap=     0.182 Goal=   None    Shift=    0.000
 RMSDP=9.55D-06 MaxDP=2.59D-04 DE= 9.00D-06 OVMax= 8.73D-04

 Cycle   9  Pass 1  IDiag  1:
 RMSU=  1.63D-04    CP:  9.99D-01
 E= -385.040638339534     Delta-E=        0.000001083917 Rises=F Damp=F
 DIIS: error= 1.28D-04 at cycle   2 NSaved=   2.
 NSaved= 2 IEnMin= 1 EnMin= -385.040639423451     IErMin= 2 ErrMin= 1.28D-04
 ErrMax= 1.28D-04  0.00D+00 EMaxC= 1.00D-01 BMatC= 2.94D-06 BMatP= 3.28D-06
 IDIUse=3 WtCom= 9.99D-01 WtEn= 1.28D-03
 Coeff-Com:  0.481D+00 0.519D+00
 Coeff-En:   0.630D+00 0.370D+00
 Coeff:      0.481D+00 0.519D+00
 Gap=     0.181 Goal=   None    Shift=    0.000
 RMSDP=1.54D-05 MaxDP=1.69D-03 DE= 1.08D-06 OVMax= 9.64D-04

 Cycle  10  Pass 1  IDiag  1:
 RMSU=  1.47D-05    CP:  1.00D+00  9.97D-01
 E= -385.040640074125     Delta-E=       -0.000001734591 Rises=F Damp=F
 DIIS: error= 7.89D-05 at cycle   3 NSaved=   3.
 NSaved= 3 IEnMin= 3 EnMin= -385.040640074125     IErMin= 3 ErrMin= 7.89D-05
 ErrMax= 7.89D-05  0.00D+00 EMaxC= 1.00D-01 BMatC= 1.16D-06 BMatP= 2.94D-06
 IDIUse=1 WtCom= 1.00D+00 WtEn= 0.00D+00
 Coeff-Com:  0.200D-01 0.382D+00 0.598D+00
 Coeff:      0.200D-01 0.382D+00 0.598D+00
 Gap=     0.182 Goal=   None    Shift=    0.000
 RMSDP=7.25D-06 MaxDP=8.41D-04 DE=-1.73D-06 OVMax= 3.87D-04

 Cycle  11  Pass 1  IDiag  1:
 RMSU=  1.24D-06    CP:  1.00D+00  1.01D+00  5.60D-01
 E= -385.040641067115     Delta-E=       -0.000000992991 Rises=F Damp=F
 DIIS: error= 1.62D-05 at cycle   4 NSaved=   4.
 NSaved= 4 IEnMin= 4 EnMin= -385.040641067115     IErMin= 4 ErrMin= 1.62D-05
 ErrMax= 1.62D-05  0.00D+00 EMaxC= 1.00D-01 BMatC= 6.98D-08 BMatP= 1.16D-06
 IDIUse=1 WtCom= 1.00D+00 WtEn= 0.00D+00
 Coeff-Com: -0.851D-03 0.233D+00 0.391D+00 0.377D+00
 Coeff:     -0.851D-03 0.233D+00 0.391D+00 0.377D+00
 Gap=     0.182 Goal=   None    Shift=    0.000
 RMSDP=1.20D-06 MaxDP=1.35D-04 DE=-9.93D-07 OVMax= 7.71D-05

 Cycle  12  Pass 1  IDiag  1:
 RMSU=  3.44D-07    CP:  1.00D+00  1.01D+00  6.18D-01  4.57D-01
 E= -385.040641127767     Delta-E=       -0.000000060652 Rises=F Damp=F
 DIIS: error= 4.26D-06 at cycle   5 NSaved=   5.
 NSaved= 5 IEnMin= 5 EnMin= -385.040641127767     IErMin= 5 ErrMin= 4.26D-06
 ErrMax= 4.26D-06  0.00D+00 EMaxC= 1.00D-01 BMatC= 2.66D-09 BMatP= 6.98D-08
 IDIUse=1 WtCom= 1.00D+00 WtEn= 0.00D+00
 Coeff-Com: -0.127D-02 0.139D+00 0.235D+00 0.248D+00 0.380D+00
 Coeff:     -0.127D-02 0.139D+00 0.235D+00 0.248D+00 0.380D+00
 Gap=     0.182 Goal=   None    Shift=    0.000
 RMSDP=1.48D-07 MaxDP=1.34D-05 DE=-6.07D-08 OVMax= 1.83D-05

 Cycle  13  Pass 1  IDiag  1:
 RMSU=  1.01D-07    CP:  1.00D+00  1.01D+00  6.14D-01  4.84D-01  7.90D-01
 E= -385.040641130416     Delta-E=       -0.000000002649 Rises=F Damp=F
 DIIS: error= 3.16D-07 at cycle   6 NSaved=   6.
 NSaved= 6 IEnMin= 6 EnMin= -385.040641130416     IErMin= 6 ErrMin= 3.16D-07
 ErrMax= 3.16D-07  0.00D+00 EMaxC= 1.00D-01 BMatC= 2.73D-11 BMatP= 2.66D-09
 IDIUse=1 WtCom= 1.00D+00 WtEn= 0.00D+00
 Coeff-Com: -0.555D-03 0.553D-01 0.941D-01 0.996D-01 0.175D+00 0.577D+00
 Coeff:     -0.555D-03 0.553D-01 0.941D-01 0.996D-01 0.175D+00 0.577D+00
 Gap=     0.182 Goal=   None    Shift=    0.000
 RMSDP=2.31D-08 MaxDP=1.78D-06 DE=-2.65D-09 OVMax= 1.46D-06

 Cycle  14  Pass 1  IDiag  1:
 RMSU=  1.51D-08    CP:  1.00D+00  1.01D+00  6.13D-01  4.86D-01  7.95D-01
                    CP:  9.90D-01
 E= -385.040641130441     Delta-E=       -0.000000000025 Rises=F Damp=F
 DIIS: error= 6.66D-08 at cycle   7 NSaved=   7.
 NSaved= 7 IEnMin= 7 EnMin= -385.040641130441     IErMin= 7 ErrMin= 6.66D-08
 ErrMax= 6.66D-08  0.00D+00 EMaxC= 1.00D-01 BMatC= 1.68D-12 BMatP= 2.73D-11
 IDIUse=1 WtCom= 1.00D+00 WtEn= 0.00D+00
 Coeff-Com: -0.173D-03 0.165D-01 0.280D-01 0.298D-01 0.544D-01 0.255D+00
 Coeff-Com:  0.617D+00
 Coeff:     -0.173D-03 0.165D-01 0.280D-01 0.298D-01 0.544D-01 0.255D+00
 Coeff:      0.617D+00
 Gap=     0.182 Goal=   None    Shift=    0.000
 RMSDP=8.18D-09 MaxDP=5.83D-07 DE=-2.47D-11 OVMax= 4.54D-07

 SCF Done:  E(RB3LYP) =  -385.040641130     A.U. after   14 cycles
            NFock= 14  Conv=0.82D-08     -V/T= 2.0053
 KE= 3.830202553430D+02 PE=-1.700130692324D+03 EE= 5.298923839284D+02
 Leave Link  502 at Wed Feb  7 20:01:49 2024, MaxMem=  6710886400 cpu:             815.0 elap:              54.5
 (Enter /tmpu/scunam/7/gaussian-2016.03/g1/g16/l508.exe)
 QCSCF skips out because SCF is already converged.
 Leave Link  508 at Wed Feb  7 20:01:49 2024, MaxMem=  6710886400 cpu:               0.5 elap:               0.1
 (Enter /tmpu/scunam/7/gaussian-2016.03/g1/g16/l601.exe)
 Copying SCF densities to generalized density rwf, IOpCl= 0 IROHF=0.

 **********************************************************************

            Population analysis using the SCF density.

 **********************************************************************

 Orbital symmetries:
       Occupied  (A) (A) (A) (A) (A) (A) (A) (A) (A) (A) (A) (A)
                 (A) (A) (A) (A) (A) (A) (A) (A) (A) (A) (A) (A)
                 (A) (A) (A) (A) (A) (A) (A) (A)
       Virtual   (A) (A) (A) (A) (A) (A) (A) (A) (A) (A) (A) (A)
                 (A) (A) (A) (A) (A) (A) (A) (A) (A) (A) (A) (A)
                 (A) (A) (A) (A) (A) (A) (A) (A) (A) (A) (A) (A)
                 (A) (A) (A) (A) (A) (A) (A) (A) (A) (A) (A) (A)
                 (A) (A) (A) (A) (A) (A) (A) (A) (A) (A) (A) (A)
                 (A) (A) (A) (A) (A) (A) (A) (A) (A) (A) (A) (A)
                 (A) (A) (A) (A) (A) (A) (A) (A) (A) (A) (A) (A)
                 (A) (A) (A) (A) (A) (A) (A) (A) (A) (A) (A) (A)
                 (A) (A) (A) (A) (A) (A) (A) (A) (A) (A) (A) (A)
                 (A) (A) (A) (A) (A) (A) (A) (A) (A) (A) (A) (A)
                 (A) (A) (A) (A) (A) (A) (A) (A) (A) (A) (A) (A)
                 (A) (A) (A) (A) (A) (A) (A) (A) (A) (A) (A) (A)
                 (A) (A) (A) (A) (A) (A) (A) (A) (A) (A) (A) (A)
                 (A) (A) (A) (A) (A) (A) (A) (A) (A) (A) (A) (A)
                 (A) (A) (A) (A) (A) (A) (A) (A) (A) (A) (A) (A)
                 (A) (A) (A) (A) (A) (A) (A) (A) (A) (A) (A) (A)
                 (A) (A) (A) (A) (A) (A) (A) (A) (A) (A) (A) (A)
                 (A) (A) (A) (A) (A) (A) (A) (A) (A) (A) (A) (A)
                 (A) (A) (A) (A) (A) (A) (A) (A) (A) (A) (A) (A)
                 (A) (A) (A) (A) (A) (A) (A) (A) (A) (A) (A) (A)
                 (A) (A) (A) (A) (A) (A) (A) (A) (A) (A) (A) (A)
                 (A) (A) (A) (A) (A) (A) (A) (A) (A) (A) (A) (A)
                 (A) (A) (A) (A) (A) (A) (A) (A) (A) (A) (A) (A)
                 (A) (A) (A) (A) (A) (A) (A) (A) (A) (A) (A) (A)
                 (A) (A) (A) (A) (A) (A) (A)
 The electronic state is 1-A.
 Alpha  occ. eigenvalues --  -19.11086 -10.26203 -10.19747 -10.19657 -10.19482
 Alpha  occ. eigenvalues --  -10.19317 -10.19266 -10.19170 -10.17552  -1.02762
 Alpha  occ. eigenvalues --   -0.87711  -0.78853  -0.76548  -0.73491  -0.64561
 Alpha  occ. eigenvalues --   -0.62152  -0.56648  -0.51908  -0.47962  -0.46769
 Alpha  occ. eigenvalues --   -0.45781  -0.45285  -0.44022  -0.41584  -0.39311
 Alpha  occ. eigenvalues --   -0.39309  -0.37055  -0.36161  -0.35710  -0.27611
 Alpha  occ. eigenvalues --   -0.27226  -0.25515
 Alpha virt. eigenvalues --   -0.07362  -0.03012   0.02611   0.03182   0.04932
 Alpha virt. eigenvalues --    0.07181   0.08564   0.10082   0.10768   0.11086
 Alpha virt. eigenvalues --    0.11785   0.13614   0.13909   0.14262   0.17105
 Alpha virt. eigenvalues --    0.19382   0.19811   0.20786   0.21830   0.22049
 Alpha virt. eigenvalues --    0.22439   0.23601   0.24107   0.24609   0.25230
 Alpha virt. eigenvalues --    0.27680   0.29480   0.31449   0.32148   0.32641
 Alpha virt. eigenvalues --    0.33662   0.34583   0.35331   0.36494   0.37884
 Alpha virt. eigenvalues --    0.38704   0.39938   0.40171   0.40234   0.41166
 Alpha virt. eigenvalues --    0.41746   0.42270   0.44756   0.46814   0.47100
 Alpha virt. eigenvalues --    0.47143   0.47671   0.49164   0.49686   0.50407
 Alpha virt. eigenvalues --    0.51843   0.55717   0.55911   0.56400   0.58670
 Alpha virt. eigenvalues --    0.61681   0.63667   0.64095   0.66687   0.68159
 Alpha virt. eigenvalues --    0.68392   0.70649   0.70810   0.72079   0.73537
 Alpha virt. eigenvalues --    0.74976   0.76732   0.77871   0.79930   0.82049
 Alpha virt. eigenvalues --    0.83796   0.84764   0.85690   0.86928   0.88039
 Alpha virt. eigenvalues --    0.92393   0.93291   0.93387   0.96875   0.99666
 Alpha virt. eigenvalues --    0.99672   1.01869   1.03086   1.04520   1.08915
 Alpha virt. eigenvalues --    1.09209   1.11514   1.13238   1.18109   1.19437
 Alpha virt. eigenvalues --    1.20618   1.20729   1.23309   1.24752   1.25542
 Alpha virt. eigenvalues --    1.26526   1.27864   1.31140   1.35070   1.37501
 Alpha virt. eigenvalues --    1.38449   1.39863   1.43463   1.44559   1.45088
 Alpha virt. eigenvalues --    1.47069   1.48459   1.49699   1.51073   1.52079
 Alpha virt. eigenvalues --    1.54025   1.59552   1.59744   1.60236   1.60621
 Alpha virt. eigenvalues --    1.61132   1.64087   1.64477   1.65206   1.67893
 Alpha virt. eigenvalues --    1.68172   1.69085   1.69464   1.76911   1.80804
 Alpha virt. eigenvalues --    1.81979   1.83394   1.88445   1.89572   1.91702
 Alpha virt. eigenvalues --    1.92728   1.95753   1.96932   2.02514   2.03031
 Alpha virt. eigenvalues --    2.03076   2.07540   2.10142   2.10347   2.12834
 Alpha virt. eigenvalues --    2.14007   2.18004   2.19423   2.21992   2.24336
 Alpha virt. eigenvalues --    2.25242   2.29137   2.31192   2.33934   2.36448
 Alpha virt. eigenvalues --    2.36806   2.38541   2.41283   2.43356   2.48007
 Alpha virt. eigenvalues --    2.50125   2.52934   2.53540   2.55146   2.56866
 Alpha virt. eigenvalues --    2.59020   2.59100   2.63330   2.63978   2.64611
 Alpha virt. eigenvalues --    2.65127   2.65907   2.67446   2.69567   2.71190
 Alpha virt. eigenvalues --    2.71646   2.73412   2.77375   2.77887   2.78257
 Alpha virt. eigenvalues --    2.80640   2.80966   2.82100   2.82755   2.85521
 Alpha virt. eigenvalues --    2.88215   2.90022   2.90539   2.93190   2.97566
 Alpha virt. eigenvalues --    2.98226   2.99480   3.00001   3.02259   3.06710
 Alpha virt. eigenvalues --    3.07938   3.08563   3.10676   3.11177   3.12340
 Alpha virt. eigenvalues --    3.13127   3.13777   3.15739   3.16920   3.19092
 Alpha virt. eigenvalues --    3.19935   3.20740   3.22261   3.25614   3.26473
 Alpha virt. eigenvalues --    3.27411   3.29459   3.29923   3.31812   3.31847
 Alpha virt. eigenvalues --    3.35414   3.36670   3.36824   3.37470   3.41771
 Alpha virt. eigenvalues --    3.43215   3.44607   3.44992   3.46142   3.50967
 Alpha virt. eigenvalues --    3.51969   3.52350   3.53927   3.57628   3.58713
 Alpha virt. eigenvalues --    3.62352   3.67170   3.67846   3.70790   3.72664
 Alpha virt. eigenvalues --    3.75935   3.79956   3.83907   3.86206   3.88767
 Alpha virt. eigenvalues --    3.93129   3.93990   3.95338   3.99183   4.00185
 Alpha virt. eigenvalues --    4.04390   4.06590   4.12832   4.17667   4.18423
 Alpha virt. eigenvalues --    4.19058   4.20597   4.21151   4.23533   4.26412
 Alpha virt. eigenvalues --    4.29088   4.31616   4.33154   4.34637   4.35738
 Alpha virt. eigenvalues --    4.45894   4.54002   4.57575   4.63988   4.65283
 Alpha virt. eigenvalues --    4.68206   4.69516   4.73527   4.84541   4.87590
 Alpha virt. eigenvalues --    4.88636   4.99466   5.03954   5.20001   5.20089
 Alpha virt. eigenvalues --    5.21525   5.23529   5.35233   5.39146   5.42141
 Alpha virt. eigenvalues --    5.56197   5.63904   5.71570   6.06550   6.32758
 Alpha virt. eigenvalues --    6.37868   6.57074   6.59048   6.81050   7.04135
 Alpha virt. eigenvalues --    7.09050  22.03441  22.37977  22.54051  22.56906
 Alpha virt. eigenvalues --   22.70277  22.77549  23.07323  23.33165  43.86798
          Condensed to atoms (all electrons):
               1          2          3          4          5          6
     1  O    7.851995  -0.219512   0.007596   0.042871   0.712476  -0.000093
     2  C   -0.219512   6.076528   0.450419   0.131109  -0.126361  -0.039487
     3  C    0.007596   0.450419   5.057961  -0.115224  -0.028612   0.506985
     4  C    0.042871   0.131109  -0.115224   5.227641   0.032510  -0.034051
     5  C    0.712476  -0.126361  -0.028612   0.032510   4.930402  -0.001316
     6  C   -0.000093  -0.039487   0.506985  -0.034051  -0.001316   4.863531
     7  C    0.002022  -0.024243  -0.039946   0.444725   0.007163  -0.034847
     8  C    0.000184  -0.064799  -0.022110   0.001472  -0.000409   0.501676
     9  C   -0.111323  -0.262099  -0.015951   0.053210   0.382631  -0.000815
    10  H    0.000219  -0.038298   0.414863   0.003179  -0.006983  -0.031943
    11  H    0.022918  -0.070553   0.007796   0.438494   0.004258  -0.002044
    12  H    0.000007   0.008328  -0.047632  -0.001034   0.000281   0.421701
    13  H   -0.000131   0.012345  -0.001501  -0.052273  -0.000898   0.009158
    14  H   -0.000002  -0.001300   0.008634   0.007576   0.000083  -0.044830
    15  H    0.003582   0.019217   0.000092  -0.004976  -0.037124   0.000910
    16  H    0.011656   0.019049  -0.001185  -0.001478  -0.049815  -0.000029
    17  H    0.003563   0.019229   0.000077  -0.004964  -0.037094   0.000900
               7          8          9         10         11         12
     1  O    0.002022   0.000184  -0.111323   0.000219   0.022918   0.000007
     2  C   -0.024243  -0.064799  -0.262099  -0.038298  -0.070553   0.008328
     3  C   -0.039946  -0.022110  -0.015951   0.414863   0.007796  -0.047632
     4  C    0.444725   0.001472   0.053210   0.003179   0.438494  -0.001034
     5  C    0.007163  -0.000409   0.382631  -0.006983   0.004258   0.000281
     6  C   -0.034847   0.501676  -0.000815  -0.031943  -0.002044   0.421701
     7  C    4.916769   0.469730  -0.001100   0.000233  -0.057076   0.007374
     8  C    0.469730   4.877510   0.000128   0.005276   0.010689  -0.043261
     9  C   -0.001100   0.000128   5.171526   0.001663   0.003426   0.000100
    10  H    0.000233   0.005276   0.001663   0.529221  -0.000210  -0.005871
    11  H   -0.057076   0.010689   0.003426  -0.000210   0.510516   0.000068
    12  H    0.007374  -0.043261   0.000100  -0.005871   0.000068   0.550893
    13  H    0.428968  -0.050635  -0.000013   0.000076  -0.006743  -0.000271
    14  H   -0.045664   0.419196  -0.000003  -0.000303  -0.000219  -0.006436
    15  H    0.000162  -0.000087   0.370325  -0.001554  -0.000196  -0.000026
    16  H    0.000010   0.000010   0.398591   0.000333  -0.000148  -0.000004
    17  H    0.000161  -0.000086   0.370385  -0.001561  -0.000195  -0.000026
              13         14         15         16         17
     1  O   -0.000131  -0.000002   0.003582   0.011656   0.003563
     2  C    0.012345  -0.001300   0.019217   0.019049   0.019229
     3  C   -0.001501   0.008634   0.000092  -0.001185   0.000077
     4  C   -0.052273   0.007576  -0.004976  -0.001478  -0.004964
     5  C   -0.000898   0.000083  -0.037124  -0.049815  -0.037094
     6  C    0.009158  -0.044830   0.000910  -0.000029   0.000900
     7  C    0.428968  -0.045664   0.000162   0.000010   0.000161
     8  C   -0.050635   0.419196  -0.000087   0.000010  -0.000086
     9  C   -0.000013  -0.000003   0.370325   0.398591   0.370385
    10  H    0.000076  -0.000303  -0.001554   0.000333  -0.001561
    11  H   -0.006743  -0.000219  -0.000196  -0.000148  -0.000195
    12  H   -0.000271  -0.006436  -0.000026  -0.000004  -0.000026
    13  H    0.549975  -0.006645   0.000002   0.000000   0.000002
    14  H   -0.006645   0.551623   0.000001   0.000000   0.000001
    15  H    0.000002   0.000001   0.568985  -0.015553  -0.026160
    16  H    0.000000   0.000000  -0.015553   0.517650  -0.015518
    17  H    0.000002   0.000001  -0.026160  -0.015518   0.568815
 Mulliken charges:
               1
     1  O   -0.328028
     2  C    0.110425
     3  C   -0.182261
     4  C   -0.168789
     5  C    0.218808
     6  C   -0.115406
     7  C   -0.074441
     8  C   -0.104484
     9  C   -0.360679
    10  H    0.131659
    11  H    0.139218
    12  H    0.115809
    13  H    0.118583
    14  H    0.118287
    15  H    0.122399
    16  H    0.136431
    17  H    0.122469
 Sum of Mulliken charges =  -0.00000
 Mulliken charges with hydrogens summed into heavy atoms:
               1
     1  O   -0.328028
     2  C    0.110425
     3  C   -0.050602
     4  C   -0.029571
     5  C    0.218808
     6  C    0.000403
     7  C    0.044142
     8  C    0.013802
     9  C    0.020620
 Electronic spatial extent (au):  <R**2>=           1226.1724
 Charge=             -0.0000 electrons
 Dipole moment (field-independent basis, Debye):
    X=             -2.4346    Y=              2.4864    Z=             -0.0005  Tot=              3.4799
 Quadrupole moment (field-independent basis, Debye-Ang):
   XX=            -52.5674   YY=            -51.1704   ZZ=            -55.4255
   XY=              6.8260   XZ=             -0.0031   YZ=              0.0019
 Traceless Quadrupole moment (field-independent basis, Debye-Ang):
   XX=              0.4870   YY=              1.8840   ZZ=             -2.3710
   XY=              6.8260   XZ=             -0.0031   YZ=              0.0019
 Octapole moment (field-independent basis, Debye-Ang**2):
  XXX=            -19.1383  YYY=              0.2599  ZZZ=              0.0039  XYY=            -10.5794
  XXY=             14.2401  XXZ=             -0.0007  XZZ=              9.3672  YZZ=             -0.8216
  YYZ=             -0.0005  XYZ=              0.0033
 Hexadecapole moment (field-independent basis, Debye-Ang**3):
 XXXX=          -1111.2478 YYYY=           -414.1952 ZZZZ=            -68.9952 XXXY=             29.0755
 XXXZ=             -0.0253 YYYX=              2.4696 YYYZ=              0.0005 ZZZX=              0.0088
 ZZZY=             -0.0015 XXYY=           -271.6095 XXZZ=           -214.3140 YYZZ=            -88.0905
 XXYZ=              0.0082 YYXZ=             -0.0036 ZZXY=             -0.8854
 N-N= 4.021774119217D+02 E-N=-1.700130687860D+03  KE= 3.830202553430D+02
 No NMR shielding tensors so no spin-rotation constants.
 Leave Link  601 at Wed Feb  7 20:01:50 2024, MaxMem=  6710886400 cpu:              21.6 elap:               1.5
 (Enter /tmpu/scunam/7/gaussian-2016.03/g1/g16/l701.exe)
 ... and contract with generalized density number  0.
 Compute integral first derivatives.
   1 Symmetry operations used in ECPInt.
 ECPInt:  NShTT=    8646 NPrTT=   26328 LenC2=    8398 LenP2D=   20332.
 LDataN:  DoStor=T MaxTD1= 7 Len=  274
 Leave Link  701 at Wed Feb  7 20:01:51 2024, MaxMem=  6710886400 cpu:              12.6 elap:               0.9
 (Enter /tmpu/scunam/7/gaussian-2016.03/g1/g16/l702.exe)
 L702 exits ... SP integral derivatives will be done elsewhere.
 Leave Link  702 at Wed Feb  7 20:01:51 2024, MaxMem=  6710886400 cpu:               0.8 elap:               0.1
 (Enter /tmpu/scunam/7/gaussian-2016.03/g1/g16/l703.exe)
 Integral derivatives from FoFJK, PRISM(SPDF).
 Compute integral first derivatives, UseDBF=F ICtDFT=           0.
 Calling FoFJK, ICntrl=      2127 FMM=F ISym2X=0 I1Cent= 0 IOpClX= 0 NMat=1 NMatS=1 NMatT=0.
 FoFJK:  IHMeth= 1 ICntrl=    2127 DoSepK=F KAlg= 0 I1Cent=           0 FoldK=F
 IRaf=         0 NMat=       1 IRICut=       1 DoRegI=T DoRafI=F ISym2E= 0 IDoP0=0 IntGTp=1.
 FoFCou: FMM=F IPFlag=           0 FMFlag=      100000 FMFlg1=         800
         NFxFlg=           0 DoJE=F BraDBF=F KetDBF=F FulRan=T
         wScrn=  0.000000 ICntrl=      2127 IOpCl=  0 I1Cent=           0 NGrid=           0
         NMat0=    1 NMatS0=      1 NMatT0=    0 NMatD0=    1 NMtDS0=    0 NMtDT0=    0
 Symmetry not used in FoFCou.
 Leave Link  703 at Wed Feb  7 20:02:10 2024, MaxMem=  6710886400 cpu:             284.9 elap:              19.0
 (Enter /tmpu/scunam/7/gaussian-2016.03/g1/g16/l716.exe)
 Dipole        =-9.57853976D-01 9.78238742D-01-2.13751775D-04
 ***** Axes restored to original set *****
 -------------------------------------------------------------------
 Center     Atomic                   Forces (Hartrees/Bohr)
 Number     Number              X              Y              Z
 -------------------------------------------------------------------
      1        8          -0.024934186    0.022459734   -0.000059980
      2        6          -0.006912941    0.000329850   -0.000016949
      3        6          -0.015887094    0.005573403    0.000002184
      4        6          -0.014227278   -0.006606339   -0.000007536
      5        6           0.048783052   -0.024338687    0.000126949
      6        6           0.000340596   -0.002515786   -0.000012392
      7        6           0.004215178    0.001444958    0.000007176
      8        6           0.000999643    0.001319295    0.000003577
      9        6           0.006871240   -0.003243237   -0.000122687
     10        1           0.001676335   -0.005409954   -0.000002955
     11        1           0.003134132    0.005897100    0.000000615
     12        1           0.001367863   -0.002118115    0.000004192
     13        1           0.001559506    0.001935039   -0.000003286
     14        1           0.002124165    0.000020733   -0.000001238
     15        1          -0.001877654    0.003562022    0.003939233
     16        1          -0.005343633   -0.001903831    0.000012887
     17        1          -0.001888924    0.003593814   -0.003869791
 -------------------------------------------------------------------
 Cartesian Forces:  Max     0.048783052 RMS     0.009853466
 Leave Link  716 at Wed Feb  7 20:02:11 2024, MaxMem=  6710886400 cpu:               0.9 elap:               0.1
 (Enter /tmpu/scunam/7/gaussian-2016.03/g1/g16/l103.exe)

 GradGradGradGradGradGradGradGradGradGradGradGradGradGradGradGradGradGrad
 Berny optimization.
 Search for a local minimum.
 Step number   1 out of a maximum of  102
 All quantities printed in internal units (Hartrees-Bohrs-Radians)
 Second derivative matrix not updated -- first step.
 ITU=  0
     Eigenvalues ---    0.00180   0.00268   0.00549   0.00776   0.01646
     Eigenvalues ---    0.02493   0.02517   0.03624   0.04498   0.04549
     Eigenvalues ---    0.05614   0.06848   0.06933   0.07121   0.07718
     Eigenvalues ---    0.09675   0.09681   0.10807   0.11707   0.12858
     Eigenvalues ---    0.13420   0.14460   0.17504   0.17990   0.22498
     Eigenvalues ---    0.29063   0.30210   0.31446   0.33332   0.43531
     Eigenvalues ---    0.44750   0.51119   0.66358   0.68634   0.87271
     Eigenvalues ---    0.87561   0.91908   1.04047   1.12906   1.22631
     Eigenvalues ---    1.27570   1.48196   1.58052   1.61842   2.01248
 RFO step:  Lambda=-5.64274836D-03 EMin= 1.79923920D-03
 Linear search not attempted -- first point.
 B after Tr=    -0.007512    0.000082    0.000012
         Rot=    1.000000   -0.000006   -0.000001    0.000450 Ang=  -0.05 deg.
 Variable       Old X    -DE/DX   Delta X   Delta X   Delta X     New X
                                 (Linear)    (Quad)   (Total)
    X1        4.50208  -0.02493   0.00000  -0.07528  -0.08479   4.41729
    Y1       -2.19851   0.02246   0.00000  -0.02513  -0.02903  -2.22753
    Z1        0.00076  -0.00006   0.00000  -0.00059  -0.00061   0.00014
    X2        0.53971  -0.00691   0.00000  -0.00300  -0.01056   0.52915
    Y2       -0.08315   0.00033   0.00000   0.03055   0.03015  -0.05300
    Z2       -0.00057  -0.00002   0.00000   0.00035   0.00036  -0.00021
    X3       -0.68654  -0.01589   0.00000  -0.05528  -0.06075  -0.74729
    Y3        2.25029   0.00557   0.00000   0.01191   0.01266   2.26294
    Z3       -0.00019   0.00000   0.00000   0.00011   0.00015  -0.00004
    X4       -0.86776  -0.01423   0.00000  -0.00496  -0.01453  -0.88229
    Y4       -2.31170  -0.00661   0.00000   0.02453   0.02540  -2.28631
    Z4       -0.00038  -0.00001   0.00000   0.00009   0.00008  -0.00030
    X5        3.28529   0.04878   0.00000   0.05016   0.04248   3.32777
    Y5       -0.19200  -0.02434   0.00000   0.00757   0.00465  -0.18735
    Z5       -0.00057   0.00013   0.00000   0.00080   0.00080   0.00024
    X6       -3.32044   0.00034   0.00000  -0.04526  -0.05067  -3.37111
    Y6        2.35498  -0.00252   0.00000  -0.01287  -0.00976   2.34522
    Z6        0.00038  -0.00001   0.00000  -0.00013  -0.00009   0.00029
    X7       -3.50166   0.00422   0.00000   0.00745  -0.00205  -3.50371
    Y7       -2.20701   0.00144   0.00000   0.00033   0.00356  -2.20346
    Z7        0.00000   0.00001   0.00000  -0.00004  -0.00004  -0.00004
    X8       -4.72809   0.00100   0.00000  -0.01724  -0.02466  -4.75275
    Y8        0.12623   0.00132   0.00000  -0.01834  -0.01399   0.11225
    Z8        0.00038   0.00000   0.00000  -0.00011  -0.00008   0.00030
    X9        4.77761   0.00687   0.00000   0.08047   0.07498   4.85258
    Y9        2.26068  -0.00324   0.00000  -0.01127  -0.01556   2.24512
    Z9        0.00019  -0.00012   0.00000  -0.00013  -0.00010   0.00009
   X10        0.32692   0.00168   0.00000  -0.03816  -0.04205   0.28487
   Y10        4.03343  -0.00541   0.00000  -0.00990  -0.01008   4.02335
   Z10       -0.00019  -0.00000   0.00000   0.00010   0.00016  -0.00003
   X11        0.04781   0.00313   0.00000   0.05821   0.04703   0.09484
   Y11       -4.15003   0.00590   0.00000   0.06764   0.06763  -4.08240
   Z11       -0.00057   0.00000   0.00000   0.00013   0.00010  -0.00047
   X12       -4.27664   0.00137   0.00000  -0.05298  -0.05676  -4.33340
   Y12        4.17119  -0.00212   0.00000  -0.02508  -0.02110   4.15009
   Z12        0.00057   0.00000   0.00000  -0.00015  -0.00008   0.00048
   X13       -4.59808   0.00156   0.00000   0.03070   0.01963  -4.57845
   Y13       -3.94197   0.00194   0.00000  -0.00627  -0.00208  -3.94405
   Z13        0.00019  -0.00000   0.00000  -0.00015  -0.00017   0.00001
   X14       -6.77883   0.00212   0.00000  -0.01174  -0.01909  -6.79792
   Y14        0.20787   0.00002   0.00000  -0.03693  -0.03074   0.17713
   Z14        0.00076  -0.00000   0.00000  -0.00019  -0.00016   0.00059
   X15        4.37094  -0.00188   0.00000   0.07079   0.06631   4.43725
   Y15        3.35313   0.00356   0.00000   0.03053   0.02663   3.37976
   Z15       -1.70548   0.00394   0.00000   0.03197   0.03201  -1.67347
   X16        6.80018  -0.00534   0.00000   0.05458   0.04866   6.84884
   Y16        1.82359  -0.00190   0.00000  -0.05942  -0.06551   1.75808
   Z16       -0.00057   0.00001   0.00000  -0.00021  -0.00019  -0.00076
   X17        4.37150  -0.00189   0.00000   0.07128   0.06681   4.43832
   Y17        3.35143   0.00359   0.00000   0.03111   0.02717   3.37860
   Z17        1.70680  -0.00387   0.00000  -0.03216  -0.03212   1.67468
         Item               Value     Threshold  Converged?
 Maximum Force            0.048783     0.000450     NO 
 RMS     Force            0.009853     0.000300     NO 
 Maximum Displacement     0.084792     0.001800     NO 
 RMS     Displacement     0.033718     0.001200     NO 
 Predicted change in Energy=-2.988254D-03
 Lowest energy point so far.  Saving SCF results.
 GradGradGradGradGradGradGradGradGradGradGradGradGradGradGradGradGradGrad

 Leave Link  103 at Wed Feb  7 20:02:11 2024, MaxMem=  6710886400 cpu:               5.2 elap:               0.4
 (Enter /tmpu/scunam/7/gaussian-2016.03/g1/g16/l202.exe)
                          Input orientation:                          
 ---------------------------------------------------------------------
 Center     Atomic      Atomic             Coordinates (Angstroms)
 Number     Number       Type             X           Y           Z
 ---------------------------------------------------------------------
      1          8           0        2.337530   -1.178760    0.000076
      2          6           0        0.280013   -0.028045   -0.000110
      3          6           0       -0.395449    1.197499   -0.000023
      4          6           0       -0.466888   -1.209861   -0.000158
      5          6           0        1.760980   -0.099139    0.000125
      6          6           0       -1.783912    1.241036    0.000154
      7          6           0       -1.854083   -1.166018   -0.000022
      8          6           0       -2.515049    0.059399    0.000157
      9          6           0        2.567877    1.188066    0.000048
     10          1           0        0.150747    2.129065   -0.000016
     11          1           0        0.050186   -2.160312   -0.000250
     12          1           0       -2.293137    2.196133    0.000256
     13          1           0       -2.422810   -2.087099    0.000008
     14          1           0       -3.597303    0.093733    0.000314
     15          1           0        2.348091    1.788493   -0.885560
     16          1           0        3.624248    0.930334   -0.000401
     17          1           0        2.348657    1.787878    0.886202
 ---------------------------------------------------------------------
                    Distance matrix (angstroms):
                    1          2          3          4          5
     1  O    0.000000
     2  C    2.357440   0.000000
     3  C    3.621572   1.399359   0.000000
     4  C    2.804591   1.398052   2.408419   0.000000
     5  C    1.223925   1.482672   2.516238   2.489397   0.000000
     6  C    4.779299   2.422882   1.389146   2.782346   3.789767
     7  C    4.191633   2.418543   2.777378   1.387888   3.769206
     8  C    5.008050   2.796430   2.405821   2.409561   4.278967
     9  C    2.378009   2.590993   2.963341   3.867797   1.519204
    10  H    3.965316   2.160980   1.079882   3.395571   2.749135
    11  H    2.489053   2.144617   3.387253   1.081999   2.678665
    12  H    5.730007   3.401186   2.144409   3.864709   4.658770
    13  H    4.846227   3.397787   3.859893   2.143637   4.632071
    14  H    6.069718   3.879228   3.386763   3.390996   5.361753
    15  H    3.096620   2.891500   2.942866   4.206919   2.166170
    16  H    2.470611   3.478850   4.028566   4.617123   2.128752
    17  H    3.096172   2.891783   2.943477   4.207061   2.165948
                    6          7          8          9         10
     6  C    0.000000
     7  C    2.408077   0.000000
     8  C    1.389541   1.392309   0.000000
     9  C    4.352112   5.009535   5.206729   0.000000
    10  H    2.128733   3.857061   3.374905   2.593838   0.000000
    11  H    3.864335   2.148223   3.392277   4.189320   4.290555
    12  H    1.082367   3.390697   2.148226   4.964439   2.444804
    13  H    3.388905   1.082516   2.148480   5.969394   4.939558
    14  H    2.145854   2.150765   1.082798   6.261550   4.265027
    15  H    4.261179   5.212636   5.236829   1.092300   2.393428
    16  H    5.417078   5.865731   6.200765   1.087357   3.674529
    17  H    4.261719   5.212861   5.237208   1.092292   2.394284
                   11         12         13         14         15
    11  H    0.000000
    12  H    4.946693   0.000000
    13  H    2.474079   4.285194   0.000000
    14  H    4.287761   2.474052   2.476987   0.000000
    15  H    4.653729   4.742556   6.210148   6.245373   0.000000
    16  H    4.725041   6.051256   6.758092   7.269848   1.774407
    17  H    4.653704   4.743187   6.210288   6.245747   1.771762
                   16         17
    16  H    0.000000
    17  H    1.774424   0.000000
 Stoichiometry    C8H8O
 Framework group  C1[X(C8H8O)]
 Deg. of freedom    45
 Full point group                 C1      NOp   1
 RotChk:  IX=0 Diff= 2.90D-04
 Largest Abelian subgroup         C1      NOp   1
 Largest concise Abelian subgroup C1      NOp   1
                         Standard orientation:                         
 ---------------------------------------------------------------------
 Center     Atomic      Atomic             Coordinates (Angstroms)
 Number     Number       Type             X           Y           Z
 ---------------------------------------------------------------------
      1          8           0        2.217372   -1.304952    0.000042
      2          6           0        0.207422   -0.073034   -0.000144
      3          6           0       -0.418588    1.178492   -0.000057
      4          6           0       -0.586052   -1.224098   -0.000192
      5          6           0        1.684371   -0.203180    0.000091
      6          6           0       -1.804208    1.277411    0.000120
      7          6           0       -1.970392   -1.124925   -0.000056
      8          6           0       -2.581923    0.125897    0.000123
      9          6           0        2.542000    1.050794    0.000013
     10          1           0        0.164353    2.087516   -0.000050
     11          1           0       -0.107325   -2.194429   -0.000284
     12          1           0       -2.274907    2.252070    0.000222
     13          1           0       -2.575428   -2.022573   -0.000026
     14          1           0       -3.661944    0.203398    0.000280
     15          1           0        2.346353    1.659515   -0.885594
     16          1           0        3.587243    0.751106   -0.000435
     17          1           0        2.346894    1.658878    0.886168
 ---------------------------------------------------------------------
 Rotational constants (GHZ):           3.7069893           1.2204174           0.9234527
 Leave Link  202 at Wed Feb  7 20:02:11 2024, MaxMem=  6710886400 cpu:               1.3 elap:               0.1
 (Enter /tmpu/scunam/7/gaussian-2016.03/g1/g16/l301.exe)
 Standard basis: def2TZVP (5D, 7F)
 Ernie: Thresh=  0.10000D-02 Tol=  0.10000D-05 Strict=F.
 There are   372 symmetry adapted cartesian basis functions of A   symmetry.
 There are   327 symmetry adapted basis functions of A   symmetry.
   327 basis functions,   523 primitive gaussians,   372 cartesian basis functions
    32 alpha electrons       32 beta electrons
       nuclear repulsion energy       401.9735541964 Hartrees.
 IExCor=  402 DFT=T Ex+Corr=B3LYP ExCW=0 ScaHFX=  0.200000
 ScaDFX=  0.800000  0.720000  1.000000  0.810000 ScalE2=  1.000000  1.000000
 IRadAn=      5 IRanWt=     -1 IRanGd=            0 ICorTp=0 IEmpDi=  4
 NAtoms=   17 NActive=   17 NUniq=   17 SFac= 1.00D+00 NAtFMM=   60 NAOKFM=F Big=F
 Integral buffers will be    131072 words long.
 Raffenetti 2 integral format.
 Two-electron integral symmetry is turned on.
 Leave Link  301 at Wed Feb  7 20:02:11 2024, MaxMem=  6710886400 cpu:               1.9 elap:               0.1
 (Enter /tmpu/scunam/7/gaussian-2016.03/g1/g16/l302.exe)
 NPDir=0 NMtPBC=     1 NCelOv=     1 NCel=       1 NClECP=     1 NCelD=      1
         NCelK=      1 NCelE2=     1 NClLst=     1 CellRange=     0.0.
 One-electron integrals computed using PRISM.
 One-electron integral symmetry used in STVInt
   1 Symmetry operations used in ECPInt.
 ECPInt:  NShTT=    8646 NPrTT=   26328 LenC2=    8396 LenP2D=   20316.
 LDataN:  DoStor=T MaxTD1= 6 Len=  172
 NBasis=   327 RedAO= T EigKep=  8.56D-06  NBF=   327
 NBsUse=   327 1.00D-06 EigRej= -1.00D+00 NBFU=   327
 Precomputing XC quadrature grid using
 IXCGrd= 4 IRadAn=           5 IRanWt=          -1 IRanGd=           0 AccXCQ= 0.00D+00.
 Generated NRdTot=       0 NPtTot=           0 NUsed=           0 NTot=          32
 NSgBfM=   371   371   371   371   371 MxSgAt=    17 MxSgA2=    17.
 Leave Link  302 at Wed Feb  7 20:02:13 2024, MaxMem=  6710886400 cpu:              23.7 elap:               1.6
 (Enter /tmpu/scunam/7/gaussian-2016.03/g1/g16/l303.exe)
 DipDrv:  MaxL=1.
 Leave Link  303 at Wed Feb  7 20:02:13 2024, MaxMem=  6710886400 cpu:               2.9 elap:               0.2
 (Enter /tmpu/scunam/7/gaussian-2016.03/g1/g16/l401.exe)
 Initial guess from the checkpoint file:  "Acetophenone.chk"
 B after Tr=    -0.000000   -0.000000    0.000000
         Rot=    1.000000   -0.000014   -0.000002    0.000765 Ang=  -0.09 deg.
 Guess basis will be translated and rotated to current coordinates.
 JPrj=2 DoOrth=T DoCkMO=T.
 Generating alternative initial guess.
 ExpMin= 9.52D-02 ExpMax= 2.70D+04 ExpMxC= 9.22D+02 IAcc=2 IRadAn=         4 AccDes= 0.00D+00
 Harris functional with IExCor=  402 and IRadAn=       4 diagonalized for initial guess.
 HarFok:  IExCor=  402 AccDes= 0.00D+00 IRadAn=         4 IDoV= 1 UseB2=F ITyADJ=14
 ICtDFT=  3500011 ScaDFX=  1.000000  1.000000  1.000000  1.000000
 FoFCou: FMM=F IPFlag=           0 FMFlag=      100000 FMFlg1=           0
         NFxFlg=           0 DoJE=T BraDBF=F KetDBF=T FulRan=T
         wScrn=  0.000000 ICntrl=       500 IOpCl=  0 I1Cent=   200000004 NGrid=           0
         NMat0=    1 NMatS0=      1 NMatT0=    0 NMatD0=    1 NMtDS0=    0 NMtDT0=    0
 Petite list used in FoFCou.
 Harris En= -385.103011000615    
 Leave Link  401 at Wed Feb  7 20:02:16 2024, MaxMem=  6710886400 cpu:              38.6 elap:               2.6
 (Enter /tmpu/scunam/7/gaussian-2016.03/g1/g16/l502.exe)
 Integral symmetry usage will be decided dynamically.
 Closed shell SCF:
 Using DIIS extrapolation, IDIIS=  1040.
 NGot=  6710886400 LenX=  6710600291 LenY=  6710461466
 Requested convergence on RMS density matrix=1.00D-08 within 128 cycles.
 Requested convergence on MAX density matrix=1.00D-06.
 Requested convergence on             energy=1.00D-06.
 No special actions if energy rises.
 Fock matrices will be formed incrementally for  20 cycles.
 Integral accuracy reduced to 1.0D-05 until final iterations.

 Cycle   1  Pass 0  IDiag  1:
 FoFJK:  IHMeth= 1 ICntrl=       0 DoSepK=F KAlg= 0 I1Cent=           0 FoldK=F
 IRaf= 940000000 NMat=       1 IRICut=       1 DoRegI=T DoRafI=F ISym2E= 0 IDoP0=0 IntGTp=1.
 FoFCou: FMM=F IPFlag=           0 FMFlag=      100000 FMFlg1=           0
         NFxFlg=           0 DoJE=F BraDBF=F KetDBF=F FulRan=T
         wScrn=  0.000000 ICntrl=         0 IOpCl=  0 I1Cent=           0 NGrid=           0
         NMat0=    1 NMatS0=      1 NMatT0=    0 NMatD0=    1 NMtDS0=    0 NMtDT0=    0
 Symmetry not used in FoFCou.
 E= -385.041616415457    
 DIIS: error= 1.91D-03 at cycle   1 NSaved=   1.
 NSaved= 1 IEnMin= 1 EnMin= -385.041616415457     IErMin= 1 ErrMin= 1.91D-03
 ErrMax= 1.91D-03  0.00D+00 EMaxC= 1.00D-01 BMatC= 2.64D-03 BMatP= 2.64D-03
 IDIUse=3 WtCom= 9.81D-01 WtEn= 1.91D-02
 Coeff-Com:  0.100D+01
 Coeff-En:   0.100D+01
 Coeff:      0.100D+01
 Gap=     0.736 Goal=   None    Shift=    0.000
 GapD=    0.736 DampG=2.000 DampE=1.000 DampFc=2.0000 IDamp=-1.
 RMSDP=5.25D-04 MaxDP=3.08D-02              OVMax= 1.64D-02

 Cycle   2  Pass 0  IDiag  1:
 RMSU=  5.08D-04    CP:  9.85D-01
 E= -385.043753693340     Delta-E=       -0.002137277883 Rises=F Damp=F
 DIIS: error= 1.27D-03 at cycle   2 NSaved=   2.
 NSaved= 2 IEnMin= 2 EnMin= -385.043753693340     IErMin= 2 ErrMin= 1.27D-03
 ErrMax= 1.27D-03  0.00D+00 EMaxC= 1.00D-01 BMatC= 3.89D-04 BMatP= 2.64D-03
 IDIUse=3 WtCom= 9.87D-01 WtEn= 1.27D-02
 Coeff-Com:  0.151D+00 0.849D+00
 Coeff-En:   0.000D+00 0.100D+01
 Coeff:      0.149D+00 0.851D+00
 Gap=     0.185 Goal=   None    Shift=    0.000
 RMSDP=1.90D-04 MaxDP=2.24D-02 DE=-2.14D-03 OVMax= 1.28D-02

 Cycle   3  Pass 0  IDiag  1:
 RMSU=  1.60D-04    CP:  9.91D-01  8.31D-01
 E= -385.043252260610     Delta-E=        0.000501432730 Rises=F Damp=F
 DIIS: error= 1.92D-03 at cycle   3 NSaved=   3.
 NSaved= 3 IEnMin= 2 EnMin= -385.043753693340     IErMin= 2 ErrMin= 1.27D-03
 ErrMax= 1.92D-03  0.00D+00 EMaxC= 1.00D-01 BMatC= 9.96D-04 BMatP= 3.89D-04
 IDIUse=3 WtCom= 1.86D-01 WtEn= 8.14D-01
 Coeff-Com: -0.160D-01 0.626D+00 0.390D+00
 Coeff-En:   0.000D+00 0.680D+00 0.320D+00
 Coeff:     -0.297D-02 0.670D+00 0.333D+00
 Gap=     0.188 Goal=   None    Shift=    0.000
 RMSDP=1.22D-04 MaxDP=1.47D-02 DE= 5.01D-04 OVMax= 8.33D-03

 Cycle   4  Pass 0  IDiag  1:
 RMSU=  2.84D-05    CP:  9.87D-01  9.66D-01  4.46D-01
 E= -385.044045357622     Delta-E=       -0.000793097012 Rises=F Damp=F
 DIIS: error= 2.63D-04 at cycle   4 NSaved=   4.
 NSaved= 4 IEnMin= 4 EnMin= -385.044045357622     IErMin= 4 ErrMin= 2.63D-04
 ErrMax= 2.63D-04  0.00D+00 EMaxC= 1.00D-01 BMatC= 1.99D-05 BMatP= 3.89D-04
 IDIUse=3 WtCom= 9.97D-01 WtEn= 2.63D-03
 Coeff-Com: -0.136D-01 0.287D+00 0.115D+00 0.611D+00
 Coeff-En:   0.000D+00 0.000D+00 0.000D+00 0.100D+01
 Coeff:     -0.136D-01 0.287D+00 0.115D+00 0.612D+00
 Gap=     0.188 Goal=   None    Shift=    0.000
 RMSDP=1.86D-05 MaxDP=1.43D-03 DE=-7.93D-04 OVMax= 1.70D-03

 Cycle   5  Pass 0  IDiag  1:
 RMSU=  1.34D-05    CP:  9.87D-01  9.83D-01  3.94D-01  1.04D+00
 E= -385.044061413642     Delta-E=       -0.000016056020 Rises=F Damp=F
 DIIS: error= 1.13D-04 at cycle   5 NSaved=   5.
 NSaved= 5 IEnMin= 5 EnMin= -385.044061413642     IErMin= 5 ErrMin= 1.13D-04
 ErrMax= 1.13D-04  0.00D+00 EMaxC= 1.00D-01 BMatC= 2.14D-06 BMatP= 1.99D-05
 IDIUse=3 WtCom= 9.99D-01 WtEn= 1.13D-03
 Coeff-Com: -0.567D-02 0.955D-01 0.267D-01 0.345D+00 0.539D+00
 Coeff-En:   0.000D+00 0.000D+00 0.000D+00 0.325D-01 0.967D+00
 Coeff:     -0.567D-02 0.954D-01 0.267D-01 0.345D+00 0.539D+00
 Gap=     0.189 Goal=   None    Shift=    0.000
 RMSDP=9.53D-06 MaxDP=8.23D-04 DE=-1.61D-05 OVMax= 7.38D-04

 Initial convergence to 1.0D-05 achieved.  Increase integral accuracy.
 Cycle   6  Pass 1  IDiag  1:
 E= -385.044044261029     Delta-E=        0.000017152613 Rises=F Damp=F
 DIIS: error= 1.62D-04 at cycle   1 NSaved=   1.
 NSaved= 1 IEnMin= 1 EnMin= -385.044044261029     IErMin= 1 ErrMin= 1.62D-04
 ErrMax= 1.62D-04  0.00D+00 EMaxC= 1.00D-01 BMatC= 3.16D-06 BMatP= 3.16D-06
 IDIUse=3 WtCom= 9.98D-01 WtEn= 1.62D-03
 Coeff-Com:  0.100D+01
 Coeff-En:   0.100D+01
 Coeff:      0.100D+01
 Gap=     0.188 Goal=   None    Shift=    0.000
 RMSDP=9.53D-06 MaxDP=8.23D-04 DE= 1.72D-05 OVMax= 6.79D-04

 Cycle   7  Pass 1  IDiag  1:
 RMSU=  1.49D-04    CP:  9.99D-01
 E= -385.044044585400     Delta-E=       -0.000000324372 Rises=F Damp=F
 DIIS: error= 1.05D-04 at cycle   2 NSaved=   2.
 NSaved= 2 IEnMin= 2 EnMin= -385.044044585400     IErMin= 2 ErrMin= 1.05D-04
 ErrMax= 1.05D-04  0.00D+00 EMaxC= 1.00D-01 BMatC= 1.01D-06 BMatP= 3.16D-06
 IDIUse=3 WtCom= 9.99D-01 WtEn= 1.05D-03
 Coeff-Com:  0.291D+00 0.709D+00
 Coeff-En:   0.400D+00 0.600D+00
 Coeff:      0.292D+00 0.708D+00
 Gap=     0.189 Goal=   None    Shift=    0.000
 RMSDP=1.21D-05 MaxDP=1.32D-03 DE=-3.24D-07 OVMax= 9.75D-04

 Cycle   8  Pass 1  IDiag  1:
 RMSU=  1.14D-05    CP:  9.99D-01  1.02D+00
 E= -385.044044198734     Delta-E=        0.000000386666 Rises=F Damp=F
 DIIS: error= 1.21D-04 at cycle   3 NSaved=   3.
 NSaved= 3 IEnMin= 2 EnMin= -385.044044585400     IErMin= 2 ErrMin= 1.05D-04
 ErrMax= 1.21D-04  0.00D+00 EMaxC= 1.00D-01 BMatC= 1.40D-06 BMatP= 1.01D-06
 IDIUse=3 WtCom= 4.76D-01 WtEn= 5.24D-01
 Coeff-Com:  0.280D-02 0.540D+00 0.457D+00
 Coeff-En:   0.000D+00 0.557D+00 0.443D+00
 Coeff:      0.133D-02 0.549D+00 0.450D+00
 Gap=     0.189 Goal=   None    Shift=    0.000
 RMSDP=5.64D-06 MaxDP=5.39D-04 DE= 3.87D-07 OVMax= 5.04D-04

 Cycle   9  Pass 1  IDiag  1:
 RMSU=  7.14D-07    CP:  9.99D-01  1.02D+00  5.29D-01
 E= -385.044045660079     Delta-E=       -0.000001461345 Rises=F Damp=F
 DIIS: error= 6.69D-06 at cycle   4 NSaved=   4.
 NSaved= 4 IEnMin= 4 EnMin= -385.044045660079     IErMin= 4 ErrMin= 6.69D-06
 ErrMax= 6.69D-06  0.00D+00 EMaxC= 1.00D-01 BMatC= 1.35D-08 BMatP= 1.01D-06
 IDIUse=1 WtCom= 1.00D+00 WtEn= 0.00D+00
 Coeff-Com: -0.174D-02 0.317D+00 0.262D+00 0.423D+00
 Coeff:     -0.174D-02 0.317D+00 0.262D+00 0.423D+00
 Gap=     0.189 Goal=   None    Shift=    0.000
 RMSDP=3.51D-07 MaxDP=1.19D-05 DE=-1.46D-06 OVMax= 3.37D-05

 Cycle  10  Pass 1  IDiag  1:
 RMSU=  2.71D-07    CP:  9.99D-01  1.02D+00  5.13D-01  8.36D-01
 E= -385.044045672346     Delta-E=       -0.000000012267 Rises=F Damp=F
 DIIS: error= 2.01D-06 at cycle   5 NSaved=   5.
 NSaved= 5 IEnMin= 5 EnMin= -385.044045672346     IErMin= 5 ErrMin= 2.01D-06
 ErrMax= 2.01D-06  0.00D+00 EMaxC= 1.00D-01 BMatC= 1.16D-09 BMatP= 1.35D-08
 IDIUse=1 WtCom= 1.00D+00 WtEn= 0.00D+00
 Coeff-Com: -0.135D-02 0.197D+00 0.162D+00 0.292D+00 0.350D+00
 Coeff:     -0.135D-02 0.197D+00 0.162D+00 0.292D+00 0.350D+00
 Gap=     0.189 Goal=   None    Shift=    0.000
 RMSDP=1.62D-07 MaxDP=1.83D-05 DE=-1.23D-08 OVMax= 9.28D-06

 Cycle  11  Pass 1  IDiag  1:
 RMSU=  9.04D-08    CP:  9.99D-01  1.02D+00  5.03D-01  8.22D-01  8.53D-01
 E= -385.044045673300     Delta-E=       -0.000000000954 Rises=F Damp=F
 DIIS: error= 7.24D-08 at cycle   6 NSaved=   6.
 NSaved= 6 IEnMin= 6 EnMin= -385.044045673300     IErMin= 6 ErrMin= 7.24D-08
 ErrMax= 7.24D-08  0.00D+00 EMaxC= 1.00D-01 BMatC= 2.07D-12 BMatP= 1.16D-09
 IDIUse=1 WtCom= 1.00D+00 WtEn= 0.00D+00
 Coeff-Com: -0.293D-03 0.410D-01 0.339D-01 0.633D-01 0.834D-01 0.779D+00
 Coeff:     -0.293D-03 0.410D-01 0.339D-01 0.633D-01 0.834D-01 0.779D+00
 Gap=     0.189 Goal=   None    Shift=    0.000
 RMSDP=1.48D-08 MaxDP=1.48D-06 DE=-9.54D-10 OVMax= 7.59D-07

 Cycle  12  Pass 1  IDiag  1:
 RMSU=  6.57D-09    CP:  9.99D-01  1.02D+00  5.03D-01  8.29D-01  8.71D-01
                    CP:  1.00D+00
 E= -385.044045673303     Delta-E=       -0.000000000003 Rises=F Damp=F
 DIIS: error= 8.64D-08 at cycle   7 NSaved=   7.
 NSaved= 7 IEnMin= 7 EnMin= -385.044045673303     IErMin= 6 ErrMin= 7.24D-08
 ErrMax= 8.64D-08  0.00D+00 EMaxC= 1.00D-01 BMatC= 1.43D-12 BMatP= 2.07D-12
 IDIUse=1 WtCom= 1.00D+00 WtEn= 0.00D+00
 Coeff-Com: -0.123D-04 0.724D-03 0.614D-03 0.250D-02 0.638D-02 0.464D+00
 Coeff-Com:  0.526D+00
 Coeff:     -0.123D-04 0.724D-03 0.614D-03 0.250D-02 0.638D-02 0.464D+00
 Coeff:      0.526D+00
 Gap=     0.189 Goal=   None    Shift=    0.000
 RMSDP=4.37D-09 MaxDP=2.51D-07 DE=-2.96D-12 OVMax= 5.36D-07

 SCF Done:  E(RB3LYP) =  -385.044045673     A.U. after   12 cycles
            NFock= 12  Conv=0.44D-08     -V/T= 2.0051
 KE= 3.830937327917D+02 PE=-1.699799934454D+03 EE= 5.296886017927D+02
 Leave Link  502 at Wed Feb  7 20:03:05 2024, MaxMem=  6710886400 cpu:             735.4 elap:              49.1
 (Enter /tmpu/scunam/7/gaussian-2016.03/g1/g16/l508.exe)
 QCSCF skips out because SCF is already converged.
 Leave Link  508 at Wed Feb  7 20:03:05 2024, MaxMem=  6710886400 cpu:               0.5 elap:               0.1
 (Enter /tmpu/scunam/7/gaussian-2016.03/g1/g16/l701.exe)
 ... and contract with generalized density number  0.
 Compute integral first derivatives.
   1 Symmetry operations used in ECPInt.
 ECPInt:  NShTT=    8646 NPrTT=   26328 LenC2=    8396 LenP2D=   20316.
 LDataN:  DoStor=T MaxTD1= 7 Len=  274
 Leave Link  701 at Wed Feb  7 20:03:06 2024, MaxMem=  6710886400 cpu:              12.9 elap:               0.9
 (Enter /tmpu/scunam/7/gaussian-2016.03/g1/g16/l702.exe)
 L702 exits ... SP integral derivatives will be done elsewhere.
 Leave Link  702 at Wed Feb  7 20:03:06 2024, MaxMem=  6710886400 cpu:               0.9 elap:               0.1
 (Enter /tmpu/scunam/7/gaussian-2016.03/g1/g16/l703.exe)
 Integral derivatives from FoFJK, PRISM(SPDF).
 Compute integral first derivatives, UseDBF=F ICtDFT=           0.
 Calling FoFJK, ICntrl=      2127 FMM=F ISym2X=0 I1Cent= 0 IOpClX= 0 NMat=1 NMatS=1 NMatT=0.
 FoFJK:  IHMeth= 1 ICntrl=    2127 DoSepK=F KAlg= 0 I1Cent=           0 FoldK=F
 IRaf=         0 NMat=       1 IRICut=       1 DoRegI=T DoRafI=F ISym2E= 0 IDoP0=0 IntGTp=1.
 FoFCou: FMM=F IPFlag=           0 FMFlag=      100000 FMFlg1=         800
         NFxFlg=           0 DoJE=F BraDBF=F KetDBF=F FulRan=T
         wScrn=  0.000000 ICntrl=      2127 IOpCl=  0 I1Cent=           0 NGrid=           0
         NMat0=    1 NMatS0=      1 NMatT0=    0 NMatD0=    1 NMtDS0=    0 NMtDT0=    0
 Symmetry not used in FoFCou.
 Leave Link  703 at Wed Feb  7 20:03:25 2024, MaxMem=  6710886400 cpu:             284.8 elap:              19.0
 (Enter /tmpu/scunam/7/gaussian-2016.03/g1/g16/l716.exe)
 Dipole        =-8.12420805D-01 9.79126668D-01 6.68376468D-05
 ***** Axes restored to original set *****
 -------------------------------------------------------------------
 Center     Atomic                   Forces (Hartrees/Bohr)
 Number     Number              X              Y              Z
 -------------------------------------------------------------------
      1        8          -0.006256724    0.010335890    0.000017706
      2        6          -0.005587956    0.003802134    0.000021219
      3        6          -0.002374466   -0.000673239    0.000006725
      4        6          -0.002588197   -0.001679916    0.000002569
      5        6           0.013891570   -0.011144509   -0.000065292
      6        6           0.000319052   -0.000402641   -0.000008703
      7        6           0.001437200    0.000221225   -0.000000407
      8        6          -0.000258421    0.000111384    0.000001228
      9        6           0.000344552   -0.002685128    0.000011844
     10        1           0.001447717    0.000240764    0.000001543
     11        1           0.001242936    0.001045534    0.000001790
     12        1          -0.000131192    0.000086260    0.000000650
     13        1           0.000066668   -0.000136789   -0.000002390
     14        1          -0.000088342   -0.000225632   -0.000000400
     15        1          -0.000677554    0.000709584    0.000861327
     16        1          -0.000121259   -0.000334474    0.000005045
     17        1          -0.000665588    0.000729555   -0.000854455
 -------------------------------------------------------------------
 Cartesian Forces:  Max     0.013891570 RMS     0.003262001
 Leave Link  716 at Wed Feb  7 20:03:25 2024, MaxMem=  6710886400 cpu:               0.9 elap:               0.1
 (Enter /tmpu/scunam/7/gaussian-2016.03/g1/g16/l103.exe)

 GradGradGradGradGradGradGradGradGradGradGradGradGradGradGradGradGradGrad
 Berny optimization.
 Search for a local minimum.
 Step number   2 out of a maximum of  102
 All quantities printed in internal units (Hartrees-Bohrs-Radians)
 Update second derivatives using D2CorN and points    1    2
 DE= -3.40D-03 DEPred=-2.99D-03 R= 1.14D+00
 TightC=F SS=  1.41D+00  RLast= 2.41D-01 DXNew= 5.0454D-01 7.2238D-01
 Trust test= 1.14D+00 RLast= 2.41D-01 DXMaxT set to 5.05D-01
 ITU=  1  0
     Eigenvalues ---    0.00180   0.00268   0.00665   0.00776   0.01646
     Eigenvalues ---    0.02505   0.02517   0.03624   0.04487   0.04543
     Eigenvalues ---    0.05659   0.06795   0.06939   0.07121   0.07680
     Eigenvalues ---    0.09673   0.09693   0.10734   0.11703   0.12860
     Eigenvalues ---    0.13385   0.14398   0.17489   0.17997   0.22544
     Eigenvalues ---    0.29085   0.30210   0.31445   0.33306   0.43500
     Eigenvalues ---    0.44752   0.51015   0.66280   0.68629   0.87245
     Eigenvalues ---    0.87266   0.91925   1.03988   1.12829   1.22622
     Eigenvalues ---    1.27556   1.48195   1.57991   1.61843   2.00444
 RFO step:  Lambda=-3.27303181D-04 EMin= 1.80161952D-03
 Quartic linear search produced a step of  0.29743.
 B after Tr=    -0.001647    0.002365    0.000021
         Rot=    1.000000    0.000008    0.000002    0.000018 Ang=   0.00 deg.
 Variable       Old X    -DE/DX   Delta X   Delta X   Delta X     New X
                                 (Linear)    (Quad)   (Total)
    X1        4.41729  -0.00626  -0.02522   0.00050  -0.02645   4.39084
    Y1       -2.22753   0.01034  -0.00863   0.00820   0.00177  -2.22577
    Z1        0.00014   0.00002  -0.00018   0.00084   0.00073   0.00087
    X2        0.52915  -0.00559  -0.00314  -0.01005  -0.01484   0.51431
    Y2       -0.05300   0.00380   0.00897   0.02217   0.03348  -0.01951
    Z2       -0.00021   0.00002   0.00011  -0.00014  -0.00001  -0.00022
    X3       -0.74729  -0.00237  -0.01807  -0.01103  -0.03066  -0.77795
    Y3        2.26294  -0.00067   0.00377   0.01797   0.02413   2.28707
    Z3       -0.00004   0.00001   0.00004   0.00025   0.00027   0.00023
    X4       -0.88229  -0.00259  -0.00432   0.00542  -0.00063  -0.88292
    Y4       -2.28631  -0.00168   0.00755   0.01410   0.02405  -2.26226
    Z4       -0.00030   0.00000   0.00002  -0.00007   0.00001  -0.00029
    X5        3.32777   0.01389   0.01264  -0.00166   0.00932   3.33709
    Y5       -0.18735  -0.01114   0.00138  -0.00352   0.00010  -0.18724
    Z5        0.00024  -0.00007   0.00024  -0.00085  -0.00058  -0.00034
    X6       -3.37111   0.00032  -0.01507  -0.01578  -0.03241  -3.40351
    Y6        2.34522  -0.00040  -0.00290   0.00255   0.00213   2.34735
    Z6        0.00029  -0.00001  -0.00003   0.00021   0.00016   0.00045
    X7       -3.50371   0.00144  -0.00061   0.00550   0.00317  -3.50054
    Y7       -2.20346   0.00022   0.00106  -0.00365  -0.00010  -2.20355
    Z7       -0.00004  -0.00000  -0.00001  -0.00011  -0.00008  -0.00012
    X8       -4.75275  -0.00026  -0.00733  -0.00720  -0.01618  -4.76894
    Y8        0.11225   0.00011  -0.00416  -0.00822  -0.00984   0.10241
    Z8        0.00030   0.00000  -0.00002   0.00001  -0.00001   0.00028
    X9        4.85258   0.00034   0.02230   0.01508   0.03581   4.88840
    Y9        2.24512  -0.00269  -0.00463  -0.02401  -0.02645   2.21866
    Z9        0.00009   0.00001  -0.00003  -0.00020  -0.00022  -0.00013
   X10        0.28487   0.00145  -0.01251  -0.01013  -0.02414   0.26073
   Y10        4.02335   0.00024  -0.00300   0.02524   0.02460   4.04795
   Z10       -0.00003   0.00000   0.00005   0.00045   0.00046   0.00043
   X11        0.09484   0.00124   0.01399   0.02764   0.03983   0.13467
   Y11       -4.08240   0.00105   0.02012   0.02356   0.04603  -4.03636
   Z11       -0.00047   0.00000   0.00003  -0.00017  -0.00006  -0.00053
   X12       -4.33340  -0.00013  -0.01688  -0.03043  -0.04881  -4.38221
   Y12        4.15009   0.00009  -0.00628  -0.00207  -0.00582   4.14427
   Z12        0.00048   0.00000  -0.00002   0.00038   0.00029   0.00078
   X13       -4.57845   0.00007   0.00584   0.01578   0.01983  -4.55862
   Y13       -3.94405  -0.00014  -0.00062  -0.01290  -0.01098  -3.95503
   Z13        0.00001  -0.00000  -0.00005  -0.00030  -0.00028  -0.00027
   X14       -6.79792  -0.00009  -0.00568  -0.01007  -0.01739  -6.81530
   Y14        0.17713  -0.00023  -0.00914  -0.02373  -0.03026   0.14687
   Z14        0.00059  -0.00000  -0.00005  -0.00004  -0.00010   0.00049
   X15        4.43725  -0.00068   0.01972   0.01875   0.03696   4.47421
   Y15        3.37976   0.00071   0.00792  -0.02099  -0.01090   3.36886
   Z15       -1.67347   0.00086   0.00952   0.00108   0.01058  -1.66288
   X16        6.84884  -0.00012   0.01447   0.01740   0.03029   6.87913
   Y16        1.75808  -0.00033  -0.01948  -0.03430  -0.05168   1.70640
   Z16       -0.00076   0.00001  -0.00006   0.00038   0.00034  -0.00042
   X17        4.43832  -0.00067   0.01987   0.01796   0.03630   4.47462
   Y17        3.37860   0.00073   0.00808  -0.02058  -0.01027   3.36833
   Z17        1.67468  -0.00085  -0.00955  -0.00194  -0.01150   1.66317
         Item               Value     Threshold  Converged?
 Maximum Force            0.013892     0.000450     NO 
 RMS     Force            0.003262     0.000300     NO 
 Maximum Displacement     0.051675     0.001800     NO 
 RMS     Displacement     0.021430     0.001200     NO 
 Predicted change in Energy=-3.174569D-04
 Lowest energy point so far.  Saving SCF results.
 GradGradGradGradGradGradGradGradGradGradGradGradGradGradGradGradGradGrad

 Leave Link  103 at Wed Feb  7 20:03:25 2024, MaxMem=  6710886400 cpu:               3.0 elap:               0.2
 (Enter /tmpu/scunam/7/gaussian-2016.03/g1/g16/l202.exe)
                          Input orientation:                          
 ---------------------------------------------------------------------
 Center     Atomic      Atomic             Coordinates (Angstroms)
 Number     Number       Type             X           Y           Z
 ---------------------------------------------------------------------
      1          8           0        2.323532   -1.177825    0.000461
      2          6           0        0.272161   -0.010326   -0.000116
      3          6           0       -0.411673    1.210267    0.000120
      4          6           0       -0.467223   -1.197134   -0.000152
      5          6           0        1.765913   -0.099085   -0.000180
      6          6           0       -1.801061    1.242166    0.000240
      7          6           0       -1.852408   -1.166069   -0.000065
      8          6           0       -2.523612    0.054193    0.000150
      9          6           0        2.586828    1.174066   -0.000071
     10          1           0        0.137974    2.142082    0.000226
     11          1           0        0.071265   -2.135952   -0.000279
     12          1           0       -2.318965    2.193053    0.000411
     13          1           0       -2.412317   -2.092911   -0.000143
     14          1           0       -3.606504    0.077718    0.000262
     15          1           0        2.367648    1.782726   -0.879959
     16          1           0        3.640277    0.902988   -0.000220
     17          1           0        2.367867    1.782442    0.880114
 ---------------------------------------------------------------------
                    Distance matrix (angstroms):
                    1          2          3          4          5
     1  O    0.000000
     2  C    2.360334   0.000000
     3  C    3.631023   1.399099   0.000000
     4  C    2.790822   1.398286   2.408042   0.000000
     5  C    1.214338   1.496387   2.540922   2.488495   0.000000
     6  C    4.782115   2.422186   1.389754   2.780163   3.810808
     7  C    4.175956   2.418581   2.778973   1.385533   3.772360
     8  C    5.001267   2.796517   2.407653   2.407188   4.292263
     9  C    2.366583   2.600090   2.998720   3.866500   1.514866
    10  H    3.974726   2.156587   1.081846   3.393616   2.770021
    11  H    2.447594   2.135099   3.380890   1.082289   2.649653
    12  H    5.737212   3.401296   2.145608   3.862942   4.684029
    13  H    4.823448   3.397585   3.861809   2.141450   4.629573
    14  H    6.061494   3.879664   3.389633   3.388263   5.375325
    15  H    3.089004   2.894862   2.971006   4.205963   2.162709
    16  H    2.462438   3.489749   4.063585   4.613250   2.125416
    17  H    3.088516   2.894962   2.971130   4.206005   2.162732
                    6          7          8          9         10
     6  C    0.000000
     7  C    2.408782   0.000000
     8  C    1.390453   1.392679   0.000000
     9  C    4.388418   5.018272   5.231703   0.000000
    10  H    2.137688   3.860762   3.382798   2.633238   0.000000
    11  H    3.862290   2.154342   3.395603   4.157437   4.278555
    12  H    1.082780   3.391368   2.148628   5.010504   2.457468
    13  H    3.390630   1.082837   2.149987   5.971985   4.943598
    14  H    2.148385   2.150316   1.083147   6.289621   4.275829
    15  H    4.294775   5.222880   5.261829   1.092112   2.423904
    16  H    5.451899   5.869462   6.222056   1.087767   3.715034
    17  H    4.294885   5.222944   5.261915   1.092150   2.424039
                   11         12         13         14         15
    11  H    0.000000
    12  H    4.945047   0.000000
    13  H    2.483955   4.286981   0.000000
    14  H    4.292589   2.476368   2.477441   0.000000
    15  H    4.626365   4.786206   6.216326   6.274737   0.000000
    16  H    4.687537   6.097281   6.753466   7.293620   1.779737
    17  H    4.626369   4.786322   6.216379   6.274817   1.760073
                   16         17
    16  H    0.000000
    17  H    1.779734   0.000000
 Stoichiometry    C8H8O
 Framework group  C1[X(C8H8O)]
 Deg. of freedom    45
 Full point group                 C1      NOp   1
 RotChk:  IX=0 Diff= 3.14D-03
 Largest Abelian subgroup         C1      NOp   1
 Largest concise Abelian subgroup C1      NOp   1
                         Standard orientation:                         
 ---------------------------------------------------------------------
 Center     Atomic      Atomic             Coordinates (Angstroms)
 Number     Number       Type             X           Y           Z
 ---------------------------------------------------------------------
      1          8           0        2.209678   -1.300764    0.000404
      2          6           0        0.203775   -0.056767   -0.000173
      3          6           0       -0.433562    1.188737    0.000063
      4          6           0       -0.579822   -1.214860   -0.000209
      5          6           0        1.693119   -0.201771   -0.000237
      6          6           0       -1.820761    1.272986    0.000182
      7          6           0       -1.962851   -1.131601   -0.000122
      8          6           0       -2.587579    0.113095    0.000093
      9          6           0        2.561443    1.039531   -0.000128
     10          1           0        0.150820    2.099170    0.000169
     11          1           0       -0.077106   -2.173309   -0.000336
     12          1           0       -2.302452    2.242721    0.000353
     13          1           0       -2.557300   -2.036678   -0.000200
     14          1           0       -3.668814    0.177424    0.000205
     15          1           0        2.365363    1.656020   -0.880016
     16          1           0        3.603925    0.728934   -0.000277
     17          1           0        2.365571    1.655728    0.880057
 ---------------------------------------------------------------------
 Rotational constants (GHZ):           3.7223665           1.2142343           0.9207825
 Leave Link  202 at Wed Feb  7 20:03:25 2024, MaxMem=  6710886400 cpu:               1.3 elap:               0.1
 (Enter /tmpu/scunam/7/gaussian-2016.03/g1/g16/l301.exe)
 Standard basis: def2TZVP (5D, 7F)
 Ernie: Thresh=  0.10000D-02 Tol=  0.10000D-05 Strict=F.
 There are   372 symmetry adapted cartesian basis functions of A   symmetry.
 There are   327 symmetry adapted basis functions of A   symmetry.
   327 basis functions,   523 primitive gaussians,   372 cartesian basis functions
    32 alpha electrons       32 beta electrons
       nuclear repulsion energy       401.8254150700 Hartrees.
 IExCor=  402 DFT=T Ex+Corr=B3LYP ExCW=0 ScaHFX=  0.200000
 ScaDFX=  0.800000  0.720000  1.000000  0.810000 ScalE2=  1.000000  1.000000
 IRadAn=      5 IRanWt=     -1 IRanGd=            0 ICorTp=0 IEmpDi=  4
 NAtoms=   17 NActive=   17 NUniq=   17 SFac= 1.00D+00 NAtFMM=   60 NAOKFM=F Big=F
 Integral buffers will be    131072 words long.
 Raffenetti 2 integral format.
 Two-electron integral symmetry is turned on.
 Leave Link  301 at Wed Feb  7 20:03:26 2024, MaxMem=  6710886400 cpu:               1.9 elap:               0.1
 (Enter /tmpu/scunam/7/gaussian-2016.03/g1/g16/l302.exe)
 NPDir=0 NMtPBC=     1 NCelOv=     1 NCel=       1 NClECP=     1 NCelD=      1
         NCelK=      1 NCelE2=     1 NClLst=     1 CellRange=     0.0.
 One-electron integrals computed using PRISM.
 One-electron integral symmetry used in STVInt
   1 Symmetry operations used in ECPInt.
 ECPInt:  NShTT=    8646 NPrTT=   26328 LenC2=    8394 LenP2D=   20301.
 LDataN:  DoStor=T MaxTD1= 6 Len=  172
 NBasis=   327 RedAO= T EigKep=  8.58D-06  NBF=   327
 NBsUse=   327 1.00D-06 EigRej= -1.00D+00 NBFU=   327
 Precomputing XC quadrature grid using
 IXCGrd= 4 IRadAn=           5 IRanWt=          -1 IRanGd=           0 AccXCQ= 0.00D+00.
 Generated NRdTot=       0 NPtTot=           0 NUsed=           0 NTot=          32
 NSgBfM=   371   371   371   371   371 MxSgAt=    17 MxSgA2=    17.
 Leave Link  302 at Wed Feb  7 20:03:27 2024, MaxMem=  6710886400 cpu:              17.9 elap:               1.2
 (Enter /tmpu/scunam/7/gaussian-2016.03/g1/g16/l303.exe)
 DipDrv:  MaxL=1.
 Leave Link  303 at Wed Feb  7 20:03:27 2024, MaxMem=  6710886400 cpu:               2.9 elap:               0.2
 (Enter /tmpu/scunam/7/gaussian-2016.03/g1/g16/l401.exe)
 Initial guess from the checkpoint file:  "Acetophenone.chk"
 B after Tr=     0.000000    0.000000   -0.000000
         Rot=    1.000000    0.000014    0.000003   -0.000838 Ang=   0.10 deg.
 Guess basis will be translated and rotated to current coordinates.
 JPrj=2 DoOrth=T DoCkMO=T.
 Generating alternative initial guess.
 ExpMin= 9.52D-02 ExpMax= 2.70D+04 ExpMxC= 9.22D+02 IAcc=2 IRadAn=         4 AccDes= 0.00D+00
 Harris functional with IExCor=  402 and IRadAn=       4 diagonalized for initial guess.
 HarFok:  IExCor=  402 AccDes= 0.00D+00 IRadAn=         4 IDoV= 1 UseB2=F ITyADJ=14
 ICtDFT=  3500011 ScaDFX=  1.000000  1.000000  1.000000  1.000000
 FoFCou: FMM=F IPFlag=           0 FMFlag=      100000 FMFlg1=           0
         NFxFlg=           0 DoJE=T BraDBF=F KetDBF=T FulRan=T
         wScrn=  0.000000 ICntrl=       500 IOpCl=  0 I1Cent=   200000004 NGrid=           0
         NMat0=    1 NMatS0=      1 NMatT0=    0 NMatD0=    1 NMtDS0=    0 NMtDT0=    0
 Petite list used in FoFCou.
 Harris En= -385.103713121117    
 Leave Link  401 at Wed Feb  7 20:03:29 2024, MaxMem=  6710886400 cpu:              36.9 elap:               2.5
 (Enter /tmpu/scunam/7/gaussian-2016.03/g1/g16/l502.exe)
 Integral symmetry usage will be decided dynamically.
 Closed shell SCF:
 Using DIIS extrapolation, IDIIS=  1040.
 NGot=  6710886400 LenX=  6710600291 LenY=  6710461466
 Requested convergence on RMS density matrix=1.00D-08 within 128 cycles.
 Requested convergence on MAX density matrix=1.00D-06.
 Requested convergence on             energy=1.00D-06.
 No special actions if energy rises.
 Fock matrices will be formed incrementally for  20 cycles.
 Integral accuracy reduced to 1.0D-05 until final iterations.

 Cycle   1  Pass 0  IDiag  1:
 FoFJK:  IHMeth= 1 ICntrl=       0 DoSepK=F KAlg= 0 I1Cent=           0 FoldK=F
 IRaf= 940000000 NMat=       1 IRICut=       1 DoRegI=T DoRafI=F ISym2E= 0 IDoP0=0 IntGTp=1.
 FoFCou: FMM=F IPFlag=           0 FMFlag=      100000 FMFlg1=           0
         NFxFlg=           0 DoJE=F BraDBF=F KetDBF=F FulRan=T
         wScrn=  0.000000 ICntrl=         0 IOpCl=  0 I1Cent=           0 NGrid=           0
         NMat0=    1 NMatS0=      1 NMatT0=    0 NMatD0=    1 NMtDS0=    0 NMtDT0=    0
 Symmetry not used in FoFCou.
 E= -385.043898090593    
 DIIS: error= 7.62D-04 at cycle   1 NSaved=   1.
 NSaved= 1 IEnMin= 1 EnMin= -385.043898090593     IErMin= 1 ErrMin= 7.62D-04
 ErrMax= 7.62D-04  0.00D+00 EMaxC= 1.00D-01 BMatC= 5.52D-04 BMatP= 5.52D-04
 IDIUse=3 WtCom= 9.92D-01 WtEn= 7.62D-03
 Coeff-Com:  0.100D+01
 Coeff-En:   0.100D+01
 Coeff:      0.100D+01
 Gap=     0.738 Goal=   None    Shift=    0.000
 RMSDP=2.38D-04 MaxDP=7.70D-03              OVMax= 5.96D-03

 Cycle   2  Pass 0  IDiag  1:
 RMSU=  2.36D-04    CP:  9.96D-01
 E= -385.044312241846     Delta-E=       -0.000414151253 Rises=F Damp=F
 DIIS: error= 6.80D-04 at cycle   2 NSaved=   2.
 NSaved= 2 IEnMin= 2 EnMin= -385.044312241846     IErMin= 2 ErrMin= 6.80D-04
 ErrMax= 6.80D-04  0.00D+00 EMaxC= 1.00D-01 BMatC= 9.82D-05 BMatP= 5.52D-04
 IDIUse=3 WtCom= 9.93D-01 WtEn= 6.80D-03
 Coeff-Com:  0.186D+00 0.814D+00
 Coeff-En:   0.000D+00 0.100D+01
 Coeff:      0.185D+00 0.815D+00
 Gap=     0.189 Goal=   None    Shift=    0.000
 RMSDP=1.19D-04 MaxDP=1.41D-02 DE=-4.14D-04 OVMax= 6.94D-03

 Cycle   3  Pass 0  IDiag  1:
 RMSU=  1.09D-04    CP:  1.00D+00  8.58D-01
 E= -385.044206134327     Delta-E=        0.000106107519 Rises=F Damp=F
 DIIS: error= 9.86D-04 at cycle   3 NSaved=   3.
 NSaved= 3 IEnMin= 2 EnMin= -385.044312241846     IErMin= 2 ErrMin= 6.80D-04
 ErrMax= 9.86D-04  0.00D+00 EMaxC= 1.00D-01 BMatC= 2.38D-04 BMatP= 9.82D-05
 IDIUse=3 WtCom= 2.42D-01 WtEn= 7.58D-01
 Coeff-Com: -0.105D-01 0.616D+00 0.395D+00
 Coeff-En:   0.000D+00 0.669D+00 0.331D+00
 Coeff:     -0.254D-02 0.656D+00 0.347D+00
 Gap=     0.191 Goal=   None    Shift=    0.000
 RMSDP=6.92D-05 MaxDP=8.37D-03 DE= 1.06D-04 OVMax= 4.25D-03

 Cycle   4  Pass 0  IDiag  1:
 RMSU=  2.09D-05    CP:  9.98D-01  9.62D-01  4.70D-01
 E= -385.044380472680     Delta-E=       -0.000174338353 Rises=F Damp=F
 DIIS: error= 1.06D-04 at cycle   4 NSaved=   4.
 NSaved= 4 IEnMin= 4 EnMin= -385.044380472680     IErMin= 4 ErrMin= 1.06D-04
 ErrMax= 1.06D-04  0.00D+00 EMaxC= 1.00D-01 BMatC= 3.75D-06 BMatP= 9.82D-05
 IDIUse=3 WtCom= 9.99D-01 WtEn= 1.06D-03
 Coeff-Com: -0.116D-01 0.263D+00 0.105D+00 0.644D+00
 Coeff-En:   0.000D+00 0.000D+00 0.000D+00 0.100D+01
 Coeff:     -0.116D-01 0.262D+00 0.105D+00 0.645D+00
 Gap=     0.191 Goal=   None    Shift=    0.000
 RMSDP=1.29D-05 MaxDP=1.39D-03 DE=-1.74D-04 OVMax= 5.10D-04

 Cycle   5  Pass 0  IDiag  1:
 RMSU=  5.89D-06    CP:  9.97D-01  9.80D-01  3.81D-01  1.14D+00
 E= -385.044383260973     Delta-E=       -0.000002788293 Rises=F Damp=F
 DIIS: error= 3.28D-05 at cycle   5 NSaved=   5.
 NSaved= 5 IEnMin= 5 EnMin= -385.044383260973     IErMin= 5 ErrMin= 3.28D-05
 ErrMax= 3.28D-05  0.00D+00 EMaxC= 1.00D-01 BMatC= 2.58D-07 BMatP= 3.75D-06
 IDIUse=1 WtCom= 1.00D+00 WtEn= 0.00D+00
 Coeff-Com: -0.447D-02 0.790D-01 0.207D-01 0.332D+00 0.573D+00
 Coeff:     -0.447D-02 0.790D-01 0.207D-01 0.332D+00 0.573D+00
 Gap=     0.191 Goal=   None    Shift=    0.000
 RMSDP=3.14D-06 MaxDP=9.45D-05 DE=-2.79D-06 OVMax= 2.52D-04

 Initial convergence to 1.0D-05 achieved.  Increase integral accuracy.
 Cycle   6  Pass 1  IDiag  1:
 E= -385.044364690276     Delta-E=        0.000018570698 Rises=F Damp=F
 DIIS: error= 1.61D-04 at cycle   1 NSaved=   1.
 NSaved= 1 IEnMin= 1 EnMin= -385.044364690276     IErMin= 1 ErrMin= 1.61D-04
 ErrMax= 1.61D-04  0.00D+00 EMaxC= 1.00D-01 BMatC= 2.96D-06 BMatP= 2.96D-06
 IDIUse=3 WtCom= 9.98D-01 WtEn= 1.61D-03
 Coeff-Com:  0.100D+01
 Coeff-En:   0.100D+01
 Coeff:      0.100D+01
 Gap=     0.191 Goal=   None    Shift=    0.000
 RMSDP=3.14D-06 MaxDP=9.45D-05 DE= 1.86D-05 OVMax= 2.49D-04

 Cycle   7  Pass 1  IDiag  1:
 RMSU=  1.57D-04    CP:  9.99D-01
 E= -385.044365754930     Delta-E=       -0.000001064655 Rises=F Damp=F
 DIIS: error= 3.25D-05 at cycle   2 NSaved=   2.
 NSaved= 2 IEnMin= 2 EnMin= -385.044365754930     IErMin= 2 ErrMin= 3.25D-05
 ErrMax= 3.25D-05  0.00D+00 EMaxC= 1.00D-01 BMatC= 1.19D-07 BMatP= 2.96D-06
 IDIUse=1 WtCom= 1.00D+00 WtEn= 0.00D+00
 Coeff-Com:  0.520D-01 0.948D+00
 Coeff:      0.520D-01 0.948D+00
 Gap=     0.191 Goal=   None    Shift=    0.000
 RMSDP=4.30D-06 MaxDP=3.66D-04 DE=-1.06D-06 OVMax= 4.66D-04

 Cycle   8  Pass 1  IDiag  1:
 RMSU=  3.24D-06    CP:  9.99D-01  1.02D+00
 E= -385.044365431470     Delta-E=        0.000000323460 Rises=F Damp=F
 DIIS: error= 5.98D-05 at cycle   3 NSaved=   3.
 NSaved= 3 IEnMin= 2 EnMin= -385.044365754930     IErMin= 2 ErrMin= 3.25D-05
 ErrMax= 5.98D-05  0.00D+00 EMaxC= 1.00D-01 BMatC= 4.04D-07 BMatP= 1.19D-07
 IDIUse=1 WtCom= 1.00D+00 WtEn= 0.00D+00
 Coeff-Com: -0.306D-02 0.650D+00 0.353D+00
 Coeff:     -0.306D-02 0.650D+00 0.353D+00
 Gap=     0.191 Goal=   None    Shift=    0.000
 RMSDP=2.02D-06 MaxDP=1.34D-04 DE= 3.23D-07 OVMax= 3.06D-04

 Cycle   9  Pass 1  IDiag  1:
 RMSU=  6.26D-07    CP:  9.99D-01  1.02D+00  4.21D-01
 E= -385.044365888480     Delta-E=       -0.000000457010 Rises=F Damp=F
 DIIS: error= 2.95D-06 at cycle   4 NSaved=   4.
 NSaved= 4 IEnMin= 4 EnMin= -385.044365888480     IErMin= 4 ErrMin= 2.95D-06
 ErrMax= 2.95D-06  0.00D+00 EMaxC= 1.00D-01 BMatC= 1.58D-09 BMatP= 1.19D-07
 IDIUse=1 WtCom= 1.00D+00 WtEn= 0.00D+00
 Coeff-Com: -0.216D-02 0.391D+00 0.216D+00 0.396D+00
 Coeff:     -0.216D-02 0.391D+00 0.216D+00 0.396D+00
 Gap=     0.191 Goal=   None    Shift=    0.000
 RMSDP=1.34D-07 MaxDP=1.41D-05 DE=-4.57D-07 OVMax= 1.19D-05

 Cycle  10  Pass 1  IDiag  1:
 RMSU=  1.07D-07    CP:  9.99D-01  1.02D+00  4.41D-01  9.87D-01
 E= -385.044365889748     Delta-E=       -0.000000001268 Rises=F Damp=F
 DIIS: error= 6.52D-07 at cycle   5 NSaved=   5.
 NSaved= 5 IEnMin= 5 EnMin= -385.044365889748     IErMin= 5 ErrMin= 6.52D-07
 ErrMax= 6.52D-07  0.00D+00 EMaxC= 1.00D-01 BMatC= 1.08D-10 BMatP= 1.58D-09
 IDIUse=1 WtCom= 1.00D+00 WtEn= 0.00D+00
 Coeff-Com: -0.118D-02 0.207D+00 0.115D+00 0.255D+00 0.424D+00
 Coeff:     -0.118D-02 0.207D+00 0.115D+00 0.255D+00 0.424D+00
 Gap=     0.191 Goal=   None    Shift=    0.000
 RMSDP=6.57D-08 MaxDP=7.09D-06 DE=-1.27D-09 OVMax= 3.23D-06

 Cycle  11  Pass 1  IDiag  1:
 RMSU=  4.45D-08    CP:  9.99D-01  1.02D+00  4.30D-01  9.98D-01  7.35D-01
 E= -385.044365889830     Delta-E=       -0.000000000082 Rises=F Damp=F
 DIIS: error= 9.28D-08 at cycle   6 NSaved=   6.
 NSaved= 6 IEnMin= 6 EnMin= -385.044365889830     IErMin= 6 ErrMin= 9.28D-08
 ErrMax= 9.28D-08  0.00D+00 EMaxC= 1.00D-01 BMatC= 3.03D-12 BMatP= 1.08D-10
 IDIUse=1 WtCom= 1.00D+00 WtEn= 0.00D+00
 Coeff-Com: -0.185D-03 0.308D-01 0.174D-01 0.515D-01 0.171D+00 0.730D+00
 Coeff:     -0.185D-03 0.308D-01 0.174D-01 0.515D-01 0.171D+00 0.730D+00
 Gap=     0.191 Goal=   None    Shift=    0.000
 RMSDP=1.82D-08 MaxDP=1.99D-06 DE=-8.24D-11 OVMax= 6.73D-07

 Cycle  12  Pass 1  IDiag  1:
 RMSU=  5.47D-09    CP:  9.99D-01  1.02D+00  4.33D-01  1.01D+00  7.84D-01
                    CP:  8.80D-01
 E= -385.044365889829     Delta-E=        0.000000000002 Rises=F Damp=F
 DIIS: error= 5.49D-08 at cycle   7 NSaved=   7.
 NSaved= 7 IEnMin= 6 EnMin= -385.044365889830     IErMin= 7 ErrMin= 5.49D-08
 ErrMax= 5.49D-08  0.00D+00 EMaxC= 1.00D-01 BMatC= 8.08D-13 BMatP= 3.03D-12
 IDIUse=1 WtCom= 1.00D+00 WtEn= 0.00D+00
 Coeff-Com: -0.291D-05-0.447D-03-0.116D-03 0.743D-02 0.608D-01 0.427D+00
 Coeff-Com:  0.505D+00
 Coeff:     -0.291D-05-0.447D-03-0.116D-03 0.743D-02 0.608D-01 0.427D+00
 Coeff:      0.505D+00
 Gap=     0.191 Goal=   None    Shift=    0.000
 RMSDP=3.34D-09 MaxDP=2.22D-07 DE= 1.59D-12 OVMax= 3.77D-07

 SCF Done:  E(RB3LYP) =  -385.044365890     A.U. after   12 cycles
            NFock= 12  Conv=0.33D-08     -V/T= 2.0051
 KE= 3.831070433862D+02 PE=-1.699517234493D+03 EE= 5.295404101474D+02
 Leave Link  502 at Wed Feb  7 20:04:16 2024, MaxMem=  6710886400 cpu:             697.0 elap:              46.2
 (Enter /tmpu/scunam/7/gaussian-2016.03/g1/g16/l508.exe)
 QCSCF skips out because SCF is already converged.
 Leave Link  508 at Wed Feb  7 20:04:16 2024, MaxMem=  6710886400 cpu:               0.5 elap:               0.1
 (Enter /tmpu/scunam/7/gaussian-2016.03/g1/g16/l701.exe)
 ... and contract with generalized density number  0.
 Compute integral first derivatives.
   1 Symmetry operations used in ECPInt.
 ECPInt:  NShTT=    8646 NPrTT=   26328 LenC2=    8394 LenP2D=   20301.
 LDataN:  DoStor=T MaxTD1= 7 Len=  274
 Leave Link  701 at Wed Feb  7 20:04:17 2024, MaxMem=  6710886400 cpu:              19.2 elap:               1.3
 (Enter /tmpu/scunam/7/gaussian-2016.03/g1/g16/l702.exe)
 L702 exits ... SP integral derivatives will be done elsewhere.
 Leave Link  702 at Wed Feb  7 20:04:17 2024, MaxMem=  6710886400 cpu:               0.8 elap:               0.1
 (Enter /tmpu/scunam/7/gaussian-2016.03/g1/g16/l703.exe)
 Integral derivatives from FoFJK, PRISM(SPDF).
 Compute integral first derivatives, UseDBF=F ICtDFT=           0.
 Calling FoFJK, ICntrl=      2127 FMM=F ISym2X=0 I1Cent= 0 IOpClX= 0 NMat=1 NMatS=1 NMatT=0.
 FoFJK:  IHMeth= 1 ICntrl=    2127 DoSepK=F KAlg= 0 I1Cent=           0 FoldK=F
 IRaf=         0 NMat=       1 IRICut=       1 DoRegI=T DoRafI=F ISym2E= 0 IDoP0=0 IntGTp=1.
 FoFCou: FMM=F IPFlag=           0 FMFlag=      100000 FMFlg1=         800
         NFxFlg=           0 DoJE=F BraDBF=F KetDBF=F FulRan=T
         wScrn=  0.000000 ICntrl=      2127 IOpCl=  0 I1Cent=           0 NGrid=           0
         NMat0=    1 NMatS0=      1 NMatT0=    0 NMatD0=    1 NMtDS0=    0 NMtDT0=    0
 Symmetry not used in FoFCou.
 Leave Link  703 at Wed Feb  7 20:04:36 2024, MaxMem=  6710886400 cpu:             285.2 elap:              19.1
 (Enter /tmpu/scunam/7/gaussian-2016.03/g1/g16/l716.exe)
 Dipole        =-7.64516500D-01 9.65663043D-01-2.79563105D-04
 ***** Axes restored to original set *****
 -------------------------------------------------------------------
 Center     Atomic                   Forces (Hartrees/Bohr)
 Number     Number              X              Y              Z
 -------------------------------------------------------------------
      1        8          -0.000733196   -0.001059232   -0.000036138
      2        6          -0.001983232    0.001487762   -0.000016537
      3        6           0.000932810   -0.000557684   -0.000007574
      4        6           0.000609692   -0.000896191   -0.000008024
      5        6           0.002157371   -0.000148226    0.000099223
      6        6           0.000044093   -0.000244983    0.000003853
      7        6          -0.000137799   -0.000187261    0.000004055
      8        6           0.000268721    0.000265507   -0.000001317
      9        6          -0.000458448    0.000224821   -0.000019458
     10        1          -0.000121669    0.000022012   -0.000002556
     11        1          -0.000274500    0.000307511   -0.000000353
     12        1           0.000091187   -0.000104615    0.000001097
     13        1          -0.000056923    0.000130450    0.000000988
     14        1           0.000209442    0.000087052   -0.000001610
     15        1          -0.000066761    0.000143836   -0.000159946
     16        1          -0.000409170    0.000409428   -0.000000068
     17        1          -0.000071616    0.000119814    0.000144364
 -------------------------------------------------------------------
 Cartesian Forces:  Max     0.002157371 RMS     0.000561373
 Leave Link  716 at Wed Feb  7 20:04:36 2024, MaxMem=  6710886400 cpu:               0.9 elap:               0.1
 (Enter /tmpu/scunam/7/gaussian-2016.03/g1/g16/l103.exe)

 GradGradGradGradGradGradGradGradGradGradGradGradGradGradGradGradGradGrad
 Berny optimization.
 Search for a local minimum.
 Step number   3 out of a maximum of  102
 All quantities printed in internal units (Hartrees-Bohrs-Radians)
 Update second derivatives using D2CorN and points    1    2    3
 DE= -3.20D-04 DEPred=-3.17D-04 R= 1.01D+00
 TightC=F SS=  1.41D+00  RLast= 1.53D-01 DXNew= 8.4853D-01 4.5912D-01
 Trust test= 1.01D+00 RLast= 1.53D-01 DXMaxT set to 5.05D-01
 ITU=  1  1  0
     Eigenvalues ---    0.00180   0.00268   0.00775   0.01174   0.01646
     Eigenvalues ---    0.02499   0.02517   0.03625   0.04484   0.04531
     Eigenvalues ---    0.05673   0.06778   0.06941   0.07120   0.07716
     Eigenvalues ---    0.09676   0.09703   0.10704   0.11696   0.12860
     Eigenvalues ---    0.13387   0.14412   0.17488   0.17999   0.22559
     Eigenvalues ---    0.29098   0.30209   0.31445   0.33283   0.43488
     Eigenvalues ---    0.44752   0.50975   0.66219   0.68627   0.87149
     Eigenvalues ---    0.87265   0.91950   1.03960   1.12768   1.22626
     Eigenvalues ---    1.27542   1.48198   1.58000   1.61843   2.00064
 RFO step:  Lambda=-3.74664247D-05 EMin= 1.80323667D-03
 Quartic linear search produced a step of -0.04281.
 B after Tr=    -0.000002   -0.000758    0.000053
         Rot=    1.000000   -0.000003    0.000003    0.000122 Ang=  -0.01 deg.
 Variable       Old X    -DE/DX   Delta X   Delta X   Delta X     New X
                                 (Linear)    (Quad)   (Total)
    X1        4.39084  -0.00073   0.00113  -0.00826  -0.00768   4.38316
    Y1       -2.22577  -0.00106  -0.00008  -0.00897  -0.01088  -2.23664
    Z1        0.00087  -0.00004  -0.00003  -0.00033  -0.00030   0.00058
    X2        0.51431  -0.00198   0.00064  -0.00030   0.00033   0.51464
    Y2       -0.01951   0.00149  -0.00143   0.00199  -0.00032  -0.01984
    Z2       -0.00022  -0.00002   0.00000   0.00046   0.00052   0.00030
    X3       -0.77795   0.00093   0.00131   0.00296   0.00483  -0.77312
    Y3        2.28707  -0.00056  -0.00103   0.00148  -0.00012   2.28695
    Z3        0.00023  -0.00001  -0.00001   0.00029   0.00034   0.00057
    X4       -0.88292   0.00061   0.00003   0.00220   0.00167  -0.88126
    Y4       -2.26226  -0.00090  -0.00103   0.00004  -0.00153  -2.26379
    Z4       -0.00029  -0.00001  -0.00000   0.00013   0.00017  -0.00012
    X5        3.33709   0.00216  -0.00040   0.00165   0.00121   3.33830
    Y5       -0.18724  -0.00015  -0.00000  -0.00270  -0.00428  -0.19152
    Z5       -0.00034   0.00010   0.00002   0.00081   0.00091   0.00057
    X6       -3.40351   0.00004   0.00139   0.00327   0.00523  -3.39828
    Y6        2.34735  -0.00024  -0.00009   0.00003   0.00001   2.34737
    Z6        0.00045   0.00000  -0.00001   0.00002   0.00006   0.00051
    X7       -3.50054  -0.00014  -0.00014   0.00234   0.00166  -3.49888
    Y7       -2.20355  -0.00019   0.00000  -0.00055  -0.00045  -2.20400
    Z7       -0.00012   0.00000   0.00000  -0.00016  -0.00013  -0.00026
    X8       -4.76894   0.00027   0.00069   0.00401   0.00472  -4.76421
    Y8        0.10241   0.00027   0.00042   0.00024   0.00106   0.10347
    Z8        0.00028  -0.00000   0.00000  -0.00025  -0.00022   0.00007
    X9        4.88840  -0.00046  -0.00153  -0.00423  -0.00522   4.88317
    Y9        2.21866   0.00022   0.00113   0.00187   0.00105   2.21971
    Z9       -0.00013  -0.00002   0.00001  -0.00023  -0.00013  -0.00026
   X10        0.26073  -0.00012   0.00103   0.00177   0.00379   0.26453
   Y10        4.04795   0.00002  -0.00105   0.00205   0.00018   4.04812
   Z10        0.00043  -0.00000  -0.00002   0.00040   0.00046   0.00088
   X11        0.13467  -0.00027  -0.00171   0.00340   0.00071   0.13538
   Y11       -4.03636   0.00031  -0.00197   0.00198  -0.00078  -4.03714
   Z11       -0.00053  -0.00000   0.00000   0.00016   0.00019  -0.00034
   X12       -4.38221   0.00009   0.00209   0.00207   0.00517  -4.37704
   Y12        4.14427  -0.00010   0.00025  -0.00093  -0.00037   4.14390
   Z12        0.00078   0.00000  -0.00001  -0.00002   0.00002   0.00079
   X13       -4.55862  -0.00006  -0.00085   0.00126  -0.00056  -4.55918
   Y13       -3.95503   0.00013   0.00047   0.00039   0.00122  -3.95381
   Z13       -0.00027   0.00000   0.00001  -0.00035  -0.00033  -0.00060
   X14       -6.81530   0.00021   0.00074   0.00450   0.00528  -6.81002
   Y14        0.14687   0.00009   0.00130   0.00113   0.00333   0.15020
   Z14        0.00049  -0.00000   0.00000  -0.00054  -0.00052  -0.00002
   X15        4.47421  -0.00007  -0.00158  -0.00816  -0.00891   4.46530
   Y15        3.36886   0.00014   0.00047   0.00146   0.00009   3.36895
   Z15       -1.66288  -0.00016  -0.00045  -0.00013  -0.00049  -1.66337
   X16        6.87913  -0.00041  -0.00130  -0.00328  -0.00416   6.87497
   Y16        1.70640   0.00041   0.00221   0.01142   0.01119   1.71759
   Z16       -0.00042  -0.00000  -0.00001  -0.00065  -0.00056  -0.00098
   X17        4.47462  -0.00007  -0.00155  -0.00733  -0.00807   4.46655
   Y17        3.36833   0.00012   0.00044   0.00202   0.00060   3.36893
   Z17        1.66317   0.00014   0.00049  -0.00057   0.00002   1.66319
         Item               Value     Threshold  Converged?
 Maximum Force            0.002157     0.000450     NO 
 RMS     Force            0.000561     0.000300     NO 
 Maximum Displacement     0.011193     0.001800     NO 
 RMS     Displacement     0.003654     0.001200     NO 
 Predicted change in Energy=-2.006639D-05
 Lowest energy point so far.  Saving SCF results.
 GradGradGradGradGradGradGradGradGradGradGradGradGradGradGradGradGradGrad

 Leave Link  103 at Wed Feb  7 20:04:37 2024, MaxMem=  6710886400 cpu:               3.3 elap:               0.2
 (Enter /tmpu/scunam/7/gaussian-2016.03/g1/g16/l202.exe)
                          Input orientation:                          
 ---------------------------------------------------------------------
 Center     Atomic      Atomic             Coordinates (Angstroms)
 Number     Number       Type             X           Y           Z
 ---------------------------------------------------------------------
      1          8           0        2.319469   -1.183580    0.000304
      2          6           0        0.272337   -0.010498    0.000158
      3          6           0       -0.409120    1.210201    0.000302
      4          6           0       -0.466341   -1.197946   -0.000063
      5          6           0        1.766551   -0.101350    0.000302
      6          6           0       -1.798293    1.242172    0.000271
      7          6           0       -1.851530   -1.166309   -0.000136
      8          6           0       -2.521112    0.054756    0.000035
      9          6           0        2.584064    1.174621   -0.000140
     10          1           0        0.139982    2.142175    0.000467
     11          1           0        0.071639   -2.136364   -0.000178
     12          1           0       -2.316231    2.192858    0.000420
     13          1           0       -2.412613   -2.092268   -0.000318
     14          1           0       -3.603708    0.079483   -0.000012
     15          1           0        2.362933    1.782773   -0.880217
     16          1           0        3.638077    0.908912   -0.000516
     17          1           0        2.363596    1.782762    0.880123
 ---------------------------------------------------------------------
                    Distance matrix (angstroms):
                    1          2          3          4          5
     1  O    0.000000
     2  C    2.359422   0.000000
     3  C    3.629792   1.398030   0.000000
     4  C    2.785848   1.398456   2.408827   0.000000
     5  C    1.215295   1.496973   2.540415   2.487635   0.000000
     6  C    4.779147   2.420060   1.389541   2.779977   3.809615
     7  C    4.171035   2.417997   2.779991   1.385550   3.771558
     8  C    4.996469   2.794211   2.407398   2.406522   4.290504
     9  C    2.372999   2.597804   2.993395   3.864459   1.515397
    10  H    3.976281   2.156738   1.081706   3.394708   2.771125
    11  H    2.441421   2.135319   3.380922   1.081689   2.648397
    12  H    5.734985   3.399333   2.145388   3.862596   4.683214
    13  H    4.818539   3.397458   3.862679   2.141911   4.629164
    14  H    6.056349   3.877090   3.388794   3.387462   5.373303
    15  H    3.094586   2.891621   2.964360   4.202874   2.163540
    16  H    2.473307   3.489057   4.058396   4.613577   2.126791
    17  H    3.094384   2.891968   2.964770   4.203319   2.163429
                    6          7          8          9         10
     6  C    0.000000
     7  C    2.409069   0.000000
     8  C    1.390117   1.392602   0.000000
     9  C    4.382877   5.015421   5.226559   0.000000
    10  H    2.137035   3.861630   3.382121   2.628630   0.000000
    11  H    3.861497   2.153970   3.394609   4.156308   4.279086
    12  H    1.082619   3.391158   2.147896   5.004967   2.456736
    13  H    3.390557   1.082688   2.149764   5.969869   4.944315
    14  H    2.147410   2.149913   1.082879   6.283936   4.274333
    15  H    4.287577   5.218556   5.254977   1.092376   2.417909
    16  H    5.446575   5.868758   6.218134   1.086989   3.709125
    17  H    4.288088   5.219115   5.255562   1.092384   2.418146
                   11         12         13         14         15
    11  H    0.000000
    12  H    4.944097   0.000000
    13  H    2.484643   4.286210   0.000000
    14  H    4.291638   2.474663   2.476935   0.000000
    15  H    4.624298   4.778940   6.212568   6.267118   0.000000
    16  H    4.689689   6.091166   6.754104   7.289129   1.778623
    17  H    4.624667   4.779418   6.213147   6.267736   1.760340
                   16         17
    16  H    0.000000
    17  H    1.778606   0.000000
 Stoichiometry    C8H8O
 Framework group  C1[X(C8H8O)]
 Deg. of freedom    45
 Full point group                 C1      NOp   1
 RotChk:  IX=2 Diff= 4.25D-04
 Largest Abelian subgroup         C1      NOp   1
 Largest concise Abelian subgroup C1      NOp   1
                         Standard orientation:                         
 ---------------------------------------------------------------------
 Center     Atomic      Atomic             Coordinates (Angstroms)
 Number     Number       Type             X           Y           Z
 ---------------------------------------------------------------------
      1          8           0        2.205673   -1.304875    0.000202
      2          6           0        0.203840   -0.056059    0.000055
      3          6           0       -0.431491    1.189269    0.000199
      4          6           0       -0.578726   -1.215054   -0.000166
      5          6           0        1.693611   -0.202725    0.000199
      6          6           0       -1.818498    1.273167    0.000168
      7          6           0       -1.961764   -1.131639   -0.000239
      8          6           0       -2.585215    0.113611   -0.000068
      9          6           0        2.558268    1.041782   -0.000243
     10          1           0        0.152078    2.100058    0.000365
     11          1           0       -0.076215   -2.172934   -0.000281
     12          1           0       -2.300522    2.242556    0.000317
     13          1           0       -2.557080   -2.035968   -0.000421
     14          1           0       -3.666129    0.178804   -0.000115
     15          1           0        2.360034    1.657779   -0.880320
     16          1           0        3.601607    0.736843   -0.000619
     17          1           0        2.360696    1.657742    0.880020
 ---------------------------------------------------------------------
 Rotational constants (GHZ):           3.7147097           1.2168158           0.9217970
 Leave Link  202 at Wed Feb  7 20:04:37 2024, MaxMem=  6710886400 cpu:               1.2 elap:               0.1
 (Enter /tmpu/scunam/7/gaussian-2016.03/g1/g16/l301.exe)
 Standard basis: def2TZVP (5D, 7F)
 Ernie: Thresh=  0.10000D-02 Tol=  0.10000D-05 Strict=F.
 There are   372 symmetry adapted cartesian basis functions of A   symmetry.
 There are   327 symmetry adapted basis functions of A   symmetry.
   327 basis functions,   523 primitive gaussians,   372 cartesian basis functions
    32 alpha electrons       32 beta electrons
       nuclear repulsion energy       401.8964242820 Hartrees.
 IExCor=  402 DFT=T Ex+Corr=B3LYP ExCW=0 ScaHFX=  0.200000
 ScaDFX=  0.800000  0.720000  1.000000  0.810000 ScalE2=  1.000000  1.000000
 IRadAn=      5 IRanWt=     -1 IRanGd=            0 ICorTp=0 IEmpDi=  4
 NAtoms=   17 NActive=   17 NUniq=   17 SFac= 1.00D+00 NAtFMM=   60 NAOKFM=F Big=F
 Integral buffers will be    131072 words long.
 Raffenetti 2 integral format.
 Two-electron integral symmetry is turned on.
 Leave Link  301 at Wed Feb  7 20:04:37 2024, MaxMem=  6710886400 cpu:               1.9 elap:               0.1
 (Enter /tmpu/scunam/7/gaussian-2016.03/g1/g16/l302.exe)
 NPDir=0 NMtPBC=     1 NCelOv=     1 NCel=       1 NClECP=     1 NCelD=      1
         NCelK=      1 NCelE2=     1 NClLst=     1 CellRange=     0.0.
 One-electron integrals computed using PRISM.
 One-electron integral symmetry used in STVInt
   1 Symmetry operations used in ECPInt.
 ECPInt:  NShTT=    8646 NPrTT=   26328 LenC2=    8395 LenP2D=   20305.
 LDataN:  DoStor=T MaxTD1= 6 Len=  172
 NBasis=   327 RedAO= T EigKep=  8.57D-06  NBF=   327
 NBsUse=   327 1.00D-06 EigRej= -1.00D+00 NBFU=   327
 Precomputing XC quadrature grid using
 IXCGrd= 4 IRadAn=           5 IRanWt=          -1 IRanGd=           0 AccXCQ= 0.00D+00.
 Generated NRdTot=       0 NPtTot=           0 NUsed=           0 NTot=          32
 NSgBfM=   371   371   371   371   371 MxSgAt=    17 MxSgA2=    17.
 Leave Link  302 at Wed Feb  7 20:04:39 2024, MaxMem=  6710886400 cpu:              27.9 elap:               1.9
 (Enter /tmpu/scunam/7/gaussian-2016.03/g1/g16/l303.exe)
 DipDrv:  MaxL=1.
 Leave Link  303 at Wed Feb  7 20:04:39 2024, MaxMem=  6710886400 cpu:               4.2 elap:               0.3
 (Enter /tmpu/scunam/7/gaussian-2016.03/g1/g16/l401.exe)
 Initial guess from the checkpoint file:  "Acetophenone.chk"
 B after Tr=    -0.000000   -0.000000    0.000000
         Rot=    1.000000   -0.000010    0.000005    0.000084 Ang=  -0.01 deg.
 Guess basis will be translated and rotated to current coordinates.
 JPrj=2 DoOrth=T DoCkMO=T.
 Leave Link  401 at Wed Feb  7 20:04:40 2024, MaxMem=  6710886400 cpu:              14.4 elap:               1.0
 (Enter /tmpu/scunam/7/gaussian-2016.03/g1/g16/l502.exe)
 Integral symmetry usage will be decided dynamically.
 Closed shell SCF:
 Using DIIS extrapolation, IDIIS=  1040.
 NGot=  6710886400 LenX=  6710600291 LenY=  6710461466
 Requested convergence on RMS density matrix=1.00D-08 within 128 cycles.
 Requested convergence on MAX density matrix=1.00D-06.
 Requested convergence on             energy=1.00D-06.
 No special actions if energy rises.
 Fock matrices will be formed incrementally for  20 cycles.

 Cycle   1  Pass 1  IDiag  1:
 FoFJK:  IHMeth= 1 ICntrl=       0 DoSepK=F KAlg= 0 I1Cent=           0 FoldK=F
 IRaf= 940000000 NMat=       1 IRICut=       1 DoRegI=T DoRafI=F ISym2E= 0 IDoP0=0 IntGTp=1.
 FoFCou: FMM=F IPFlag=           0 FMFlag=      100000 FMFlg1=           0
         NFxFlg=           0 DoJE=F BraDBF=F KetDBF=F FulRan=T
         wScrn=  0.000000 ICntrl=         0 IOpCl=  0 I1Cent=           0 NGrid=           0
         NMat0=    1 NMatS0=      1 NMatT0=    0 NMatD0=    1 NMtDS0=    0 NMtDT0=    0
 Symmetry not used in FoFCou.
 E= -385.044369886192    
 DIIS: error= 1.51D-04 at cycle   1 NSaved=   1.
 NSaved= 1 IEnMin= 1 EnMin= -385.044369886192     IErMin= 1 ErrMin= 1.51D-04
 ErrMax= 1.51D-04  0.00D+00 EMaxC= 1.00D-01 BMatC= 1.68D-05 BMatP= 1.68D-05
 IDIUse=3 WtCom= 9.98D-01 WtEn= 1.51D-03
 Coeff-Com:  0.100D+01
 Coeff-En:   0.100D+01
 Coeff:      0.100D+01
 Gap=     0.737 Goal=   None    Shift=    0.000
 RMSDP=3.37D-05 MaxDP=1.61D-03              OVMax= 1.44D-03

 Cycle   2  Pass 1  IDiag  1:
 RMSU=  3.34D-05    CP:  1.00D+00
 E= -385.044386245839     Delta-E=       -0.000016359648 Rises=F Damp=F
 DIIS: error= 6.00D-05 at cycle   2 NSaved=   2.
 NSaved= 2 IEnMin= 2 EnMin= -385.044386245839     IErMin= 2 ErrMin= 6.00D-05
 ErrMax= 6.00D-05  0.00D+00 EMaxC= 1.00D-01 BMatC= 8.97D-07 BMatP= 1.68D-05
 IDIUse=1 WtCom= 1.00D+00 WtEn= 0.00D+00
 Coeff-Com:  0.248D-01 0.975D+00
 Coeff:      0.248D-01 0.975D+00
 Gap=     0.191 Goal=   None    Shift=    0.000
 RMSDP=8.20D-06 MaxDP=8.86D-04 DE=-1.64D-05 OVMax= 6.93D-04

 Cycle   3  Pass 1  IDiag  1:
 RMSU=  7.63D-06    CP:  1.00D+00  9.33D-01
 E= -385.044384752571     Delta-E=        0.000001493268 Rises=F Damp=F
 DIIS: error= 1.03D-04 at cycle   3 NSaved=   3.
 NSaved= 3 IEnMin= 2 EnMin= -385.044386245839     IErMin= 2 ErrMin= 6.00D-05
 ErrMax= 1.03D-04  0.00D+00 EMaxC= 1.00D-01 BMatC= 2.93D-06 BMatP= 8.97D-07
 IDIUse=3 WtCom= 4.96D-01 WtEn= 5.04D-01
 Coeff-Com: -0.287D-01 0.669D+00 0.359D+00
 Coeff-En:   0.000D+00 0.721D+00 0.279D+00
 Coeff:     -0.142D-01 0.696D+00 0.319D+00
 Gap=     0.191 Goal=   None    Shift=    0.000
 RMSDP=6.67D-06 MaxDP=7.91D-04 DE= 1.49D-06 OVMax= 4.68D-04

 Cycle   4  Pass 1  IDiag  1:
 RMSU=  1.58D-06    CP:  1.00D+00  1.02D+00  2.87D-01
 E= -385.044386955967     Delta-E=       -0.000002203396 Rises=F Damp=F
 DIIS: error= 1.17D-05 at cycle   4 NSaved=   4.
 NSaved= 4 IEnMin= 4 EnMin= -385.044386955967     IErMin= 4 ErrMin= 1.17D-05
 ErrMax= 1.17D-05  0.00D+00 EMaxC= 1.00D-01 BMatC= 3.00D-08 BMatP= 8.97D-07
 IDIUse=1 WtCom= 1.00D+00 WtEn= 0.00D+00
 Coeff-Com: -0.141D-01 0.253D+00 0.109D+00 0.653D+00
 Coeff:     -0.141D-01 0.253D+00 0.109D+00 0.653D+00
 Gap=     0.191 Goal=   None    Shift=    0.000
 RMSDP=7.71D-07 MaxDP=4.41D-05 DE=-2.20D-06 OVMax= 1.06D-04

 Cycle   5  Pass 1  IDiag  1:
 RMSU=  5.91D-07    CP:  1.00D+00  1.02D+00  3.10D-01  7.19D-01
 E= -385.044386973575     Delta-E=       -0.000000017608 Rises=F Damp=F
 DIIS: error= 9.13D-06 at cycle   5 NSaved=   5.
 NSaved= 5 IEnMin= 5 EnMin= -385.044386973575     IErMin= 5 ErrMin= 9.13D-06
 ErrMax= 9.13D-06  0.00D+00 EMaxC= 1.00D-01 BMatC= 1.12D-08 BMatP= 3.00D-08
 IDIUse=1 WtCom= 1.00D+00 WtEn= 0.00D+00
 Coeff-Com: -0.466D-02 0.697D-01 0.194D-01 0.407D+00 0.509D+00
 Coeff:     -0.466D-02 0.697D-01 0.194D-01 0.407D+00 0.509D+00
 Gap=     0.191 Goal=   None    Shift=    0.000
 RMSDP=5.48D-07 MaxDP=5.69D-05 DE=-1.76D-08 OVMax= 5.46D-05

 Cycle   6  Pass 1  IDiag  1:
 RMSU=  2.86D-07    CP:  1.00D+00  1.03D+00  2.74D-01  8.37D-01  7.99D-01
 E= -385.044386984152     Delta-E=       -0.000000010577 Rises=F Damp=F
 DIIS: error= 2.60D-06 at cycle   6 NSaved=   6.
 NSaved= 6 IEnMin= 6 EnMin= -385.044386984152     IErMin= 6 ErrMin= 2.60D-06
 ErrMax= 2.60D-06  0.00D+00 EMaxC= 1.00D-01 BMatC= 6.19D-10 BMatP= 1.12D-08
 IDIUse=1 WtCom= 1.00D+00 WtEn= 0.00D+00
 Coeff-Com: -0.122D-02 0.127D-01-0.186D-03 0.160D+00 0.269D+00 0.560D+00
 Coeff:     -0.122D-02 0.127D-01-0.186D-03 0.160D+00 0.269D+00 0.560D+00
 Gap=     0.191 Goal=   None    Shift=    0.000
 RMSDP=9.20D-08 MaxDP=2.72D-06 DE=-1.06D-08 OVMax= 1.48D-05

 Cycle   7  Pass 1  IDiag  1:
 RMSU=  6.19D-08    CP:  1.00D+00  1.03D+00  2.73D-01  8.47D-01  8.07D-01
                    CP:  7.70D-01
 E= -385.044386984714     Delta-E=       -0.000000000561 Rises=F Damp=F
 DIIS: error= 7.87D-07 at cycle   7 NSaved=   7.
 NSaved= 7 IEnMin= 7 EnMin= -385.044386984714     IErMin= 7 ErrMin= 7.87D-07
 ErrMax= 7.87D-07  0.00D+00 EMaxC= 1.00D-01 BMatC= 1.19D-10 BMatP= 6.19D-10
 IDIUse=1 WtCom= 1.00D+00 WtEn= 0.00D+00
 Coeff-Com:  0.961D-05-0.463D-02-0.361D-02 0.295D-01 0.791D-01 0.345D+00
 Coeff-Com:  0.555D+00
 Coeff:      0.961D-05-0.463D-02-0.361D-02 0.295D-01 0.791D-01 0.345D+00
 Coeff:      0.555D+00
 Gap=     0.191 Goal=   None    Shift=    0.000
 RMSDP=3.13D-08 MaxDP=1.56D-06 DE=-5.61D-10 OVMax= 5.45D-06

 Cycle   8  Pass 1  IDiag  1:
 RMSU=  1.78D-08    CP:  1.00D+00  1.03D+00  2.74D-01  8.49D-01  8.07D-01
                    CP:  7.71D-01  6.95D-01
 E= -385.044386984836     Delta-E=       -0.000000000122 Rises=F Damp=F
 DIIS: error= 8.56D-08 at cycle   8 NSaved=   8.
 NSaved= 8 IEnMin= 8 EnMin= -385.044386984836     IErMin= 8 ErrMin= 8.56D-08
 ErrMax= 8.56D-08  0.00D+00 EMaxC= 1.00D-01 BMatC= 3.03D-12 BMatP= 1.19D-10
 IDIUse=1 WtCom= 1.00D+00 WtEn= 0.00D+00
 Coeff-Com:  0.489D-04-0.269D-02-0.163D-02 0.711D-02 0.258D-01 0.140D+00
 Coeff-Com:  0.256D+00 0.576D+00
 Coeff:      0.489D-04-0.269D-02-0.163D-02 0.711D-02 0.258D-01 0.140D+00
 Coeff:      0.256D+00 0.576D+00
 Gap=     0.191 Goal=   None    Shift=    0.000
 RMSDP=4.89D-09 MaxDP=1.65D-07 DE=-1.22D-10 OVMax= 7.26D-07

 SCF Done:  E(RB3LYP) =  -385.044386985     A.U. after    8 cycles
            NFock=  8  Conv=0.49D-08     -V/T= 2.0051
 KE= 3.831073949091D+02 PE=-1.699662019968D+03 EE= 5.296138137923D+02
 Leave Link  502 at Wed Feb  7 20:05:18 2024, MaxMem=  6710886400 cpu:             577.1 elap:              38.2
 (Enter /tmpu/scunam/7/gaussian-2016.03/g1/g16/l508.exe)
 QCSCF skips out because SCF is already converged.
 Leave Link  508 at Wed Feb  7 20:05:18 2024, MaxMem=  6710886400 cpu:               0.5 elap:               0.1
 (Enter /tmpu/scunam/7/gaussian-2016.03/g1/g16/l701.exe)
 ... and contract with generalized density number  0.
 Compute integral first derivatives.
   1 Symmetry operations used in ECPInt.
 ECPInt:  NShTT=    8646 NPrTT=   26328 LenC2=    8395 LenP2D=   20305.
 LDataN:  DoStor=T MaxTD1= 7 Len=  274
 Leave Link  701 at Wed Feb  7 20:05:19 2024, MaxMem=  6710886400 cpu:              13.0 elap:               0.9
 (Enter /tmpu/scunam/7/gaussian-2016.03/g1/g16/l702.exe)
 L702 exits ... SP integral derivatives will be done elsewhere.
 Leave Link  702 at Wed Feb  7 20:05:19 2024, MaxMem=  6710886400 cpu:               0.9 elap:               0.1
 (Enter /tmpu/scunam/7/gaussian-2016.03/g1/g16/l703.exe)
 Integral derivatives from FoFJK, PRISM(SPDF).
 Compute integral first derivatives, UseDBF=F ICtDFT=           0.
 Calling FoFJK, ICntrl=      2127 FMM=F ISym2X=0 I1Cent= 0 IOpClX= 0 NMat=1 NMatS=1 NMatT=0.
 FoFJK:  IHMeth= 1 ICntrl=    2127 DoSepK=F KAlg= 0 I1Cent=           0 FoldK=F
 IRaf=         0 NMat=       1 IRICut=       1 DoRegI=T DoRafI=F ISym2E= 0 IDoP0=0 IntGTp=1.
 FoFCou: FMM=F IPFlag=           0 FMFlag=      100000 FMFlg1=         800
         NFxFlg=           0 DoJE=F BraDBF=F KetDBF=F FulRan=T
         wScrn=  0.000000 ICntrl=      2127 IOpCl=  0 I1Cent=           0 NGrid=           0
         NMat0=    1 NMatS0=      1 NMatT0=    0 NMatD0=    1 NMtDS0=    0 NMtDT0=    0
 Symmetry not used in FoFCou.
 Leave Link  703 at Wed Feb  7 20:05:38 2024, MaxMem=  6710886400 cpu:             283.7 elap:              18.9
 (Enter /tmpu/scunam/7/gaussian-2016.03/g1/g16/l716.exe)
 Dipole        =-7.58351183D-01 9.70221526D-01-1.30880041D-04
 ***** Axes restored to original set *****
 -------------------------------------------------------------------
 Center     Atomic                   Forces (Hartrees/Bohr)
 Number     Number              X              Y              Z
 -------------------------------------------------------------------
      1        8          -0.000367861    0.001256654    0.000020739
      2        6          -0.000910607    0.000697098    0.000018706
      3        6           0.000339715   -0.000277246    0.000002597
      4        6          -0.000008719   -0.000344210    0.000001183
      5        6           0.001400438   -0.001267206   -0.000066352
      6        6          -0.000133673   -0.000075216   -0.000003317
      7        6           0.000073245   -0.000065570   -0.000001456
      8        6           0.000059343    0.000193935    0.000001290
      9        6          -0.000289667   -0.000266823    0.000026955
     10        1           0.000005359   -0.000007458    0.000001256
     11        1          -0.000034738    0.000050120    0.000000916
     12        1           0.000039014    0.000009057   -0.000000700
     13        1          -0.000070800    0.000027630   -0.000000350
     14        1           0.000005210    0.000065395    0.000000431
     15        1          -0.000131991   -0.000084539   -0.000025965
     16        1           0.000149748    0.000162979    0.000000919
     17        1          -0.000124015   -0.000074599    0.000023147
 -------------------------------------------------------------------
 Cartesian Forces:  Max     0.001400438 RMS     0.000377143
 Leave Link  716 at Wed Feb  7 20:05:38 2024, MaxMem=  6710886400 cpu:               0.9 elap:               0.1
 (Enter /tmpu/scunam/7/gaussian-2016.03/g1/g16/l103.exe)

 GradGradGradGradGradGradGradGradGradGradGradGradGradGradGradGradGradGrad
 Berny optimization.
 Search for a local minimum.
 Step number   4 out of a maximum of  102
 All quantities printed in internal units (Hartrees-Bohrs-Radians)
 Update second derivatives using D2CorN and points    1    2    3    4
 DE= -2.11D-05 DEPred=-2.01D-05 R= 1.05D+00
 TightC=F SS=  1.41D+00  RLast= 2.61D-02 DXNew= 8.4853D-01 7.8290D-02
 Trust test= 1.05D+00 RLast= 2.61D-02 DXMaxT set to 5.05D-01
 ITU=  1  1  1  0
     Eigenvalues ---    0.00180   0.00267   0.00774   0.00851   0.01646
     Eigenvalues ---    0.02338   0.02517   0.03625   0.04432   0.04485
     Eigenvalues ---    0.06026   0.06769   0.06939   0.07118   0.07869
     Eigenvalues ---    0.09677   0.09695   0.10750   0.11699   0.12859
     Eigenvalues ---    0.13464   0.14423   0.17487   0.18004   0.22690
     Eigenvalues ---    0.29104   0.30209   0.31445   0.33274   0.43467
     Eigenvalues ---    0.44751   0.50992   0.66182   0.68628   0.87154
     Eigenvalues ---    0.87260   0.91941   1.03942   1.12636   1.22590
     Eigenvalues ---    1.27472   1.48162   1.57973   1.61834   1.99535
 RFO step:  Lambda=-1.27670204D-05 EMin= 1.80018607D-03
 Quartic linear search produced a step of  0.07828.
 B after Tr=     0.000842   -0.000309    0.000197
         Rot=    1.000000    0.000020    0.000018   -0.000005 Ang=   0.00 deg.
 Variable       Old X    -DE/DX   Delta X   Delta X   Delta X     New X
                                 (Linear)    (Quad)   (Total)
    X1        4.38316  -0.00037  -0.00060   0.00711   0.00737   4.39053
    Y1       -2.23664   0.00126  -0.00085   0.00190   0.00079  -2.23585
    Z1        0.00058   0.00002  -0.00002   0.00136   0.00178   0.00235
    X2        0.51464  -0.00091   0.00003   0.00055   0.00142   0.51606
    Y2       -0.01984   0.00070  -0.00003  -0.00316  -0.00349  -0.02333
    Z2        0.00030   0.00002   0.00004   0.00075   0.00100   0.00130
    X3       -0.77312   0.00034   0.00038   0.00295   0.00415  -0.76898
    Y3        2.28695  -0.00028  -0.00001  -0.00237  -0.00269   2.28426
    Z3        0.00057   0.00000   0.00003   0.00125   0.00136   0.00193
    X4       -0.88126  -0.00001   0.00013  -0.00125  -0.00026  -0.88151
    Y4       -2.26379  -0.00034  -0.00012  -0.00214  -0.00258  -2.26637
    Z4       -0.00012   0.00000   0.00001   0.00023   0.00050   0.00038
    X5        3.33830   0.00140   0.00009   0.00146   0.00239   3.34069
    Y5       -0.19152  -0.00127  -0.00033  -0.00273  -0.00334  -0.19486
    Z5        0.00057  -0.00007   0.00007   0.00004   0.00043   0.00100
    X6       -3.39828  -0.00013   0.00041   0.00288   0.00411  -3.39417
    Y6        2.34737  -0.00008   0.00000   0.00081   0.00046   2.34783
    Z6        0.00051  -0.00000   0.00000   0.00048   0.00047   0.00098
    X7       -3.49888   0.00007   0.00013  -0.00141  -0.00041  -3.49930
    Y7       -2.20400  -0.00007  -0.00004   0.00099   0.00061  -2.20339
    Z7       -0.00026  -0.00000  -0.00001  -0.00067  -0.00052  -0.00078
    X8       -4.76421   0.00006   0.00037   0.00093   0.00215  -4.76207
    Y8        0.10347   0.00019   0.00008   0.00256   0.00229   0.10576
    Z8        0.00007   0.00000  -0.00002  -0.00067  -0.00066  -0.00059
    X9        4.88317  -0.00029  -0.00041  -0.00526  -0.00485   4.87832
    Y9        2.21971  -0.00027   0.00008   0.00002  -0.00016   2.21956
    Z9       -0.00026   0.00003  -0.00001  -0.00104  -0.00077  -0.00103
   X10        0.26453   0.00001   0.00030   0.00392   0.00501   0.26954
   Y10        4.04812  -0.00001   0.00001  -0.00316  -0.00345   4.04467
   Z10        0.00088   0.00000   0.00004   0.00206   0.00214   0.00303
   X11        0.13538  -0.00003   0.00006  -0.00263  -0.00169   0.13368
   Y11       -4.03714   0.00005  -0.00006  -0.00271  -0.00308  -4.04022
   Z11       -0.00034   0.00000   0.00001   0.00012   0.00050   0.00016
   X12       -4.37704   0.00004   0.00040   0.00472   0.00592  -4.37112
   Y12        4.14390   0.00001  -0.00003   0.00175   0.00137   4.14527
   Z12        0.00079  -0.00000   0.00000   0.00065   0.00053   0.00132
   X13       -4.55918  -0.00007  -0.00004  -0.00401  -0.00317  -4.56235
   Y13       -3.95381   0.00003   0.00010   0.00262   0.00236  -3.95146
   Z13       -0.00060  -0.00000  -0.00003  -0.00153  -0.00136  -0.00196
   X14       -6.81002   0.00001   0.00041   0.00103   0.00229  -6.80774
   Y14        0.15020   0.00007   0.00026   0.00545   0.00533   0.15553
   Z14       -0.00002   0.00000  -0.00004  -0.00156  -0.00165  -0.00168
   X15        4.46530  -0.00013  -0.00070  -0.01248  -0.01231   4.45298
   Y15        3.36895  -0.00008   0.00001  -0.00344  -0.00376   3.36520
   Z15       -1.66337  -0.00003  -0.00004  -0.00136  -0.00118  -1.66455
   X16        6.87497   0.00015  -0.00033  -0.00206  -0.00156   6.87341
   Y16        1.71759   0.00016   0.00088   0.01095   0.01159   1.72918
   Z16       -0.00098   0.00000  -0.00004  -0.00198  -0.00166  -0.00263
   X17        4.46655  -0.00012  -0.00063  -0.01066  -0.01054   4.45600
   Y17        3.36893  -0.00007   0.00005  -0.00210  -0.00225   3.36669
   Z17        1.66319   0.00002   0.00000  -0.00113  -0.00091   1.66228
         Item               Value     Threshold  Converged?
 Maximum Force            0.001400     0.000450     NO 
 RMS     Force            0.000377     0.000300     NO 
 Maximum Displacement     0.012313     0.001800     NO 
 RMS     Displacement     0.003822     0.001200     NO 
 Predicted change in Energy=-6.000504D-06
 Lowest energy point so far.  Saving SCF results.
 GradGradGradGradGradGradGradGradGradGradGradGradGradGradGradGradGradGrad

 Leave Link  103 at Wed Feb  7 20:05:39 2024, MaxMem=  6710886400 cpu:               3.5 elap:               0.3
 (Enter /tmpu/scunam/7/gaussian-2016.03/g1/g16/l202.exe)
                          Input orientation:                          
 ---------------------------------------------------------------------
 Center     Atomic      Atomic             Coordinates (Angstroms)
 Number     Number       Type             X           Y           Z
 ---------------------------------------------------------------------
      1          8           0        2.323370   -1.183163    0.001245
      2          6           0        0.273087   -0.012345    0.000688
      3          6           0       -0.406925    1.208777    0.001019
      4          6           0       -0.466476   -1.199313    0.000201
      5          6           0        1.767818   -0.103115    0.000530
      6          6           0       -1.796120    1.242418    0.000518
      7          6           0       -1.851748   -1.165986   -0.000413
      8          6           0       -2.519977    0.055967   -0.000314
      9          6           0        2.581497    1.174539   -0.000546
     10          1           0        0.142636    2.140347    0.001601
     11          1           0        0.070742   -2.137994    0.000086
     12          1           0       -2.313098    2.193582    0.000701
     13          1           0       -2.414291   -2.091021   -0.001040
     14          1           0       -3.602499    0.082305   -0.000887
     15          1           0        2.356417    1.780785   -0.880840
     16          1           0        3.637251    0.915043   -0.001394
     17          1           0        2.358016    1.781573    0.879641
 ---------------------------------------------------------------------
                    Distance matrix (angstroms):
                    1          2          3          4          5
     1  O    0.000000
     2  C    2.361032   0.000000
     3  C    3.629860   1.397696   0.000000
     4  C    2.789893   1.398516   2.408826   0.000000
     5  C    1.214554   1.497484   2.539797   2.488718   0.000000
     6  C    4.780547   2.419927   1.389602   2.780288   3.809476
     7  C    4.175153   2.417811   2.779750   1.385673   3.772393
     8  C    4.999345   2.793899   2.407064   2.406781   4.290745
     9  C    2.371790   2.595660   2.988619   3.863329   1.514753
    10  H    3.975087   2.156641   1.081592   3.394753   2.770260
    11  H    2.446637   2.135258   3.380686   1.081539   2.649678
    12  H    5.735786   3.399186   2.145539   3.862868   4.682808
    13  H    4.823862   3.397484   3.862406   2.142225   4.630530
    14  H    6.059483   3.876741   3.388308   3.387799   5.373517
    15  H    3.092597   2.886637   2.956507   4.198327   2.161561
    16  H    2.475632   3.489649   4.054830   4.616392   2.128716
    17  H    3.092319   2.887496   2.957191   4.199626   2.161764
                    6          7          8          9         10
     6  C    0.000000
     7  C    2.409046   0.000000
     8  C    1.389832   1.392731   0.000000
     9  C    4.378143   5.013154   5.222666   0.000000
    10  H    2.136598   3.861270   3.381442   2.623135   0.000000
    11  H    3.861652   2.154244   3.394892   4.156532   4.278945
    12  H    1.082580   3.391098   2.147603   4.999551   2.456311
    13  H    3.390273   1.082656   2.149587   5.968398   4.943921
    14  H    2.146827   2.150200   1.082842   6.279712   4.273356
    15  H    4.279042   5.212223   5.246860   1.092297   2.410148
    16  H    5.443225   5.870246   6.216869   1.087177   3.703203
    17  H    4.280233   5.213896   5.248510   1.092320   2.409893
                   11         12         13         14         15
    11  H    0.000000
    12  H    4.944213   0.000000
    13  H    2.485478   4.285798   0.000000
    14  H    4.292136   2.473873   2.476930   0.000000
    15  H    4.621382   4.769894   6.206818   6.258421   0.000000
    16  H    4.694786   6.086158   6.757039   7.287484   1.778615
    17  H    4.622580   4.770911   6.208663   6.260238   1.760482
                   16         17
    16  H    0.000000
    17  H    1.778634   0.000000
 Stoichiometry    C8H8O
 Framework group  C1[X(C8H8O)]
 Deg. of freedom    45
 Full point group                 C1      NOp   1
 RotChk:  IX=2 Diff= 5.21D-04
 Largest Abelian subgroup         C1      NOp   1
 Largest concise Abelian subgroup C1      NOp   1
                         Standard orientation:                         
 ---------------------------------------------------------------------
 Center     Atomic      Atomic             Coordinates (Angstroms)
 Number     Number       Type             X           Y           Z
 ---------------------------------------------------------------------
      1          8           0        2.209293   -1.303438    0.000965
      2          6           0        0.203768   -0.057507    0.000408
      3          6           0       -0.430563    1.187956    0.000739
      4          6           0       -0.579238   -1.216277   -0.000079
      5          6           0        1.694113   -0.203561    0.000250
      6          6           0       -1.817559    1.273012    0.000238
      7          6           0       -1.962326   -1.131680   -0.000693
      8          6           0       -2.584851    0.114178   -0.000594
      9          6           0        2.554543    1.043089   -0.000826
     10          1           0        0.153115    2.098539    0.001321
     11          1           0       -0.077145   -2.174206   -0.000194
     12          1           0       -2.298964    2.242667    0.000421
     13          1           0       -2.558735   -2.035251   -0.001320
     14          1           0       -3.665655    0.180581   -0.001167
     15          1           0        2.352065    1.657254   -0.881120
     16          1           0        3.599964    0.744679   -0.001674
     17          1           0        2.353692    1.657982    0.879361
 ---------------------------------------------------------------------
 Rotational constants (GHZ):           3.7151872           1.2170403           0.9219563
 Leave Link  202 at Wed Feb  7 20:05:39 2024, MaxMem=  6710886400 cpu:               1.3 elap:               0.1
 (Enter /tmpu/scunam/7/gaussian-2016.03/g1/g16/l301.exe)
 Standard basis: def2TZVP (5D, 7F)
 Ernie: Thresh=  0.10000D-02 Tol=  0.10000D-05 Strict=F.
 There are   372 symmetry adapted cartesian basis functions of A   symmetry.
 There are   327 symmetry adapted basis functions of A   symmetry.
   327 basis functions,   523 primitive gaussians,   372 cartesian basis functions
    32 alpha electrons       32 beta electrons
       nuclear repulsion energy       401.9340255981 Hartrees.
 IExCor=  402 DFT=T Ex+Corr=B3LYP ExCW=0 ScaHFX=  0.200000
 ScaDFX=  0.800000  0.720000  1.000000  0.810000 ScalE2=  1.000000  1.000000
 IRadAn=      5 IRanWt=     -1 IRanGd=            0 ICorTp=0 IEmpDi=  4
 NAtoms=   17 NActive=   17 NUniq=   17 SFac= 1.00D+00 NAtFMM=   60 NAOKFM=F Big=F
 Integral buffers will be    131072 words long.
 Raffenetti 2 integral format.
 Two-electron integral symmetry is turned on.
 Leave Link  301 at Wed Feb  7 20:05:39 2024, MaxMem=  6710886400 cpu:               1.9 elap:               0.1
 (Enter /tmpu/scunam/7/gaussian-2016.03/g1/g16/l302.exe)
 NPDir=0 NMtPBC=     1 NCelOv=     1 NCel=       1 NClECP=     1 NCelD=      1
         NCelK=      1 NCelE2=     1 NClLst=     1 CellRange=     0.0.
 One-electron integrals computed using PRISM.
 One-electron integral symmetry used in STVInt
   1 Symmetry operations used in ECPInt.
 ECPInt:  NShTT=    8646 NPrTT=   26328 LenC2=    8395 LenP2D=   20309.
 LDataN:  DoStor=T MaxTD1= 6 Len=  172
 NBasis=   327 RedAO= T EigKep=  8.56D-06  NBF=   327
 NBsUse=   327 1.00D-06 EigRej= -1.00D+00 NBFU=   327
 Precomputing XC quadrature grid using
 IXCGrd= 4 IRadAn=           5 IRanWt=          -1 IRanGd=           0 AccXCQ= 0.00D+00.
 Generated NRdTot=       0 NPtTot=           0 NUsed=           0 NTot=          32
 NSgBfM=   371   371   371   371   371 MxSgAt=    17 MxSgA2=    17.
 Leave Link  302 at Wed Feb  7 20:05:40 2024, MaxMem=  6710886400 cpu:              13.9 elap:               0.9
 (Enter /tmpu/scunam/7/gaussian-2016.03/g1/g16/l303.exe)
 DipDrv:  MaxL=1.
 Leave Link  303 at Wed Feb  7 20:05:40 2024, MaxMem=  6710886400 cpu:               2.8 elap:               0.2
 (Enter /tmpu/scunam/7/gaussian-2016.03/g1/g16/l401.exe)
 Initial guess from the checkpoint file:  "Acetophenone.chk"
 B after Tr=     0.000000   -0.000000   -0.000000
         Rot=    1.000000    0.000034    0.000031   -0.000177 Ang=   0.02 deg.
 Guess basis will be translated and rotated to current coordinates.
 JPrj=2 DoOrth=T DoCkMO=T.
 Leave Link  401 at Wed Feb  7 20:05:41 2024, MaxMem=  6710886400 cpu:              14.5 elap:               1.0
 (Enter /tmpu/scunam/7/gaussian-2016.03/g1/g16/l502.exe)
 Integral symmetry usage will be decided dynamically.
 Closed shell SCF:
 Using DIIS extrapolation, IDIIS=  1040.
 NGot=  6710886400 LenX=  6710600291 LenY=  6710461466
 Requested convergence on RMS density matrix=1.00D-08 within 128 cycles.
 Requested convergence on MAX density matrix=1.00D-06.
 Requested convergence on             energy=1.00D-06.
 No special actions if energy rises.
 Fock matrices will be formed incrementally for  20 cycles.

 Cycle   1  Pass 1  IDiag  1:
 FoFJK:  IHMeth= 1 ICntrl=       0 DoSepK=F KAlg= 0 I1Cent=           0 FoldK=F
 IRaf= 940000000 NMat=       1 IRICut=       1 DoRegI=T DoRafI=F ISym2E= 0 IDoP0=0 IntGTp=1.
 FoFCou: FMM=F IPFlag=           0 FMFlag=      100000 FMFlg1=           0
         NFxFlg=           0 DoJE=F BraDBF=F KetDBF=F FulRan=T
         wScrn=  0.000000 ICntrl=         0 IOpCl=  0 I1Cent=           0 NGrid=           0
         NMat0=    1 NMatS0=      1 NMatT0=    0 NMatD0=    1 NMtDS0=    0 NMtDT0=    0
 Symmetry not used in FoFCou.
 E= -385.044380986951    
 DIIS: error= 1.29D-04 at cycle   1 NSaved=   1.
 NSaved= 1 IEnMin= 1 EnMin= -385.044380986951     IErMin= 1 ErrMin= 1.29D-04
 ErrMax= 1.29D-04  0.00D+00 EMaxC= 1.00D-01 BMatC= 1.29D-05 BMatP= 1.29D-05
 IDIUse=3 WtCom= 9.99D-01 WtEn= 1.29D-03
 Coeff-Com:  0.100D+01
 Coeff-En:   0.100D+01
 Coeff:      0.100D+01
 Gap=     0.737 Goal=   None    Shift=    0.000
 RMSDP=1.97D-05 MaxDP=6.91D-04              OVMax= 9.07D-04

 Cycle   2  Pass 1  IDiag  1:
 RMSU=  1.96D-05    CP:  1.00D+00
 E= -385.044394160290     Delta-E=       -0.000013173339 Rises=F Damp=F
 DIIS: error= 2.51D-05 at cycle   2 NSaved=   2.
 NSaved= 2 IEnMin= 2 EnMin= -385.044394160290     IErMin= 2 ErrMin= 2.51D-05
 ErrMax= 2.51D-05  0.00D+00 EMaxC= 1.00D-01 BMatC= 2.24D-07 BMatP= 1.29D-05
 IDIUse=1 WtCom= 1.00D+00 WtEn= 0.00D+00
 Coeff-Com: -0.214D-01 0.102D+01
 Coeff:     -0.214D-01 0.102D+01
 Gap=     0.191 Goal=   None    Shift=    0.000
 RMSDP=5.43D-06 MaxDP=5.81D-04 DE=-1.32D-05 OVMax= 1.99D-04

 Cycle   3  Pass 1  IDiag  1:
 RMSU=  5.04D-06    CP:  1.00D+00  1.07D+00
 E= -385.044394096697     Delta-E=        0.000000063593 Rises=F Damp=F
 DIIS: error= 3.63D-05 at cycle   3 NSaved=   3.
 NSaved= 3 IEnMin= 2 EnMin= -385.044394160290     IErMin= 2 ErrMin= 2.51D-05
 ErrMax= 3.63D-05  0.00D+00 EMaxC= 1.00D-01 BMatC= 3.62D-07 BMatP= 2.24D-07
 IDIUse=1 WtCom= 1.00D+00 WtEn= 0.00D+00
 Coeff-Com: -0.262D-01 0.591D+00 0.435D+00
 Coeff:     -0.262D-01 0.591D+00 0.435D+00
 Gap=     0.192 Goal=   None    Shift=    0.000
 RMSDP=4.20D-06 MaxDP=4.78D-04 DE= 6.36D-08 OVMax= 2.08D-04

 Cycle   4  Pass 1  IDiag  1:
 RMSU=  1.30D-06    CP:  1.00D+00  1.05D+00  2.50D-01
 E= -385.044394329400     Delta-E=       -0.000000232704 Rises=F Damp=F
 DIIS: error= 1.64D-05 at cycle   4 NSaved=   4.
 NSaved= 4 IEnMin= 4 EnMin= -385.044394329400     IErMin= 4 ErrMin= 1.64D-05
 ErrMax= 1.64D-05  0.00D+00 EMaxC= 1.00D-01 BMatC= 4.82D-08 BMatP= 2.24D-07
 IDIUse=1 WtCom= 1.00D+00 WtEn= 0.00D+00
 Coeff-Com: -0.119D-01 0.210D+00 0.286D+00 0.516D+00
 Coeff:     -0.119D-01 0.210D+00 0.286D+00 0.516D+00
 Gap=     0.192 Goal=   None    Shift=    0.000
 RMSDP=1.20D-06 MaxDP=1.41D-04 DE=-2.33D-07 OVMax= 7.60D-05

 Cycle   5  Pass 1  IDiag  1:
 RMSU=  3.77D-07    CP:  1.00D+00  1.06D+00  4.38D-01  6.42D-01
 E= -385.044394365264     Delta-E=       -0.000000035864 Rises=F Damp=F
 DIIS: error= 2.53D-06 at cycle   5 NSaved=   5.
 NSaved= 5 IEnMin= 5 EnMin= -385.044394365264     IErMin= 5 ErrMin= 2.53D-06
 ErrMax= 2.53D-06  0.00D+00 EMaxC= 1.00D-01 BMatC= 2.66D-09 BMatP= 4.82D-08
 IDIUse=1 WtCom= 1.00D+00 WtEn= 0.00D+00
 Coeff-Com: -0.357D-02 0.531D-01 0.109D+00 0.277D+00 0.564D+00
 Coeff:     -0.357D-02 0.531D-01 0.109D+00 0.277D+00 0.564D+00
 Gap=     0.192 Goal=   None    Shift=    0.000
 RMSDP=1.53D-07 MaxDP=6.21D-06 DE=-3.59D-08 OVMax= 1.86D-05

 Cycle   6  Pass 1  IDiag  1:
 RMSU=  1.15D-07    CP:  1.00D+00  1.06D+00  4.52D-01  6.47D-01  8.39D-01
 E= -385.044394367444     Delta-E=       -0.000000002180 Rises=F Damp=F
 DIIS: error= 1.52D-06 at cycle   6 NSaved=   6.
 NSaved= 6 IEnMin= 6 EnMin= -385.044394367444     IErMin= 6 ErrMin= 1.52D-06
 ErrMax= 1.52D-06  0.00D+00 EMaxC= 1.00D-01 BMatC= 2.54D-10 BMatP= 2.66D-09
 IDIUse=1 WtCom= 1.00D+00 WtEn= 0.00D+00
 Coeff-Com: -0.649D-03 0.524D-02 0.271D-01 0.957D-01 0.296D+00 0.577D+00
 Coeff:     -0.649D-03 0.524D-02 0.271D-01 0.957D-01 0.296D+00 0.577D+00
 Gap=     0.192 Goal=   None    Shift=    0.000
 RMSDP=5.59D-08 MaxDP=1.79D-06 DE=-2.18D-09 OVMax= 9.65D-06

 Cycle   7  Pass 1  IDiag  1:
 RMSU=  4.06D-08    CP:  1.00D+00  1.06D+00  4.51D-01  6.59D-01  8.51D-01
                    CP:  7.06D-01
 E= -385.044394367661     Delta-E=       -0.000000000217 Rises=F Damp=F
 DIIS: error= 6.70D-07 at cycle   7 NSaved=   7.
 NSaved= 7 IEnMin= 7 EnMin= -385.044394367661     IErMin= 7 ErrMin= 6.70D-07
 ErrMax= 6.70D-07  0.00D+00 EMaxC= 1.00D-01 BMatC= 5.99D-11 BMatP= 2.54D-10
 IDIUse=1 WtCom= 1.00D+00 WtEn= 0.00D+00
 Coeff-Com:  0.619D-04-0.418D-02 0.195D-02 0.233D-01 0.112D+00 0.372D+00
 Coeff-Com:  0.495D+00
 Coeff:      0.619D-04-0.418D-02 0.195D-02 0.233D-01 0.112D+00 0.372D+00
 Coeff:      0.495D+00
 Gap=     0.192 Goal=   None    Shift=    0.000
 RMSDP=2.06D-08 MaxDP=8.26D-07 DE=-2.17D-10 OVMax= 3.66D-06

 Cycle   8  Pass 1  IDiag  1:
 RMSU=  1.38D-08    CP:  1.00D+00  1.06D+00  4.50D-01  6.62D-01  8.50D-01
                    CP:  7.55D-01  6.87D-01
 E= -385.044394367723     Delta-E=       -0.000000000062 Rises=F Damp=F
 DIIS: error= 1.30D-07 at cycle   8 NSaved=   8.
 NSaved= 8 IEnMin= 8 EnMin= -385.044394367723     IErMin= 8 ErrMin= 1.30D-07
 ErrMax= 1.30D-07  0.00D+00 EMaxC= 1.00D-01 BMatC= 2.39D-12 BMatP= 5.99D-11
 IDIUse=1 WtCom= 1.00D+00 WtEn= 0.00D+00
 Coeff-Com:  0.715D-04-0.244D-02-0.993D-03 0.440D-02 0.345D-01 0.146D+00
 Coeff-Com:  0.249D+00 0.569D+00
 Coeff:      0.715D-04-0.244D-02-0.993D-03 0.440D-02 0.345D-01 0.146D+00
 Coeff:      0.249D+00 0.569D+00
 Gap=     0.192 Goal=   None    Shift=    0.000
 RMSDP=7.04D-09 MaxDP=4.37D-07 DE=-6.15D-11 OVMax= 7.46D-07

 SCF Done:  E(RB3LYP) =  -385.044394368     A.U. after    8 cycles
            NFock=  8  Conv=0.70D-08     -V/T= 2.0050
 KE= 3.831114328303D+02 PE=-1.699738162369D+03 EE= 5.296483095724D+02
 Leave Link  502 at Wed Feb  7 20:06:18 2024, MaxMem=  6710886400 cpu:             562.7 elap:              37.3
 (Enter /tmpu/scunam/7/gaussian-2016.03/g1/g16/l508.exe)
 QCSCF skips out because SCF is already converged.
 Leave Link  508 at Wed Feb  7 20:06:18 2024, MaxMem=  6710886400 cpu:               0.5 elap:               0.1
 (Enter /tmpu/scunam/7/gaussian-2016.03/g1/g16/l701.exe)
 ... and contract with generalized density number  0.
 Compute integral first derivatives.
   1 Symmetry operations used in ECPInt.
 ECPInt:  NShTT=    8646 NPrTT=   26328 LenC2=    8395 LenP2D=   20309.
 LDataN:  DoStor=T MaxTD1= 7 Len=  274
 Leave Link  701 at Wed Feb  7 20:06:19 2024, MaxMem=  6710886400 cpu:              14.0 elap:               1.0
 (Enter /tmpu/scunam/7/gaussian-2016.03/g1/g16/l702.exe)
 L702 exits ... SP integral derivatives will be done elsewhere.
 Leave Link  702 at Wed Feb  7 20:06:20 2024, MaxMem=  6710886400 cpu:               0.9 elap:               0.1
 (Enter /tmpu/scunam/7/gaussian-2016.03/g1/g16/l703.exe)
 Integral derivatives from FoFJK, PRISM(SPDF).
 Compute integral first derivatives, UseDBF=F ICtDFT=           0.
 Calling FoFJK, ICntrl=      2127 FMM=F ISym2X=0 I1Cent= 0 IOpClX= 0 NMat=1 NMatS=1 NMatT=0.
 FoFJK:  IHMeth= 1 ICntrl=    2127 DoSepK=F KAlg= 0 I1Cent=           0 FoldK=F
 IRaf=         0 NMat=       1 IRICut=       1 DoRegI=T DoRafI=F ISym2E= 0 IDoP0=0 IntGTp=1.
 FoFCou: FMM=F IPFlag=           0 FMFlag=      100000 FMFlg1=         800
         NFxFlg=           0 DoJE=F BraDBF=F KetDBF=F FulRan=T
         wScrn=  0.000000 ICntrl=      2127 IOpCl=  0 I1Cent=           0 NGrid=           0
         NMat0=    1 NMatS0=      1 NMatT0=    0 NMatD0=    1 NMtDS0=    0 NMtDT0=    0
 Symmetry not used in FoFCou.
 Leave Link  703 at Wed Feb  7 20:06:38 2024, MaxMem=  6710886400 cpu:             285.0 elap:              19.0
 (Enter /tmpu/scunam/7/gaussian-2016.03/g1/g16/l716.exe)
 Dipole        =-7.61440926D-01 9.69126904D-01-8.74173637D-04
 ***** Axes restored to original set *****
 -------------------------------------------------------------------
 Center     Atomic                   Forces (Hartrees/Bohr)
 Number     Number              X              Y              Z
 -------------------------------------------------------------------
      1        8          -0.000348437    0.000158598   -0.000010912
      2        6          -0.000586291    0.000306729   -0.000003471
      3        6           0.000068193   -0.000065661   -0.000012168
      4        6          -0.000102779   -0.000119945   -0.000016183
      5        6           0.001077231   -0.000384815    0.000046545
      6        6           0.000004196   -0.000031757    0.000003866
      7        6           0.000092249   -0.000042538    0.000005002
      8        6           0.000007035    0.000026737    0.000002434
      9        6          -0.000102743    0.000082036   -0.000017291
     10        1           0.000049525    0.000004170   -0.000004040
     11        1           0.000000901   -0.000073625   -0.000001705
     12        1           0.000047012    0.000039942    0.000001295
     13        1          -0.000045062   -0.000014555    0.000003412
     14        1          -0.000024194   -0.000004388    0.000002123
     15        1          -0.000041583    0.000072448   -0.000019936
     16        1          -0.000045187   -0.000001722    0.000006397
     17        1          -0.000050066    0.000048345    0.000014633
 -------------------------------------------------------------------
 Cartesian Forces:  Max     0.001077231 RMS     0.000197452
 Leave Link  716 at Wed Feb  7 20:06:39 2024, MaxMem=  6710886400 cpu:               0.9 elap:               0.1
 (Enter /tmpu/scunam/7/gaussian-2016.03/g1/g16/l103.exe)

 GradGradGradGradGradGradGradGradGradGradGradGradGradGradGradGradGradGrad
 Berny optimization.
 Search for a local minimum.
 Step number   5 out of a maximum of  102
 All quantities printed in internal units (Hartrees-Bohrs-Radians)
 Update second derivatives using D2CorN and points    1    2    3    4    5

 DE= -7.38D-06 DEPred=-6.00D-06 R= 1.23D+00
 TightC=F SS=  1.41D+00  RLast= 2.73D-02 DXNew= 8.4853D-01 8.1889D-02
 Trust test= 1.23D+00 RLast= 2.73D-02 DXMaxT set to 5.05D-01
 ITU=  1  1  1  1  0
     Eigenvalues ---    0.00185   0.00277   0.00651   0.00777   0.01646
     Eigenvalues ---    0.02315   0.02517   0.03625   0.04319   0.04485
     Eigenvalues ---    0.06122   0.06753   0.06944   0.07116   0.07879
     Eigenvalues ---    0.09677   0.09697   0.10803   0.11699   0.12859
     Eigenvalues ---    0.13457   0.14414   0.17490   0.18007   0.22752
     Eigenvalues ---    0.29101   0.30209   0.31445   0.33260   0.43416
     Eigenvalues ---    0.44751   0.50993   0.66139   0.68630   0.87103
     Eigenvalues ---    0.87258   0.91931   1.03905   1.12502   1.22565
     Eigenvalues ---    1.27377   1.48141   1.57960   1.61827   1.98578
 RFO step:  Lambda=-3.15754032D-06 EMin= 1.84669990D-03
 Quartic linear search produced a step of  0.23014.
 B after Tr=     0.000091   -0.000239    0.000157
         Rot=    1.000000    0.000016    0.000019    0.000024 Ang=   0.00 deg.
 Variable       Old X    -DE/DX   Delta X   Delta X   Delta X     New X
                                 (Linear)    (Quad)   (Total)
    X1        4.39053  -0.00035   0.00170  -0.00099   0.00070   4.39123
    Y1       -2.23585   0.00016   0.00018  -0.00205  -0.00231  -2.23816
    Z1        0.00235  -0.00001   0.00041   0.00119   0.00200   0.00435
    X2        0.51606  -0.00059   0.00033   0.00008   0.00049   0.51655
    Y2       -0.02333   0.00031  -0.00080  -0.00038  -0.00145  -0.02478
    Z2        0.00130  -0.00000   0.00023   0.00031   0.00072   0.00202
    X3       -0.76898   0.00007   0.00095   0.00098   0.00213  -0.76685
    Y3        2.28426  -0.00007  -0.00062  -0.00021  -0.00103   2.28322
    Z3        0.00193  -0.00001   0.00031   0.00049   0.00086   0.00278
    X4       -0.88151  -0.00010  -0.00006  -0.00019  -0.00026  -0.88178
    Y4       -2.26637  -0.00012  -0.00059  -0.00062  -0.00141  -2.26779
    Z4        0.00038  -0.00002   0.00011  -0.00048  -0.00017   0.00021
    X5        3.34069   0.00108   0.00055   0.00147   0.00210   3.34280
    Y5       -0.19486  -0.00038  -0.00077  -0.00079  -0.00195  -0.19681
    Z5        0.00100   0.00005   0.00010   0.00087   0.00126   0.00226
    X6       -3.39417   0.00000   0.00095   0.00103   0.00217  -3.39200
    Y6        2.34783  -0.00003   0.00011   0.00021   0.00024   2.34807
    Z6        0.00098   0.00000   0.00011   0.00048   0.00054   0.00152
    X7       -3.49930   0.00009  -0.00009  -0.00005  -0.00016  -3.49946
    Y7       -2.20339  -0.00004   0.00014  -0.00013  -0.00007  -2.20346
    Z7       -0.00078   0.00001  -0.00012  -0.00059  -0.00061  -0.00139
    X8       -4.76207   0.00001   0.00049   0.00052   0.00111  -4.76095
    Y8        0.10576   0.00003   0.00053   0.00032   0.00084   0.10660
    Z8       -0.00059   0.00000  -0.00015  -0.00009  -0.00026  -0.00086
    X9        4.87832  -0.00010  -0.00112  -0.00123  -0.00215   4.87618
    Y9        2.21956   0.00008  -0.00004   0.00137   0.00087   2.22043
    Z9       -0.00103  -0.00002  -0.00018  -0.00085  -0.00076  -0.00179
   X10        0.26954   0.00005   0.00115   0.00186   0.00330   0.27284
   Y10        4.04467   0.00000  -0.00080  -0.00063  -0.00168   4.04299
   Z10        0.00303  -0.00000   0.00049   0.00092   0.00145   0.00447
   X11        0.13368   0.00000  -0.00039  -0.00036  -0.00085   0.13283
   Y11       -4.04022  -0.00007  -0.00071  -0.00101  -0.00196  -4.04218
   Z11        0.00016  -0.00000   0.00011  -0.00085  -0.00044  -0.00028
   X12       -4.37112   0.00005   0.00136   0.00197   0.00362  -4.36751
   Y12        4.14527   0.00004   0.00031   0.00078   0.00106   4.14633
   Z12        0.00132   0.00000   0.00012   0.00091   0.00089   0.00222
   X13       -4.56235  -0.00005  -0.00073  -0.00080  -0.00162  -4.56397
   Y13       -3.95146  -0.00001   0.00054   0.00019   0.00071  -3.95075
   Z13       -0.00196   0.00000  -0.00031  -0.00106  -0.00126  -0.00322
   X14       -6.80774  -0.00002   0.00053   0.00043   0.00106  -6.80668
   Y14        0.15553  -0.00000   0.00123   0.00052   0.00183   0.15737
   Z14       -0.00168   0.00000  -0.00038  -0.00019  -0.00067  -0.00235
   X15        4.45298  -0.00004  -0.00283  -0.00288  -0.00540   4.44759
   Y15        3.36520   0.00007  -0.00086   0.00055  -0.00082   3.36438
   Z15       -1.66455  -0.00002  -0.00027  -0.00124  -0.00129  -1.66584
   X16        6.87341  -0.00005  -0.00036  -0.00086  -0.00104   6.87237
   Y16        1.72918  -0.00000   0.00267   0.00361   0.00571   1.73489
   Z16       -0.00263   0.00001  -0.00038  -0.00051  -0.00054  -0.00317
   X17        4.45600  -0.00005  -0.00243  -0.00296  -0.00520   4.45081
   Y17        3.36669   0.00005  -0.00052   0.00234   0.00142   3.36811
   Z17        1.66228   0.00001  -0.00021  -0.00172  -0.00171   1.66057
         Item               Value     Threshold  Converged?
 Maximum Force            0.001077     0.000450     NO 
 RMS     Force            0.000197     0.000300     YES
 Maximum Displacement     0.005714     0.001800     NO 
 RMS     Displacement     0.001915     0.001200     NO 
 Predicted change in Energy=-1.645229D-06
 Lowest energy point so far.  Saving SCF results.
 GradGradGradGradGradGradGradGradGradGradGradGradGradGradGradGradGradGrad

 Leave Link  103 at Wed Feb  7 20:06:39 2024, MaxMem=  6710886400 cpu:               3.5 elap:               0.3
 (Enter /tmpu/scunam/7/gaussian-2016.03/g1/g16/l202.exe)
                          Input orientation:                          
 ---------------------------------------------------------------------
 Center     Atomic      Atomic             Coordinates (Angstroms)
 Number     Number       Type             X           Y           Z
 ---------------------------------------------------------------------
      1          8           0        2.323738   -1.184385    0.002302
      2          6           0        0.273348   -0.013112    0.001067
      3          6           0       -0.405798    1.208229    0.001473
      4          6           0       -0.466616   -1.200061    0.000113
      5          6           0        1.768931   -0.104148    0.001197
      6          6           0       -1.794969    1.242544    0.000805
      7          6           0       -1.851833   -1.166021   -0.000735
      8          6           0       -2.519387    0.056410   -0.000453
      9          6           0        2.580361    1.174999   -0.000947
     10          1           0        0.144381    2.139457    0.002367
     11          1           0        0.070290   -2.139032   -0.000149
     12          1           0       -2.311184    2.194143    0.001173
     13          1           0       -2.415151   -2.090644   -0.001705
     14          1           0       -3.601938    0.083275   -0.001244
     15          1           0        2.353562    1.780352   -0.881524
     16          1           0        3.636699    0.918066   -0.001677
     17          1           0        2.355266    1.782327    0.878737
 ---------------------------------------------------------------------
                    Distance matrix (angstroms):
                    1          2          3          4          5
     1  O    0.000000
     2  C    2.361352   0.000000
     3  C    3.629735   1.397467   0.000000
     4  C    2.790399   1.398712   2.409058   0.000000
     5  C    1.214383   1.498351   2.540036   2.489718   0.000000
     6  C    4.780558   2.419629   1.389595   2.780439   3.809851
     7  C    4.175612   2.417766   2.779944   1.385635   3.773262
     8  C    4.999545   2.793601   2.407062   2.406780   4.291323
     9  C    2.373302   2.594981   2.986346   3.863286   1.514807
    10  H    3.974610   2.156430   1.081612   3.394953   2.770005
    11  H    2.447322   2.135596   3.380949   1.081635   2.650686
    12  H    5.735587   3.398791   2.145349   3.863037   4.682892
    13  H    4.824768   3.397672   3.862651   2.142412   4.631708
    14  H    6.059754   3.876485   3.388339   3.387802   5.374139
    15  H    3.093817   2.884922   2.953147   4.196850   2.161558
    16  H    2.478747   3.489876   4.052899   4.617755   2.129199
    17  H    3.093625   2.885877   2.953415   4.198766   2.161632
                    6          7          8          9         10
     6  C    0.000000
     7  C    2.409237   0.000000
     8  C    1.389855   1.392828   0.000000
     9  C    4.375852   5.012457   5.220984   0.000000
    10  H    2.136711   3.861485   3.381531   2.619960   0.000000
    11  H    3.861897   2.154369   3.395055   4.157314   4.279131
    12  H    1.082598   3.391417   2.147848   4.996586   2.456174
    13  H    3.390395   1.082708   2.149584   5.968213   4.944186
    14  H    2.146869   2.150259   1.082885   6.277953   4.273500
    15  H    4.275284   5.209822   5.243462   1.092386   2.406387
    16  H    5.441352   5.870895   6.216096   1.087136   3.699743
    17  H    4.276281   5.212092   5.245380   1.092410   2.404908
                   11         12         13         14         15
    11  H    0.000000
    12  H    4.944474   0.000000
    13  H    2.485913   4.286049   0.000000
    14  H    4.292309   2.474230   2.476770   0.000000
    15  H    4.620792   4.765525   6.204782   6.254834   0.000000
    16  H    4.697353   6.083231   6.758493   7.286614   1.778795
    17  H    4.622835   4.766075   6.207412   6.256950   1.760263
                   16         17
    16  H    0.000000
    17  H    1.778805   0.000000
 Stoichiometry    C8H8O
 Framework group  C1[X(C8H8O)]
 Deg. of freedom    45
 Full point group                 C1      NOp   1
 RotChk:  IX=2 Diff= 1.32D-04
 Largest Abelian subgroup         C1      NOp   1
 Largest concise Abelian subgroup C1      NOp   1
                         Standard orientation:                         
 ---------------------------------------------------------------------
 Center     Atomic      Atomic             Coordinates (Angstroms)
 Number     Number       Type             X           Y           Z
 ---------------------------------------------------------------------
      1          8           0        2.209483   -1.304160    0.001841
      2          6           0        0.203751   -0.057957    0.000606
      3          6           0       -0.429822    1.187635    0.001011
      4          6           0       -0.579546   -1.216766   -0.000348
      5          6           0        1.694952   -0.204169    0.000736
      6          6           0       -1.816777    1.273234    0.000344
      7          6           0       -1.962561   -1.131588   -0.001196
      8          6           0       -2.584510    0.114666   -0.000914
      9          6           0        2.553073    1.044136   -0.001409
     10          1           0        0.154376    2.097907    0.001906
     11          1           0       -0.077686   -2.174926   -0.000610
     12          1           0       -2.297494    2.243250    0.000712
     13          1           0       -2.559645   -2.034774   -0.002167
     14          1           0       -3.665330    0.181496   -0.001705
     15          1           0        2.348786    1.657453   -0.881985
     16          1           0        3.599201    0.748364   -0.002138
     17          1           0        2.350563    1.659363    0.878276
 ---------------------------------------------------------------------
 Rotational constants (GHZ):           3.7129663           1.2174198           0.9220362
 Leave Link  202 at Wed Feb  7 20:06:39 2024, MaxMem=  6710886400 cpu:               1.3 elap:               0.1
 (Enter /tmpu/scunam/7/gaussian-2016.03/g1/g16/l301.exe)
 Standard basis: def2TZVP (5D, 7F)
 Ernie: Thresh=  0.10000D-02 Tol=  0.10000D-05 Strict=F.
 There are   372 symmetry adapted cartesian basis functions of A   symmetry.
 There are   327 symmetry adapted basis functions of A   symmetry.
   327 basis functions,   523 primitive gaussians,   372 cartesian basis functions
    32 alpha electrons       32 beta electrons
       nuclear repulsion energy       401.9262704630 Hartrees.
 IExCor=  402 DFT=T Ex+Corr=B3LYP ExCW=0 ScaHFX=  0.200000
 ScaDFX=  0.800000  0.720000  1.000000  0.810000 ScalE2=  1.000000  1.000000
 IRadAn=      5 IRanWt=     -1 IRanGd=            0 ICorTp=0 IEmpDi=  4
 NAtoms=   17 NActive=   17 NUniq=   17 SFac= 1.00D+00 NAtFMM=   60 NAOKFM=F Big=F
 Integral buffers will be    131072 words long.
 Raffenetti 2 integral format.
 Two-electron integral symmetry is turned on.
 Leave Link  301 at Wed Feb  7 20:06:39 2024, MaxMem=  6710886400 cpu:               1.9 elap:               0.1
 (Enter /tmpu/scunam/7/gaussian-2016.03/g1/g16/l302.exe)
 NPDir=0 NMtPBC=     1 NCelOv=     1 NCel=       1 NClECP=     1 NCelD=      1
         NCelK=      1 NCelE2=     1 NClLst=     1 CellRange=     0.0.
 One-electron integrals computed using PRISM.
 One-electron integral symmetry used in STVInt
   1 Symmetry operations used in ECPInt.
 ECPInt:  NShTT=    8646 NPrTT=   26328 LenC2=    8395 LenP2D=   20309.
 LDataN:  DoStor=T MaxTD1= 6 Len=  172
 NBasis=   327 RedAO= T EigKep=  8.57D-06  NBF=   327
 NBsUse=   327 1.00D-06 EigRej= -1.00D+00 NBFU=   327
 Precomputing XC quadrature grid using
 IXCGrd= 4 IRadAn=           5 IRanWt=          -1 IRanGd=           0 AccXCQ= 0.00D+00.
 Generated NRdTot=       0 NPtTot=           0 NUsed=           0 NTot=          32
 NSgBfM=   371   371   371   371   371 MxSgAt=    17 MxSgA2=    17.
 Leave Link  302 at Wed Feb  7 20:06:41 2024, MaxMem=  6710886400 cpu:              28.8 elap:               1.9
 (Enter /tmpu/scunam/7/gaussian-2016.03/g1/g16/l303.exe)
 DipDrv:  MaxL=1.
 Leave Link  303 at Wed Feb  7 20:06:41 2024, MaxMem=  6710886400 cpu:               2.8 elap:               0.2
 (Enter /tmpu/scunam/7/gaussian-2016.03/g1/g16/l401.exe)
 Initial guess from the checkpoint file:  "Acetophenone.chk"
 B after Tr=     0.000000   -0.000000    0.000000
         Rot=    1.000000    0.000035    0.000041    0.000003 Ang=   0.01 deg.
 Guess basis will be translated and rotated to current coordinates.
 JPrj=2 DoOrth=T DoCkMO=T.
 Leave Link  401 at Wed Feb  7 20:06:42 2024, MaxMem=  6710886400 cpu:              14.5 elap:               1.0
 (Enter /tmpu/scunam/7/gaussian-2016.03/g1/g16/l502.exe)
 Integral symmetry usage will be decided dynamically.
 Closed shell SCF:
 Using DIIS extrapolation, IDIIS=  1040.
 NGot=  6710886400 LenX=  6710600291 LenY=  6710461466
 Requested convergence on RMS density matrix=1.00D-08 within 128 cycles.
 Requested convergence on MAX density matrix=1.00D-06.
 Requested convergence on             energy=1.00D-06.
 No special actions if energy rises.
 Fock matrices will be formed incrementally for  20 cycles.

 Cycle   1  Pass 1  IDiag  1:
 FoFJK:  IHMeth= 1 ICntrl=       0 DoSepK=F KAlg= 0 I1Cent=           0 FoldK=F
 IRaf= 940000000 NMat=       1 IRICut=       1 DoRegI=T DoRafI=F ISym2E= 0 IDoP0=0 IntGTp=1.
 FoFCou: FMM=F IPFlag=           0 FMFlag=      100000 FMFlg1=           0
         NFxFlg=           0 DoJE=F BraDBF=F KetDBF=F FulRan=T
         wScrn=  0.000000 ICntrl=         0 IOpCl=  0 I1Cent=           0 NGrid=           0
         NMat0=    1 NMatS0=      1 NMatT0=    0 NMatD0=    1 NMtDS0=    0 NMtDT0=    0
 Symmetry not used in FoFCou.
 E= -385.044393274635    
 DIIS: error= 5.50D-05 at cycle   1 NSaved=   1.
 NSaved= 1 IEnMin= 1 EnMin= -385.044393274635     IErMin= 1 ErrMin= 5.50D-05
 ErrMax= 5.50D-05  0.00D+00 EMaxC= 1.00D-01 BMatC= 2.61D-06 BMatP= 2.61D-06
 IDIUse=1 WtCom= 1.00D+00 WtEn= 0.00D+00
 Coeff-Com:  0.100D+01
 Coeff:      0.100D+01
 Gap=     0.737 Goal=   None    Shift=    0.000
 RMSDP=1.26D-05 MaxDP=1.01D-03              OVMax= 5.02D-04

 Cycle   2  Pass 1  IDiag  1:
 RMSU=  1.24D-05    CP:  1.00D+00
 E= -385.044395991539     Delta-E=       -0.000002716905 Rises=F Damp=F
 DIIS: error= 3.23D-05 at cycle   2 NSaved=   2.
 NSaved= 2 IEnMin= 2 EnMin= -385.044395991539     IErMin= 2 ErrMin= 3.23D-05
 ErrMax= 3.23D-05  0.00D+00 EMaxC= 1.00D-01 BMatC= 2.55D-07 BMatP= 2.61D-06
 IDIUse=1 WtCom= 1.00D+00 WtEn= 0.00D+00
 Coeff-Com:  0.881D-01 0.912D+00
 Coeff:      0.881D-01 0.912D+00
 Gap=     0.192 Goal=   None    Shift=    0.000
 RMSDP=4.91D-06 MaxDP=5.60D-04 DE=-2.72D-06 OVMax= 3.75D-04

 Cycle   3  Pass 1  IDiag  1:
 RMSU=  4.02D-06    CP:  1.00D+00  8.00D-01
 E= -385.044395556191     Delta-E=        0.000000435348 Rises=F Damp=F
 DIIS: error= 5.79D-05 at cycle   3 NSaved=   3.
 NSaved= 3 IEnMin= 2 EnMin= -385.044395991539     IErMin= 2 ErrMin= 3.23D-05
 ErrMax= 5.79D-05  0.00D+00 EMaxC= 1.00D-01 BMatC= 8.49D-07 BMatP= 2.55D-07
 IDIUse=1 WtCom= 1.00D+00 WtEn= 0.00D+00
 Coeff-Com: -0.279D-01 0.665D+00 0.363D+00
 Coeff:     -0.279D-01 0.665D+00 0.363D+00
 Gap=     0.192 Goal=   None    Shift=    0.000
 RMSDP=4.11D-06 MaxDP=4.87D-04 DE= 4.35D-07 OVMax= 2.84D-04

 Cycle   4  Pass 1  IDiag  1:
 RMSU=  7.52D-07    CP:  1.00D+00  9.95D-01  2.50D-01
 E= -385.044396185463     Delta-E=       -0.000000629272 Rises=F Damp=F
 DIIS: error= 5.09D-06 at cycle   4 NSaved=   4.
 NSaved= 4 IEnMin= 4 EnMin= -385.044396185463     IErMin= 4 ErrMin= 5.09D-06
 ErrMax= 5.09D-06  0.00D+00 EMaxC= 1.00D-01 BMatC= 7.68D-09 BMatP= 2.55D-07
 IDIUse=1 WtCom= 1.00D+00 WtEn= 0.00D+00
 Coeff-Com: -0.142D-01 0.254D+00 0.169D+00 0.591D+00
 Coeff:     -0.142D-01 0.254D+00 0.169D+00 0.591D+00
 Gap=     0.192 Goal=   None    Shift=    0.000
 RMSDP=4.74D-07 MaxDP=5.04D-05 DE=-6.29D-07 OVMax= 4.41D-05

 Cycle   5  Pass 1  IDiag  1:
 RMSU=  2.09D-07    CP:  1.00D+00  9.79D-01  3.23D-01  7.27D-01
 E= -385.044396190943     Delta-E=       -0.000000005480 Rises=F Damp=F
 DIIS: error= 2.90D-06 at cycle   5 NSaved=   5.
 NSaved= 5 IEnMin= 5 EnMin= -385.044396190943     IErMin= 5 ErrMin= 2.90D-06
 ErrMax= 2.90D-06  0.00D+00 EMaxC= 1.00D-01 BMatC= 1.55D-09 BMatP= 7.68D-09
 IDIUse=1 WtCom= 1.00D+00 WtEn= 0.00D+00
 Coeff-Com: -0.462D-02 0.602D-01 0.521D-01 0.351D+00 0.542D+00
 Coeff:     -0.462D-02 0.602D-01 0.521D-01 0.351D+00 0.542D+00
 Gap=     0.192 Goal=   None    Shift=    0.000
 RMSDP=1.37D-07 MaxDP=1.08D-05 DE=-5.48D-09 OVMax= 1.98D-05

 Cycle   6  Pass 1  IDiag  1:
 RMSU=  7.52D-08    CP:  1.00D+00  9.85D-01  3.11D-01  7.82D-01  6.92D-01
 E= -385.044396192388     Delta-E=       -0.000000001445 Rises=F Damp=F
 DIIS: error= 6.37D-07 at cycle   6 NSaved=   6.
 NSaved= 6 IEnMin= 6 EnMin= -385.044396192388     IErMin= 6 ErrMin= 6.37D-07
 ErrMax= 6.37D-07  0.00D+00 EMaxC= 1.00D-01 BMatC= 6.79D-11 BMatP= 1.55D-09
 IDIUse=1 WtCom= 1.00D+00 WtEn= 0.00D+00
 Coeff-Com: -0.853D-03 0.411D-02 0.852D-02 0.114D+00 0.240D+00 0.634D+00
 Coeff:     -0.853D-03 0.411D-02 0.852D-02 0.114D+00 0.240D+00 0.634D+00
 Gap=     0.192 Goal=   None    Shift=    0.000
 RMSDP=3.60D-08 MaxDP=1.39D-06 DE=-1.45D-09 OVMax= 5.55D-06

 Cycle   7  Pass 1  IDiag  1:
 RMSU=  2.49D-08    CP:  1.00D+00  9.84D-01  3.13D-01  7.89D-01  7.59D-01
                    CP:  7.93D-01
 E= -385.044396192438     Delta-E=       -0.000000000050 Rises=F Damp=F
 DIIS: error= 4.12D-07 at cycle   7 NSaved=   7.
 NSaved= 7 IEnMin= 7 EnMin= -385.044396192438     IErMin= 7 ErrMin= 4.12D-07
 ErrMax= 4.12D-07  0.00D+00 EMaxC= 1.00D-01 BMatC= 2.57D-11 BMatP= 6.79D-11
 IDIUse=1 WtCom= 1.00D+00 WtEn= 0.00D+00
 Coeff-Com:  0.139D-03-0.667D-02-0.252D-02 0.218D-01 0.726D-01 0.416D+00
 Coeff-Com:  0.498D+00
 Coeff:      0.139D-03-0.667D-02-0.252D-02 0.218D-01 0.726D-01 0.416D+00
 Coeff:      0.498D+00
 Gap=     0.192 Goal=   None    Shift=    0.000
 RMSDP=1.45D-08 MaxDP=5.75D-07 DE=-4.98D-11 OVMax= 2.76D-06

 Cycle   8  Pass 1  IDiag  1:
 RMSU=  9.12D-09    CP:  1.00D+00  9.84D-01  3.13D-01  7.95D-01  7.53D-01
                    CP:  8.59D-01  6.77D-01
 E= -385.044396192467     Delta-E=       -0.000000000029 Rises=F Damp=F
 DIIS: error= 5.48D-08 at cycle   8 NSaved=   8.
 NSaved= 8 IEnMin= 8 EnMin= -385.044396192467     IErMin= 8 ErrMin= 5.48D-08
 ErrMax= 5.48D-08  0.00D+00 EMaxC= 1.00D-01 BMatC= 6.09D-13 BMatP= 2.57D-11
 IDIUse=1 WtCom= 1.00D+00 WtEn= 0.00D+00
 Coeff-Com:  0.105D-03-0.281D-02-0.155D-02 0.445D-03 0.973D-02 0.111D+00
 Coeff-Com:  0.198D+00 0.685D+00
 Coeff:      0.105D-03-0.281D-02-0.155D-02 0.445D-03 0.973D-02 0.111D+00
 Coeff:      0.198D+00 0.685D+00
 Gap=     0.192 Goal=   None    Shift=    0.000
 RMSDP=4.12D-09 MaxDP=2.44D-07 DE=-2.90D-11 OVMax= 4.66D-07

 SCF Done:  E(RB3LYP) =  -385.044396192     A.U. after    8 cycles
            NFock=  8  Conv=0.41D-08     -V/T= 2.0050
 KE= 3.831097424300D+02 PE=-1.699721184544D+03 EE= 5.296407754584D+02
 Leave Link  502 at Wed Feb  7 20:07:20 2024, MaxMem=  6710886400 cpu:             564.2 elap:              37.4
 (Enter /tmpu/scunam/7/gaussian-2016.03/g1/g16/l508.exe)
 QCSCF skips out because SCF is already converged.
 Leave Link  508 at Wed Feb  7 20:07:20 2024, MaxMem=  6710886400 cpu:               0.5 elap:               0.1
 (Enter /tmpu/scunam/7/gaussian-2016.03/g1/g16/l701.exe)
 ... and contract with generalized density number  0.
 Compute integral first derivatives.
   1 Symmetry operations used in ECPInt.
 ECPInt:  NShTT=    8646 NPrTT=   26328 LenC2=    8395 LenP2D=   20309.
 LDataN:  DoStor=T MaxTD1= 7 Len=  274
 Leave Link  701 at Wed Feb  7 20:07:21 2024, MaxMem=  6710886400 cpu:              14.0 elap:               1.0
 (Enter /tmpu/scunam/7/gaussian-2016.03/g1/g16/l702.exe)
 L702 exits ... SP integral derivatives will be done elsewhere.
 Leave Link  702 at Wed Feb  7 20:07:21 2024, MaxMem=  6710886400 cpu:               0.9 elap:               0.1
 (Enter /tmpu/scunam/7/gaussian-2016.03/g1/g16/l703.exe)
 Integral derivatives from FoFJK, PRISM(SPDF).
 Compute integral first derivatives, UseDBF=F ICtDFT=           0.
 Calling FoFJK, ICntrl=      2127 FMM=F ISym2X=0 I1Cent= 0 IOpClX= 0 NMat=1 NMatS=1 NMatT=0.
 FoFJK:  IHMeth= 1 ICntrl=    2127 DoSepK=F KAlg= 0 I1Cent=           0 FoldK=F
 IRaf=         0 NMat=       1 IRICut=       1 DoRegI=T DoRafI=F ISym2E= 0 IDoP0=0 IntGTp=1.
 FoFCou: FMM=F IPFlag=           0 FMFlag=      100000 FMFlg1=         800
         NFxFlg=           0 DoJE=F BraDBF=F KetDBF=F FulRan=T
         wScrn=  0.000000 ICntrl=      2127 IOpCl=  0 I1Cent=           0 NGrid=           0
         NMat0=    1 NMatS0=      1 NMatT0=    0 NMatD0=    1 NMtDS0=    0 NMtDT0=    0
 Symmetry not used in FoFCou.
 Leave Link  703 at Wed Feb  7 20:07:40 2024, MaxMem=  6710886400 cpu:             283.8 elap:              18.9
 (Enter /tmpu/scunam/7/gaussian-2016.03/g1/g16/l716.exe)
 Dipole        =-7.59357735D-01 9.69744830D-01-1.52140180D-03
 ***** Axes restored to original set *****
 -------------------------------------------------------------------
 Center     Atomic                   Forces (Hartrees/Bohr)
 Number     Number              X              Y              Z
 -------------------------------------------------------------------
      1        8          -0.000081409    0.000275563    0.000016942
      2        6          -0.000200969    0.000036883    0.000004627
      3        6          -0.000010193   -0.000024482    0.000001831
      4        6           0.000014839   -0.000006944   -0.000005042
      5        6           0.000297263   -0.000225176   -0.000044542
      6        6          -0.000027789   -0.000028550   -0.000002732
      7        6           0.000029551    0.000004513   -0.000000664
      8        6          -0.000006976    0.000036415    0.000003917
      9        6           0.000006071   -0.000013403    0.000022451
     10        1          -0.000000603   -0.000010996   -0.000003549
     11        1          -0.000025827   -0.000011383    0.000000796
     12        1           0.000009635    0.000008301   -0.000001407
     13        1          -0.000007998    0.000003703    0.000002080
     14        1           0.000003676   -0.000002714    0.000005138
     15        1          -0.000001544   -0.000014128    0.000002308
     16        1          -0.000003288   -0.000006713    0.000007089
     17        1           0.000005563   -0.000020887   -0.000009244
 -------------------------------------------------------------------
 Cartesian Forces:  Max     0.000297263 RMS     0.000073213
 Leave Link  716 at Wed Feb  7 20:07:40 2024, MaxMem=  6710886400 cpu:               0.9 elap:               0.1
 (Enter /tmpu/scunam/7/gaussian-2016.03/g1/g16/l103.exe)

 GradGradGradGradGradGradGradGradGradGradGradGradGradGradGradGradGradGrad
 Berny optimization.
 Search for a local minimum.
 Step number   6 out of a maximum of  102
 All quantities printed in internal units (Hartrees-Bohrs-Radians)
 Update second derivatives using D2CorN and points    1    2    3    4    5
                                                          6
 DE= -1.82D-06 DEPred=-1.65D-06 R= 1.11D+00
 TightC=F SS=  1.41D+00  RLast= 1.37D-02 DXNew= 8.4853D-01 4.1029D-02
 Trust test= 1.11D+00 RLast= 1.37D-02 DXMaxT set to 5.05D-01
 ITU=  1  1  1  1  1  0
     Eigenvalues ---    0.00204   0.00323   0.00643   0.00781   0.01646
     Eigenvalues ---    0.02510   0.02539   0.03627   0.04262   0.04486
     Eigenvalues ---    0.06231   0.06765   0.06952   0.07113   0.07913
     Eigenvalues ---    0.09678   0.09699   0.10810   0.11700   0.12858
     Eigenvalues ---    0.13436   0.14421   0.17508   0.18012   0.22784
     Eigenvalues ---    0.29090   0.30209   0.31446   0.33240   0.43343
     Eigenvalues ---    0.44751   0.50938   0.66027   0.68634   0.87032
     Eigenvalues ---    0.87260   0.91935   1.03834   1.12342   1.22550
     Eigenvalues ---    1.27258   1.48131   1.57954   1.61816   1.97464
 RFO step:  Lambda=-2.88620607D-07 EMin= 2.04030310D-03
 Quartic linear search produced a step of  0.04823.
 B after Tr=     0.000044    0.000022    0.000027
         Rot=    1.000000    0.000009    0.000007   -0.000006 Ang=   0.00 deg.
 Variable       Old X    -DE/DX   Delta X   Delta X   Delta X     New X
                                 (Linear)    (Quad)   (Total)
    X1        4.39123  -0.00008   0.00003   0.00076   0.00087   4.39210
    Y1       -2.23816   0.00028  -0.00011   0.00053   0.00049  -2.23767
    Z1        0.00435   0.00002   0.00010   0.00090   0.00112   0.00547
    X2        0.51655  -0.00020   0.00002  -0.00013  -0.00006   0.51649
    Y2       -0.02478   0.00004  -0.00007  -0.00018  -0.00022  -0.02500
    Z2        0.00202   0.00000   0.00003  -0.00031  -0.00024   0.00178
    X3       -0.76685  -0.00001   0.00010  -0.00019  -0.00007  -0.76692
    Y3        2.28322  -0.00002  -0.00005  -0.00022  -0.00026   2.28296
    Z3        0.00278   0.00000   0.00004  -0.00003  -0.00001   0.00277
    X4       -0.88178   0.00001  -0.00001  -0.00018  -0.00012  -0.88190
    Y4       -2.26779  -0.00001  -0.00007  -0.00009  -0.00014  -2.26793
    Z4        0.00021  -0.00001  -0.00001  -0.00042  -0.00037  -0.00015
    X5        3.34280   0.00030   0.00010   0.00033   0.00048   3.34327
    Y5       -0.19681  -0.00023  -0.00009  -0.00005  -0.00008  -0.19690
    Z5        0.00226  -0.00004   0.00006  -0.00029  -0.00015   0.00211
    X6       -3.39200  -0.00003   0.00010  -0.00017  -0.00005  -3.39205
    Y6        2.34807  -0.00003   0.00001  -0.00001  -0.00002   2.34805
    Z6        0.00152  -0.00000   0.00003   0.00023   0.00020   0.00172
    X7       -3.49946   0.00003  -0.00001  -0.00017  -0.00010  -3.49956
    Y7       -2.20346   0.00000  -0.00000   0.00013   0.00011  -2.20336
    Z7       -0.00139  -0.00000  -0.00003  -0.00018  -0.00019  -0.00158
    X8       -4.76095  -0.00001   0.00005  -0.00020  -0.00011  -4.76106
    Y8        0.10660   0.00004   0.00004   0.00012   0.00013   0.10673
    Z8       -0.00086   0.00000  -0.00001   0.00024   0.00019  -0.00067
    X9        4.87618   0.00001  -0.00010   0.00018   0.00010   4.87627
    Y9        2.22043  -0.00001   0.00004  -0.00011   0.00001   2.22044
    Z9       -0.00179   0.00002  -0.00004  -0.00019  -0.00017  -0.00196
   X10        0.27284  -0.00000   0.00016  -0.00010   0.00005   0.27289
   Y10        4.04299  -0.00001  -0.00008  -0.00031  -0.00037   4.04262
   Z10        0.00447  -0.00000   0.00007   0.00006   0.00009   0.00456
   X11        0.13283  -0.00003  -0.00004  -0.00046  -0.00041   0.13242
   Y11       -4.04218  -0.00001  -0.00009  -0.00020  -0.00027  -4.04246
   Z11       -0.00028   0.00000  -0.00002  -0.00061  -0.00053  -0.00082
   X12       -4.36751   0.00001   0.00017   0.00004   0.00020  -4.36730
   Y12        4.14633   0.00001   0.00005   0.00010   0.00012   4.14645
   Z12        0.00222  -0.00000   0.00004   0.00049   0.00043   0.00265
   X13       -4.56397  -0.00001  -0.00008  -0.00030  -0.00028  -4.56425
   Y13       -3.95075   0.00000   0.00003   0.00022   0.00022  -3.95052
   Z13       -0.00322   0.00000  -0.00006  -0.00026  -0.00028  -0.00350
   X14       -6.80668   0.00000   0.00005  -0.00017  -0.00008  -6.80676
   Y14        0.15737  -0.00000   0.00009   0.00013   0.00015   0.15752
   Z14       -0.00235   0.00001  -0.00003   0.00056   0.00046  -0.00189
   X15        4.44759  -0.00000  -0.00026   0.00047   0.00023   4.44781
   Y15        3.36438  -0.00001  -0.00004  -0.00063  -0.00063   3.36375
   Z15       -1.66584   0.00000  -0.00006  -0.00054  -0.00058  -1.66642
   X16        6.87237  -0.00000  -0.00005   0.00024   0.00021   6.87258
   Y16        1.73489  -0.00001   0.00028   0.00014   0.00053   1.73542
   Z16       -0.00317   0.00001  -0.00003   0.00060   0.00066  -0.00251
   X17        4.45081   0.00001  -0.00025  -0.00058  -0.00085   4.44996
   Y17        3.36811  -0.00002   0.00007   0.00006   0.00023   3.36834
   Z17        1.66057  -0.00001  -0.00008  -0.00057  -0.00063   1.65994
         Item               Value     Threshold  Converged?
 Maximum Force            0.000297     0.000450     YES
 RMS     Force            0.000073     0.000300     YES
 Maximum Displacement     0.001119     0.001800     YES
 RMS     Displacement     0.000374     0.001200     YES
 Predicted change in Energy=-1.428002D-07
 Optimization completed.
    -- Stationary point found.
 Lowest energy point so far.  Saving SCF results.
 Largest change from initial coordinates is atom   11       0.054 Angstoms.
 GradGradGradGradGradGradGradGradGradGradGradGradGradGradGradGradGradGrad

 Leave Link  103 at Wed Feb  7 20:07:40 2024, MaxMem=  6710886400 cpu:               3.7 elap:               0.3
 (Enter /tmpu/scunam/7/gaussian-2016.03/g1/g16/l202.exe)
                          Input orientation:                          
 ---------------------------------------------------------------------
 Center     Atomic      Atomic             Coordinates (Angstroms)
 Number     Number       Type             X           Y           Z
 ---------------------------------------------------------------------
      1          8           0        2.323738   -1.184385    0.002302
      2          6           0        0.273348   -0.013112    0.001067
      3          6           0       -0.405798    1.208229    0.001473
      4          6           0       -0.466616   -1.200061    0.000113
      5          6           0        1.768931   -0.104148    0.001197
      6          6           0       -1.794969    1.242544    0.000805
      7          6           0       -1.851833   -1.166021   -0.000735
      8          6           0       -2.519387    0.056410   -0.000453
      9          6           0        2.580361    1.174999   -0.000947
     10          1           0        0.144381    2.139457    0.002367
     11          1           0        0.070290   -2.139032   -0.000149
     12          1           0       -2.311184    2.194143    0.001173
     13          1           0       -2.415151   -2.090644   -0.001705
     14          1           0       -3.601938    0.083275   -0.001244
     15          1           0        2.353562    1.780352   -0.881524
     16          1           0        3.636699    0.918066   -0.001677
     17          1           0        2.355266    1.782327    0.878737
 ---------------------------------------------------------------------
                    Distance matrix (angstroms):
                    1          2          3          4          5
     1  O    0.000000
     2  C    2.361352   0.000000
     3  C    3.629735   1.397467   0.000000
     4  C    2.790399   1.398712   2.409058   0.000000
     5  C    1.214383   1.498351   2.540036   2.489718   0.000000
     6  C    4.780558   2.419629   1.389595   2.780439   3.809851
     7  C    4.175612   2.417766   2.779944   1.385635   3.773262
     8  C    4.999545   2.793601   2.407062   2.406780   4.291323
     9  C    2.373302   2.594981   2.986346   3.863286   1.514807
    10  H    3.974610   2.156430   1.081612   3.394953   2.770005
    11  H    2.447322   2.135596   3.380949   1.081635   2.650686
    12  H    5.735587   3.398791   2.145349   3.863037   4.682892
    13  H    4.824768   3.397672   3.862651   2.142412   4.631708
    14  H    6.059754   3.876485   3.388339   3.387802   5.374139
    15  H    3.093817   2.884922   2.953147   4.196850   2.161558
    16  H    2.478747   3.489876   4.052899   4.617755   2.129199
    17  H    3.093625   2.885877   2.953415   4.198766   2.161632
                    6          7          8          9         10
     6  C    0.000000
     7  C    2.409237   0.000000
     8  C    1.389855   1.392828   0.000000
     9  C    4.375852   5.012457   5.220984   0.000000
    10  H    2.136711   3.861485   3.381531   2.619960   0.000000
    11  H    3.861897   2.154369   3.395055   4.157314   4.279131
    12  H    1.082598   3.391417   2.147848   4.996586   2.456174
    13  H    3.390395   1.082708   2.149584   5.968213   4.944186
    14  H    2.146869   2.150259   1.082885   6.277953   4.273500
    15  H    4.275284   5.209822   5.243462   1.092386   2.406387
    16  H    5.441352   5.870895   6.216096   1.087136   3.699743
    17  H    4.276281   5.212092   5.245380   1.092410   2.404908
                   11         12         13         14         15
    11  H    0.000000
    12  H    4.944474   0.000000
    13  H    2.485913   4.286049   0.000000
    14  H    4.292309   2.474230   2.476770   0.000000
    15  H    4.620792   4.765525   6.204782   6.254834   0.000000
    16  H    4.697353   6.083231   6.758493   7.286614   1.778795
    17  H    4.622835   4.766075   6.207412   6.256950   1.760263
                   16         17
    16  H    0.000000
    17  H    1.778805   0.000000
 Stoichiometry    C8H8O
 Framework group  C1[X(C8H8O)]
 Deg. of freedom    45
 Full point group                 C1      NOp   1
 RotChk:  IX=2 Diff= 5.89D-16
 Largest Abelian subgroup         C1      NOp   1
 Largest concise Abelian subgroup C1      NOp   1
                         Standard orientation:                         
 ---------------------------------------------------------------------
 Center     Atomic      Atomic             Coordinates (Angstroms)
 Number     Number       Type             X           Y           Z
 ---------------------------------------------------------------------
      1          8           0        2.209483   -1.304160    0.001841
      2          6           0        0.203751   -0.057957    0.000606
      3          6           0       -0.429822    1.187635    0.001011
      4          6           0       -0.579546   -1.216766   -0.000348
      5          6           0        1.694952   -0.204169    0.000736
      6          6           0       -1.816777    1.273234    0.000344
      7          6           0       -1.962561   -1.131588   -0.001196
      8          6           0       -2.584510    0.114666   -0.000914
      9          6           0        2.553073    1.044136   -0.001409
     10          1           0        0.154376    2.097907    0.001906
     11          1           0       -0.077686   -2.174926   -0.000610
     12          1           0       -2.297494    2.243250    0.000712
     13          1           0       -2.559645   -2.034774   -0.002167
     14          1           0       -3.665330    0.181496   -0.001705
     15          1           0        2.348786    1.657453   -0.881985
     16          1           0        3.599201    0.748364   -0.002138
     17          1           0        2.350563    1.659363    0.878276
 ---------------------------------------------------------------------
 Rotational constants (GHZ):           3.7129663           1.2174198           0.9220362
 Leave Link  202 at Wed Feb  7 20:07:40 2024, MaxMem=  6710886400 cpu:               1.3 elap:               0.1
 (Enter /tmpu/scunam/7/gaussian-2016.03/g1/g16/l601.exe)
 Copying SCF densities to generalized density rwf, IOpCl= 0 IROHF=0.

 **********************************************************************

            Population analysis using the SCF density.

 **********************************************************************

 Orbital symmetries:
       Occupied  (A) (A) (A) (A) (A) (A) (A) (A) (A) (A) (A) (A)
                 (A) (A) (A) (A) (A) (A) (A) (A) (A) (A) (A) (A)
                 (A) (A) (A) (A) (A) (A) (A) (A)
       Virtual   (A) (A) (A) (A) (A) (A) (A) (A) (A) (A) (A) (A)
                 (A) (A) (A) (A) (A) (A) (A) (A) (A) (A) (A) (A)
                 (A) (A) (A) (A) (A) (A) (A) (A) (A) (A) (A) (A)
                 (A) (A) (A) (A) (A) (A) (A) (A) (A) (A) (A) (A)
                 (A) (A) (A) (A) (A) (A) (A) (A) (A) (A) (A) (A)
                 (A) (A) (A) (A) (A) (A) (A) (A) (A) (A) (A) (A)
                 (A) (A) (A) (A) (A) (A) (A) (A) (A) (A) (A) (A)
                 (A) (A) (A) (A) (A) (A) (A) (A) (A) (A) (A) (A)
                 (A) (A) (A) (A) (A) (A) (A) (A) (A) (A) (A) (A)
                 (A) (A) (A) (A) (A) (A) (A) (A) (A) (A) (A) (A)
                 (A) (A) (A) (A) (A) (A) (A) (A) (A) (A) (A) (A)
                 (A) (A) (A) (A) (A) (A) (A) (A) (A) (A) (A) (A)
                 (A) (A) (A) (A) (A) (A) (A) (A) (A) (A) (A) (A)
                 (A) (A) (A) (A) (A) (A) (A) (A) (A) (A) (A) (A)
                 (A) (A) (A) (A) (A) (A) (A) (A) (A) (A) (A) (A)
                 (A) (A) (A) (A) (A) (A) (A) (A) (A) (A) (A) (A)
                 (A) (A) (A) (A) (A) (A) (A) (A) (A) (A) (A) (A)
                 (A) (A) (A) (A) (A) (A) (A) (A) (A) (A) (A) (A)
                 (A) (A) (A) (A) (A) (A) (A) (A) (A) (A) (A) (A)
                 (A) (A) (A) (A) (A) (A) (A) (A) (A) (A) (A) (A)
                 (A) (A) (A) (A) (A) (A) (A) (A) (A) (A) (A) (A)
                 (A) (A) (A) (A) (A) (A) (A) (A) (A) (A) (A) (A)
                 (A) (A) (A) (A) (A) (A) (A) (A) (A) (A) (A) (A)
                 (A) (A) (A) (A) (A) (A) (A) (A) (A) (A) (A) (A)
                 (A) (A) (A) (A) (A) (A) (A)
 The electronic state is 1-A.
 Alpha  occ. eigenvalues --  -19.11502 -10.26519 -10.19382 -10.19290 -10.19220
 Alpha  occ. eigenvalues --  -10.18935 -10.18751 -10.18636 -10.17791  -1.04565
 Alpha  occ. eigenvalues --   -0.87387  -0.78266  -0.76315  -0.73887  -0.63918
 Alpha  occ. eigenvalues --   -0.61919  -0.56297  -0.52121  -0.47771  -0.46875
 Alpha  occ. eigenvalues --   -0.45756  -0.45214  -0.43774  -0.42476  -0.40018
 Alpha  occ. eigenvalues --   -0.39082  -0.37012  -0.36353  -0.35711  -0.27355
 Alpha  occ. eigenvalues --   -0.26999  -0.25940
 Alpha virt. eigenvalues --   -0.06773  -0.02571   0.02540   0.03234   0.05096
 Alpha virt. eigenvalues --    0.07442   0.08966   0.10251   0.10738   0.11072
 Alpha virt. eigenvalues --    0.12064   0.13429   0.14111   0.14340   0.17190
 Alpha virt. eigenvalues --    0.19471   0.19944   0.20906   0.21591   0.21802
 Alpha virt. eigenvalues --    0.22424   0.23694   0.23827   0.24816   0.25259
 Alpha virt. eigenvalues --    0.27516   0.29742   0.31448   0.31699   0.32859
 Alpha virt. eigenvalues --    0.33858   0.34869   0.35504   0.36394   0.37513
 Alpha virt. eigenvalues --    0.39219   0.39843   0.40067   0.40143   0.41126
 Alpha virt. eigenvalues --    0.42035   0.42665   0.44698   0.46370   0.47177
 Alpha virt. eigenvalues --    0.47396   0.48298   0.49449   0.49841   0.50127
 Alpha virt. eigenvalues --    0.51885   0.55793   0.56248   0.56336   0.58587
 Alpha virt. eigenvalues --    0.61912   0.64120   0.64586   0.67083   0.68261
 Alpha virt. eigenvalues --    0.68545   0.70826   0.70909   0.71807   0.73746
 Alpha virt. eigenvalues --    0.75144   0.77404   0.78467   0.79560   0.82310
 Alpha virt. eigenvalues --    0.82980   0.84480   0.85663   0.87448   0.88391
 Alpha virt. eigenvalues --    0.91952   0.93014   0.93678   0.97383   0.99824
 Alpha virt. eigenvalues --    0.99915   1.01747   1.02613   1.04645   1.08584
 Alpha virt. eigenvalues --    1.09327   1.11600   1.12691   1.17970   1.19018
 Alpha virt. eigenvalues --    1.20848   1.21357   1.22997   1.24927   1.25761
 Alpha virt. eigenvalues --    1.26465   1.27935   1.31034   1.35460   1.37509
 Alpha virt. eigenvalues --    1.38517   1.39677   1.43308   1.44727   1.44912
 Alpha virt. eigenvalues --    1.47313   1.48402   1.49306   1.50360   1.51823
 Alpha virt. eigenvalues --    1.54656   1.59092   1.59261   1.60079   1.60557
 Alpha virt. eigenvalues --    1.61246   1.63946   1.64659   1.65961   1.68005
 Alpha virt. eigenvalues --    1.68490   1.68976   1.69711   1.77279   1.80664
 Alpha virt. eigenvalues --    1.81931   1.83610   1.88063   1.89385   1.91894
 Alpha virt. eigenvalues --    1.93412   1.95309   1.96913   2.01647   2.03265
 Alpha virt. eigenvalues --    2.03623   2.07807   2.09688   2.10503   2.12345
 Alpha virt. eigenvalues --    2.14847   2.18843   2.19864   2.22555   2.23512
 Alpha virt. eigenvalues --    2.25192   2.30066   2.32235   2.32515   2.36295
 Alpha virt. eigenvalues --    2.36831   2.39394   2.41623   2.44277   2.48621
 Alpha virt. eigenvalues --    2.50264   2.51015   2.54305   2.55325   2.57302
 Alpha virt. eigenvalues --    2.59304   2.59622   2.62891   2.65082   2.65202
 Alpha virt. eigenvalues --    2.65804   2.65992   2.67662   2.70702   2.71119
 Alpha virt. eigenvalues --    2.71837   2.73452   2.77051   2.77742   2.77951
 Alpha virt. eigenvalues --    2.80482   2.81256   2.82687   2.83871   2.86100
 Alpha virt. eigenvalues --    2.88037   2.89027   2.89781   2.93211   2.96271
 Alpha virt. eigenvalues --    2.98323   2.99332   3.00518   3.02043   3.06627
 Alpha virt. eigenvalues --    3.07658   3.07954   3.10546   3.11367   3.11777
 Alpha virt. eigenvalues --    3.13318   3.13354   3.15323   3.16930   3.18327
 Alpha virt. eigenvalues --    3.19860   3.21119   3.22634   3.25858   3.27011
 Alpha virt. eigenvalues --    3.27088   3.28822   3.30917   3.32284   3.32380
 Alpha virt. eigenvalues --    3.35771   3.36796   3.37757   3.38585   3.41366
 Alpha virt. eigenvalues --    3.42103   3.45124   3.46022   3.47086   3.50773
 Alpha virt. eigenvalues --    3.51088   3.53121   3.53139   3.56437   3.57995
 Alpha virt. eigenvalues --    3.64061   3.65674   3.68092   3.70897   3.71195
 Alpha virt. eigenvalues --    3.76196   3.80989   3.83119   3.86671   3.88197
 Alpha virt. eigenvalues --    3.92716   3.93899   3.95256   3.98461   4.00386
 Alpha virt. eigenvalues --    4.05556   4.08090   4.12031   4.18004   4.18853
 Alpha virt. eigenvalues --    4.19774   4.21089   4.21973   4.22339   4.25365
 Alpha virt. eigenvalues --    4.29258   4.32827   4.34510   4.34650   4.36540
 Alpha virt. eigenvalues --    4.41800   4.51449   4.56538   4.64109   4.65808
 Alpha virt. eigenvalues --    4.67338   4.68281   4.72165   4.86006   4.86803
 Alpha virt. eigenvalues --    4.88424   4.99824   5.04493   5.19923   5.20290
 Alpha virt. eigenvalues --    5.21885   5.23990   5.34141   5.39120   5.43111
 Alpha virt. eigenvalues --    5.58972   5.63677   5.76282   6.11523   6.37883
 Alpha virt. eigenvalues --    6.37976   6.59268   6.60883   6.80996   7.07032
 Alpha virt. eigenvalues --    7.09263  22.02168  22.37682  22.55644  22.58715
 Alpha virt. eigenvalues --   22.72394  22.79333  23.09208  23.30680  43.87417
          Condensed to atoms (all electrons):
               1          2          3          4          5          6
     1  O    7.812918  -0.220431   0.008120   0.038577   0.708327  -0.000264
     2  C   -0.220431   5.931199   0.419882   0.190269   0.000787  -0.030183
     3  C    0.008120   0.419882   5.027487  -0.077067  -0.018785   0.507201
     4  C    0.038577   0.190269  -0.077067   5.177537   0.000206  -0.047835
     5  C    0.708327   0.000787  -0.018785   0.000206   4.841529  -0.000652
     6  C   -0.000264  -0.030183   0.507201  -0.047835  -0.000652   4.863649
     7  C    0.001558  -0.009642  -0.046100   0.439745   0.006381  -0.026810
     8  C    0.000304  -0.064449  -0.022388   0.002356  -0.000223   0.498851
     9  C   -0.095842  -0.241915  -0.000392   0.043962   0.364339  -0.002222
    10  H    0.000191  -0.047813   0.414715   0.006615  -0.006599  -0.032539
    11  H    0.027838  -0.072821   0.009301   0.435500   0.000431  -0.002401
    12  H    0.000007   0.008620  -0.049065  -0.001415   0.000197   0.423866
    13  H   -0.000142   0.011599  -0.001717  -0.052354  -0.000744   0.009358
    14  H   -0.000002  -0.001522   0.008961   0.008125   0.000092  -0.046004
    15  H    0.002599   0.017074  -0.000737  -0.004030  -0.033839   0.000725
    16  H    0.011169   0.019615  -0.001395  -0.001427  -0.049157   0.000006
    17  H    0.002596   0.016842  -0.000659  -0.004001  -0.033586   0.000735
               7          8          9         10         11         12
     1  O    0.001558   0.000304  -0.095842   0.000191   0.027838   0.000007
     2  C   -0.009642  -0.064449  -0.241915  -0.047813  -0.072821   0.008620
     3  C   -0.046100  -0.022388  -0.000392   0.414715   0.009301  -0.049065
     4  C    0.439745   0.002356   0.043962   0.006615   0.435500  -0.001415
     5  C    0.006381  -0.000223   0.364339  -0.006599   0.000431   0.000197
     6  C   -0.026810   0.498851  -0.002222  -0.032539  -0.002401   0.423866
     7  C    4.921502   0.463268  -0.001226  -0.000440  -0.054100   0.007904
     8  C    0.463268   4.878281   0.000390   0.005746   0.010266  -0.044351
     9  C   -0.001226   0.000390   5.142195   0.005352   0.003843   0.000076
    10  H   -0.000440   0.005746   0.005352   0.540979  -0.000192  -0.006173
    11  H   -0.054100   0.010266   0.003843  -0.000192   0.509415   0.000073
    12  H    0.007904  -0.044351   0.000076  -0.006173   0.000073   0.553211
    13  H    0.430287  -0.050820  -0.000010   0.000082  -0.006492  -0.000276
    14  H   -0.047069   0.421584  -0.000004  -0.000292  -0.000196  -0.006621
    15  H    0.000144  -0.000089   0.375656  -0.001625  -0.000207  -0.000022
    16  H    0.000013   0.000005   0.394985   0.000122  -0.000184  -0.000003
    17  H    0.000142  -0.000088   0.375430  -0.001596  -0.000205  -0.000022
              13         14         15         16         17
     1  O   -0.000142  -0.000002   0.002599   0.011169   0.002596
     2  C    0.011599  -0.001522   0.017074   0.019615   0.016842
     3  C   -0.001717   0.008961  -0.000737  -0.001395  -0.000659
     4  C   -0.052354   0.008125  -0.004030  -0.001427  -0.004001
     5  C   -0.000744   0.000092  -0.033839  -0.049157  -0.033586
     6  C    0.009358  -0.046004   0.000725   0.000006   0.000735
     7  C    0.430287  -0.047069   0.000144   0.000013   0.000142
     8  C   -0.050820   0.421584  -0.000089   0.000005  -0.000088
     9  C   -0.000010  -0.000004   0.375656   0.394985   0.375430
    10  H    0.000082  -0.000292  -0.001625   0.000122  -0.001596
    11  H   -0.006492  -0.000196  -0.000207  -0.000184  -0.000205
    12  H   -0.000276  -0.006621  -0.000022  -0.000003  -0.000022
    13  H    0.551598  -0.006726   0.000002   0.000000   0.000002
    14  H   -0.006726   0.552968   0.000001   0.000000   0.000001
    15  H    0.000002   0.000001   0.561760  -0.013739  -0.030575
    16  H    0.000000   0.000000  -0.013739   0.518351  -0.013744
    17  H    0.000002   0.000001  -0.030575  -0.013744   0.561911
 Mulliken charges:
               1
     1  O   -0.297523
     2  C    0.072890
     3  C   -0.177361
     4  C   -0.154763
     5  C    0.221298
     6  C   -0.115482
     7  C   -0.085558
     8  C   -0.098645
     9  C   -0.364615
    10  H    0.123469
    11  H    0.140131
    12  H    0.113995
    13  H    0.116353
    14  H    0.116706
    15  H    0.126903
    16  H    0.135385
    17  H    0.126817
 Sum of Mulliken charges =  -0.00000
 Mulliken charges with hydrogens summed into heavy atoms:
               1
     1  O   -0.297523
     2  C    0.072890
     3  C   -0.053893
     4  C   -0.014632
     5  C    0.221298
     6  C   -0.001486
     7  C    0.030796
     8  C    0.018061
     9  C    0.024490
 Electronic spatial extent (au):  <R**2>=           1232.8258
 Charge=             -0.0000 electrons
 Dipole moment (field-independent basis, Debye):
    X=             -1.9301    Y=              2.4648    Z=             -0.0039  Tot=              3.1306
 Quadrupole moment (field-independent basis, Debye-Ang):
   XX=            -51.5861   YY=            -51.2842   ZZ=            -55.4911
   XY=              6.5814   XZ=             -0.0040   YZ=              0.0102
 Traceless Quadrupole moment (field-independent basis, Debye-Ang):
   XX=              1.2010   YY=              1.5029   ZZ=             -2.7040
   XY=              6.5814   XZ=             -0.0040   YZ=              0.0102
 Octapole moment (field-independent basis, Debye-Ang**2):
  XXX=            -14.9398  YYY=              0.7278  ZZZ=              0.0056  XYY=             -9.3832
  XXY=             13.5620  XXZ=             -0.0354  XZZ=              9.3765  YZZ=             -1.0428
  YYZ=             -0.0038  XYZ=              0.0068
 Hexadecapole moment (field-independent basis, Debye-Ang**3):
 XXXX=          -1115.6761 YYYY=           -413.4749 ZZZZ=            -68.9105 XXXY=             26.3683
 XXXZ=             -0.0811 YYYX=              2.7790 YYYZ=              0.0550 ZZZX=             -0.0901
 ZZZY=             -0.0076 XXYY=           -272.1039 XXZZ=           -216.6199 YYZZ=            -87.6122
 XXYZ=              0.0498 YYXZ=             -0.0290 ZZXY=             -1.1832
 N-N= 4.019262704630D+02 E-N=-1.699721188245D+03  KE= 3.831097424300D+02
 No NMR shielding tensors so no spin-rotation constants.
 Leave Link  601 at Wed Feb  7 20:07:42 2024, MaxMem=  6710886400 cpu:              19.9 elap:               1.4
 (Enter /tmpu/scunam/7/gaussian-2016.03/g1/g16/l9999.exe)
 1\1\GINC-MN75\FOpt\RB3LYP\def2TZVP\C8H8O1\AGRC_A\07-Feb-2024\0\\#p b3l
 yp/def2TZVP opt=(cartesian,maxcycle=500) freq=raman scf=(maxcycle=2000
 ,direct,noincore,xqc)\\Acetophenone\\0,1\O,2.3237381325,-1.184385253,0
 .0023017073\C,0.2733476162,-0.0131119681,0.0010672093\C,-0.4057982979,
 1.2082290972,0.0014725709\C,-0.4666158982,-1.2000608744,0.0001131902\C
 ,1.7689310004,-0.1041478828,0.0011972885\C,-1.7949689162,1.2425441301,
 0.000805425\C,-1.8518326074,-1.1660214852,-0.0007353015\C,-2.519387362
 ,0.0564103304,-0.0004525503\C,2.5803614386,1.1749990226,-0.0009474231\
 H,0.1443809023,2.1394573087,0.0023666779\H,0.0702902573,-2.1390317045,
 -0.0001487637\H,-2.3111841324,2.1941427954,0.0011734987\H,-2.415150860
 6,-2.0906442997,-0.0017054613\H,-3.6019383159,0.0832754944,-0.00124366
 32\H,2.353561739,1.7803521524,-0.881524332\H,3.6366992422,0.9180663748
 ,-0.0016770112\H,2.355266062,1.7823267617,0.8787369386\\Version=ES64L-
 G16RevA.03\State=1-A\HF=-385.0443962\RMSD=4.117e-09\RMSF=7.321e-05\Dip
 ole=-0.7946564,0.9410369,-0.0015214\Quadrupole=0.5320508,1.4782708,-2.
 0103216,4.8714498,-0.0032743,0.0074932\PG=C01 [X(C8H8O1)]\\@


 GOOD SENSE ABOUT TRIVIALITIES IS BETTER THAN NONSENSE
 ABOUT THINGS THAT MATTER

                                       -- MAX BEERBOHM
 Leave Link 9999 at Wed Feb  7 20:07:42 2024, MaxMem=  6710886400 cpu:               1.3 elap:               0.1
 Job cpu time:       0 days  1 hours 42 minutes 38.6 seconds.
 Elapsed time:       0 days  0 hours  6 minutes 51.8 seconds.
 File lengths (MBytes):  RWF=     71 Int=      0 D2E=      0 Chk=      9 Scr=      1
 Normal termination of Gaussian 16 at Wed Feb  7 20:07:42 2024.
 (Enter /tmpu/scunam/7/gaussian-2016.03/g1/g16/l1.exe)
 Link1:  Proceeding to internal job step number  2.
 --------------------------------------------------------------------
 #P Geom=AllCheck Guess=TCheck SCRF=Check GenChk RB3LYP/def2TZVP Freq
 --------------------------------------------------------------------
 1/6=500,10=4,29=7,30=1,38=1,40=1/1,3;
 2/12=2,40=1/2;
 3/5=44,7=101,11=2,14=-4,25=1,30=1,70=2,71=2,74=-5,116=1,140=1/1,2,3;
 4/5=101/1;
 5/5=2,7=2000,8=3,13=1,38=6,98=1/2,8;
 8/6=4,10=90,11=11/1;
 10/13=10,15=4/2;
 11/6=3,8=1,9=11,15=111,16=1/1,2,10;
 10/6=1/2;
 6/7=2,8=2,9=2,10=2,28=1/1;
 7/8=1,10=1,25=1/1,2,3,16;
 1/6=500,10=4,30=1/3;
 99//99;
 Leave Link    1 at Wed Feb  7 20:07:42 2024, MaxMem=  6710886400 cpu:               0.7 elap:               0.1
 (Enter /tmpu/scunam/7/gaussian-2016.03/g1/g16/l101.exe)
 Structure from the checkpoint file:  "Acetophenone.chk"
 ------------
 Acetophenone
 ------------
 Charge =  0 Multiplicity = 1
 No Z-Matrix found in chk file; cartesian coordinates used.
  O                                                 2.323738132530     -1.184385252966      0.002301707349
  C                                                 0.273347616195     -0.013111968064      0.001067209343
  C                                                -0.405798297922      1.208229097173      0.001472570945
  C                                                -0.466615898215     -1.200060874434      0.000113190230
  C                                                 1.768931000413     -0.104147882765      0.001197288468
  C                                                -1.794968916171      1.242544130061      0.000805425007
  C                                                -1.851832607387     -1.166021485163     -0.000735301496
  C                                                -2.519387361969      0.056410330426     -0.000452550339
  C                                                 2.580361438641      1.174999022643     -0.000947423124
  H                                                 0.144380902297      2.139457308681      0.002366677855
  H                                                 0.070290257318     -2.139031704526     -0.000148763659
  H                                                -2.311184132426      2.194142795389      0.001173498651
  H                                                -2.415150860610     -2.090644299720     -0.001705461290
  H                                                -3.601938315865      0.083275494352     -0.001243663223
  H                                                 2.353561738955      1.780352152427     -0.881524332033
  H                                                 3.636699242181      0.918066374773     -0.001677011235
  H                                                 2.355266062035      1.782326761713      0.878736938550
 Recover connectivity data from disk.
 ITRead=  0  0  0  0  0  0  0  0  0  0  0  0  0  0  0  0  0
 MicOpt= -1 -1 -1 -1 -1 -1 -1 -1 -1 -1 -1 -1 -1 -1 -1 -1 -1
 NAtoms=     17 NQM=       17 NQMF=       0 NMMI=      0 NMMIF=      0
                NMic=       0 NMicF=      0.
                    Isotopes and Nuclear Properties:
 (Nuclear quadrupole moments (NQMom) in fm**2, nuclear magnetic moments (NMagM)
  in nuclear magnetons)

  Atom         1           2           3           4           5           6           7           8           9          10
 IAtWgt=          16          12          12          12          12          12          12          12          12           1
 AtmWgt=  15.9949146  12.0000000  12.0000000  12.0000000  12.0000000  12.0000000  12.0000000  12.0000000  12.0000000   1.0078250
 NucSpn=           0           0           0           0           0           0           0           0           0           1
 AtZEff=   5.6000000   3.6000000   3.6000000   3.6000000   3.6000000   3.6000000   3.6000000   3.6000000   3.6000000   1.0000000
 NQMom=    0.0000000   0.0000000   0.0000000   0.0000000   0.0000000   0.0000000   0.0000000   0.0000000   0.0000000   0.0000000
 NMagM=    0.0000000   0.0000000   0.0000000   0.0000000   0.0000000   0.0000000   0.0000000   0.0000000   0.0000000   2.7928460
 AtZNuc=   8.0000000   6.0000000   6.0000000   6.0000000   6.0000000   6.0000000   6.0000000   6.0000000   6.0000000   1.0000000

  Atom        11          12          13          14          15          16          17
 IAtWgt=           1           1           1           1           1           1           1
 AtmWgt=   1.0078250   1.0078250   1.0078250   1.0078250   1.0078250   1.0078250   1.0078250
 NucSpn=           1           1           1           1           1           1           1
 AtZEff=   1.0000000   1.0000000   1.0000000   1.0000000   1.0000000   1.0000000   1.0000000
 NQMom=    0.0000000   0.0000000   0.0000000   0.0000000   0.0000000   0.0000000   0.0000000
 NMagM=    2.7928460   2.7928460   2.7928460   2.7928460   2.7928460   2.7928460   2.7928460
 AtZNuc=   1.0000000   1.0000000   1.0000000   1.0000000   1.0000000   1.0000000   1.0000000
 Leave Link  101 at Wed Feb  7 20:07:42 2024, MaxMem=  6710886400 cpu:               2.8 elap:               0.2
 (Enter /tmpu/scunam/7/gaussian-2016.03/g1/g16/l103.exe)

 GradGradGradGradGradGradGradGradGradGradGradGradGradGradGradGradGradGrad
 Berny optimization.
 Initialization pass.
 Trust Radius=3.00D-01 FncErr=1.00D-07 GrdErr=1.00D-07 EigMax=2.50D+02 EigMin=1.00D-04
 Number of steps in this run=      2 maximum allowed number of steps=      2.
 GradGradGradGradGradGradGradGradGradGradGradGradGradGradGradGradGradGrad

 Leave Link  103 at Wed Feb  7 20:07:42 2024, MaxMem=  6710886400 cpu:               0.7 elap:               0.1
 (Enter /tmpu/scunam/7/gaussian-2016.03/g1/g16/l202.exe)
                          Input orientation:                          
 ---------------------------------------------------------------------
 Center     Atomic      Atomic             Coordinates (Angstroms)
 Number     Number       Type             X           Y           Z
 ---------------------------------------------------------------------
      1          8           0        2.323738   -1.184385    0.002302
      2          6           0        0.273348   -0.013112    0.001067
      3          6           0       -0.405798    1.208229    0.001473
      4          6           0       -0.466616   -1.200061    0.000113
      5          6           0        1.768931   -0.104148    0.001197
      6          6           0       -1.794969    1.242544    0.000805
      7          6           0       -1.851833   -1.166021   -0.000735
      8          6           0       -2.519387    0.056410   -0.000453
      9          6           0        2.580361    1.174999   -0.000947
     10          1           0        0.144381    2.139457    0.002367
     11          1           0        0.070290   -2.139032   -0.000149
     12          1           0       -2.311184    2.194143    0.001173
     13          1           0       -2.415151   -2.090644   -0.001705
     14          1           0       -3.601938    0.083275   -0.001244
     15          1           0        2.353562    1.780352   -0.881524
     16          1           0        3.636699    0.918066   -0.001677
     17          1           0        2.355266    1.782327    0.878737
 ---------------------------------------------------------------------
                    Distance matrix (angstroms):
                    1          2          3          4          5
     1  O    0.000000
     2  C    2.361352   0.000000
     3  C    3.629735   1.397467   0.000000
     4  C    2.790399   1.398712   2.409058   0.000000
     5  C    1.214383   1.498351   2.540036   2.489718   0.000000
     6  C    4.780558   2.419629   1.389595   2.780439   3.809851
     7  C    4.175612   2.417766   2.779944   1.385635   3.773262
     8  C    4.999545   2.793601   2.407062   2.406780   4.291323
     9  C    2.373302   2.594981   2.986346   3.863286   1.514807
    10  H    3.974610   2.156430   1.081612   3.394953   2.770005
    11  H    2.447322   2.135596   3.380949   1.081635   2.650686
    12  H    5.735587   3.398791   2.145349   3.863037   4.682892
    13  H    4.824768   3.397672   3.862651   2.142412   4.631708
    14  H    6.059754   3.876485   3.388339   3.387802   5.374139
    15  H    3.093817   2.884922   2.953147   4.196850   2.161558
    16  H    2.478747   3.489876   4.052899   4.617755   2.129199
    17  H    3.093625   2.885877   2.953415   4.198766   2.161632
                    6          7          8          9         10
     6  C    0.000000
     7  C    2.409237   0.000000
     8  C    1.389855   1.392828   0.000000
     9  C    4.375852   5.012457   5.220984   0.000000
    10  H    2.136711   3.861485   3.381531   2.619960   0.000000
    11  H    3.861897   2.154369   3.395055   4.157314   4.279131
    12  H    1.082598   3.391417   2.147848   4.996586   2.456174
    13  H    3.390395   1.082708   2.149584   5.968213   4.944186
    14  H    2.146869   2.150259   1.082885   6.277953   4.273500
    15  H    4.275284   5.209822   5.243462   1.092386   2.406387
    16  H    5.441352   5.870895   6.216096   1.087136   3.699743
    17  H    4.276281   5.212092   5.245380   1.092410   2.404908
                   11         12         13         14         15
    11  H    0.000000
    12  H    4.944474   0.000000
    13  H    2.485913   4.286049   0.000000
    14  H    4.292309   2.474230   2.476770   0.000000
    15  H    4.620792   4.765525   6.204782   6.254834   0.000000
    16  H    4.697353   6.083231   6.758493   7.286614   1.778795
    17  H    4.622835   4.766075   6.207412   6.256950   1.760263
                   16         17
    16  H    0.000000
    17  H    1.778805   0.000000
 Stoichiometry    C8H8O
 Framework group  C1[X(C8H8O)]
 Deg. of freedom    45
 Full point group                 C1      NOp   1
 RotChk:  IX=2 Diff= 1.17D-15
 Largest Abelian subgroup         C1      NOp   1
 Largest concise Abelian subgroup C1      NOp   1
                         Standard orientation:                         
 ---------------------------------------------------------------------
 Center     Atomic      Atomic             Coordinates (Angstroms)
 Number     Number       Type             X           Y           Z
 ---------------------------------------------------------------------
      1          8           0        2.209483   -1.304160    0.001841
      2          6           0        0.203751   -0.057957    0.000606
      3          6           0       -0.429822    1.187635    0.001011
      4          6           0       -0.579546   -1.216766   -0.000348
      5          6           0        1.694952   -0.204169    0.000736
      6          6           0       -1.816777    1.273234    0.000344
      7          6           0       -1.962561   -1.131588   -0.001196
      8          6           0       -2.584510    0.114666   -0.000914
      9          6           0        2.553073    1.044136   -0.001409
     10          1           0        0.154376    2.097907    0.001906
     11          1           0       -0.077686   -2.174926   -0.000610
     12          1           0       -2.297494    2.243250    0.000712
     13          1           0       -2.559645   -2.034774   -0.002167
     14          1           0       -3.665330    0.181496   -0.001705
     15          1           0        2.348786    1.657453   -0.881985
     16          1           0        3.599201    0.748364   -0.002138
     17          1           0        2.350563    1.659363    0.878276
 ---------------------------------------------------------------------
 Rotational constants (GHZ):           3.7129663           1.2174198           0.9220362
 Leave Link  202 at Wed Feb  7 20:07:42 2024, MaxMem=  6710886400 cpu:               1.2 elap:               0.1
 (Enter /tmpu/scunam/7/gaussian-2016.03/g1/g16/l301.exe)
 Standard basis: def2TZVP (5D, 7F)
 Ernie: Thresh=  0.10000D-02 Tol=  0.10000D-05 Strict=F.
 There are   372 symmetry adapted cartesian basis functions of A   symmetry.
 There are   327 symmetry adapted basis functions of A   symmetry.
   327 basis functions,   523 primitive gaussians,   372 cartesian basis functions
    32 alpha electrons       32 beta electrons
       nuclear repulsion energy       401.9262704630 Hartrees.
 IExCor=  402 DFT=T Ex+Corr=B3LYP ExCW=0 ScaHFX=  0.200000
 ScaDFX=  0.800000  0.720000  1.000000  0.810000 ScalE2=  1.000000  1.000000
 IRadAn=      5 IRanWt=     -1 IRanGd=            0 ICorTp=0 IEmpDi=  4
 NAtoms=   17 NActive=   17 NUniq=   17 SFac= 1.00D+00 NAtFMM=   60 NAOKFM=F Big=F
 Integral buffers will be    131072 words long.
 Raffenetti 2 integral format.
 Two-electron integral symmetry is turned on.
 Leave Link  301 at Wed Feb  7 20:07:43 2024, MaxMem=  6710886400 cpu:               1.9 elap:               0.1
 (Enter /tmpu/scunam/7/gaussian-2016.03/g1/g16/l302.exe)
 NPDir=0 NMtPBC=     1 NCelOv=     1 NCel=       1 NClECP=     1 NCelD=      1
         NCelK=      1 NCelE2=     1 NClLst=     1 CellRange=     0.0.
 One-electron integrals computed using PRISM.
 One-electron integral symmetry used in STVInt
   1 Symmetry operations used in ECPInt.
 ECPInt:  NShTT=    8646 NPrTT=   26328 LenC2=    8395 LenP2D=   20309.
 LDataN:  DoStor=T MaxTD1= 6 Len=  172
 NBasis=   327 RedAO= T EigKep=  8.57D-06  NBF=   327
 NBsUse=   327 1.00D-06 EigRej= -1.00D+00 NBFU=   327
 Precomputing XC quadrature grid using
 IXCGrd= 4 IRadAn=           5 IRanWt=          -1 IRanGd=           0 AccXCQ= 0.00D+00.
 Generated NRdTot=       0 NPtTot=           0 NUsed=           0 NTot=          32
 NSgBfM=   371   371   371   371   371 MxSgAt=    17 MxSgA2=    17.
 Leave Link  302 at Wed Feb  7 20:07:45 2024, MaxMem=  6710886400 cpu:              38.0 elap:               2.6
 (Enter /tmpu/scunam/7/gaussian-2016.03/g1/g16/l303.exe)
 DipDrv:  MaxL=1.
 Leave Link  303 at Wed Feb  7 20:07:45 2024, MaxMem=  6710886400 cpu:               2.9 elap:               0.2
 (Enter /tmpu/scunam/7/gaussian-2016.03/g1/g16/l401.exe)
 Initial guess from the checkpoint file:  "Acetophenone.chk"
 B after Tr=     0.000000   -0.000000   -0.000000
         Rot=    1.000000    0.000000    0.000000   -0.000000 Ang=   0.00 deg.
 Guess basis will be translated and rotated to current coordinates.
 JPrj=2 DoOrth=T DoCkMO=T.
 Leave Link  401 at Wed Feb  7 20:07:47 2024, MaxMem=  6710886400 cpu:              16.0 elap:               1.1
 (Enter /tmpu/scunam/7/gaussian-2016.03/g1/g16/l502.exe)
 Integral symmetry usage will be decided dynamically.
 Closed shell SCF:
 Using DIIS extrapolation, IDIIS=  1040.
 NGot=  6710886400 LenX=  6710600291 LenY=  6710461466
 Requested convergence on RMS density matrix=1.00D-08 within 128 cycles.
 Requested convergence on MAX density matrix=1.00D-06.
 Requested convergence on             energy=1.00D-06.
 No special actions if energy rises.
 Fock matrices will be formed incrementally for  20 cycles.

 Cycle   1  Pass 1  IDiag  1:
 FoFJK:  IHMeth= 1 ICntrl=       0 DoSepK=F KAlg= 0 I1Cent=           0 FoldK=F
 IRaf= 940000000 NMat=       1 IRICut=       1 DoRegI=T DoRafI=F ISym2E= 0 IDoP0=0 IntGTp=1.
 FoFCou: FMM=F IPFlag=           0 FMFlag=      100000 FMFlg1=           0
         NFxFlg=           0 DoJE=F BraDBF=F KetDBF=F FulRan=T
         wScrn=  0.000000 ICntrl=         0 IOpCl=  0 I1Cent=           0 NGrid=           0
         NMat0=    1 NMatS0=      1 NMatT0=    0 NMatD0=    1 NMtDS0=    0 NMtDT0=    0
 Symmetry not used in FoFCou.
 E= -385.044396192469    
 DIIS: error= 1.62D-08 at cycle   1 NSaved=   1.
 NSaved= 1 IEnMin= 1 EnMin= -385.044396192469     IErMin= 1 ErrMin= 1.62D-08
 ErrMax= 1.62D-08  0.00D+00 EMaxC= 1.00D-01 BMatC= 1.02D-13 BMatP= 1.02D-13
 IDIUse=1 WtCom= 1.00D+00 WtEn= 0.00D+00
 Coeff-Com:  0.100D+01
 Coeff:      0.100D+01
 Gap=     0.192 Goal=   None    Shift=    0.000
 RMSDP=2.07D-09 MaxDP=6.50D-08              OVMax= 2.66D-07

 SCF Done:  E(RB3LYP) =  -385.044396192     A.U. after    1 cycles
            NFock=  1  Conv=0.21D-08     -V/T= 2.0050
 KE= 3.831097415996D+02 PE=-1.699721187414D+03 EE= 5.296407791594D+02
 Leave Link  502 at Wed Feb  7 20:07:52 2024, MaxMem=  6710886400 cpu:              81.0 elap:               5.5
 (Enter /tmpu/scunam/7/gaussian-2016.03/g1/g16/l508.exe)
 QCSCF skips out because SCF is already converged.
 Leave Link  508 at Wed Feb  7 20:07:52 2024, MaxMem=  6710886400 cpu:               0.5 elap:               0.1
 (Enter /tmpu/scunam/7/gaussian-2016.03/g1/g16/l801.exe)
 DoSCS=F DFT=T ScalE2(SS,OS)=  1.000000  1.000000
 Range of M.O.s used for correlation:     1   327
 NBasis=   327 NAE=    32 NBE=    32 NFC=     0 NFV=     0
 NROrb=    327 NOA=    32 NOB=    32 NVA=   295 NVB=   295

 **** Warning!!: The largest alpha MO coefficient is  0.69060534D+02

 Leave Link  801 at Wed Feb  7 20:07:52 2024, MaxMem=  6710886400 cpu:               0.9 elap:               0.1
 (Enter /tmpu/scunam/7/gaussian-2016.03/g1/g16/l1002.exe)
 Minotr:  Closed shell wavefunction.
          Direct CPHF calculation.
          Differentiating once with respect to electric field.
                with respect to dipole field.
          Electric field/nuclear overlap derivatives assumed to be zero.
          Requested convergence is 1.0D-08 RMS, and 1.0D-07 maximum.
          Secondary convergence is 1.0D-12 RMS, and 1.0D-12 maximum.
          NewPWx=F KeepS1=T KeepF1=T KeepIn=T MapXYZ=F SortEE=F KeepMc=T.
         5102 words used for storage of precomputed grid.
 Two-electron integral symmetry used by symmetrizing perturbed Fock matrices.
          MDV=    6710886400 using IRadAn=       1.
          Solving linear equations simultaneously, MaxMat=     384.
          There are     3 degrees of freedom in the 1st order CPHF.  IDoFFX=0 NUNeed=     3.
      3 vectors produced by pass  0 Test12= 3.15D-13 3.33D-08 XBig12= 1.52D+02 6.97D+00.
 AX will form     3 AO Fock derivatives at one time.
 FoFJK:  IHMeth= 1 ICntrl=       0 DoSepK=F KAlg= 0 I1Cent=           0 FoldK=F
 IRaf= 930000000 NMat=       3 IRICut=       1 DoRegI=T DoRafI=F ISym2E=-1 IDoP0=0 IntGTp=1.
 FoFCou: FMM=F IPFlag=           0 FMFlag=      100000 FMFlg1=           0
         NFxFlg=           0 DoJE=F BraDBF=F KetDBF=F FulRan=T
         wScrn=  0.000000 ICntrl=         0 IOpCl=  0 I1Cent=           0 NGrid=           0
         NMat0=    3 NMatS0=      3 NMatT0=    0 NMatD0=    3 NMtDS0=    0 NMtDT0=    0
 Petite list used in FoFCou.
      3 vectors produced by pass  1 Test12= 3.15D-13 3.33D-08 XBig12= 5.75D+01 1.77D+00.
      3 vectors produced by pass  2 Test12= 3.15D-13 3.33D-08 XBig12= 9.79D+00 9.82D-01.
      3 vectors produced by pass  3 Test12= 3.15D-13 3.33D-08 XBig12= 7.53D+00 8.87D-01.
      3 vectors produced by pass  4 Test12= 3.15D-13 3.33D-08 XBig12= 7.16D-01 1.25D-01.
      3 vectors produced by pass  5 Test12= 3.15D-13 3.33D-08 XBig12= 1.56D-01 7.65D-02.
      3 vectors produced by pass  6 Test12= 3.15D-13 3.33D-08 XBig12= 1.65D-02 3.05D-02.
      3 vectors produced by pass  7 Test12= 3.15D-13 3.33D-08 XBig12= 2.39D-03 1.45D-02.
      3 vectors produced by pass  8 Test12= 3.15D-13 3.33D-08 XBig12= 6.91D-04 6.94D-03.
      3 vectors produced by pass  9 Test12= 3.15D-13 3.33D-08 XBig12= 9.21D-05 3.34D-03.
      3 vectors produced by pass 10 Test12= 3.15D-13 3.33D-08 XBig12= 1.72D-06 2.65D-04.
      3 vectors produced by pass 11 Test12= 3.15D-13 3.33D-08 XBig12= 1.06D-07 4.75D-05.
      3 vectors produced by pass 12 Test12= 3.15D-13 3.33D-08 XBig12= 2.08D-09 6.27D-06.
      2 vectors produced by pass 13 Test12= 3.15D-13 3.33D-08 XBig12= 3.64D-11 1.36D-06.
      2 vectors produced by pass 14 Test12= 3.15D-13 3.33D-08 XBig12= 1.20D-12 1.61D-07.
 InvSVY:  IOpt=1 It=  1 EMax= 3.91D-15
 Solved reduced A of dimension    43 with     3 vectors.
 End of Minotr F.D. properties file   721 does not exist.
 End of Minotr F.D. properties file   722 does not exist.
 End of Minotr F.D. properties file   788 does not exist.
 Leave Link 1002 at Wed Feb  7 20:09:29 2024, MaxMem=  6710886400 cpu:            1450.1 elap:              96.4
 (Enter /tmpu/scunam/7/gaussian-2016.03/g1/g16/l1101.exe)
 Using compressed storage, NAtomX=    17.
 Will process     18 centers per pass.
   1 Symmetry operations used in ECPInt.
 ECPInt:  NShTT=    8646 NPrTT=   26328 LenC2=    8395 LenP2D=   20309.
 LDataN:  DoStor=T MaxTD1= 7 Len=  274
 Leave Link 1101 at Wed Feb  7 20:09:31 2024, MaxMem=  6710886400 cpu:              24.6 elap:               1.7
 (Enter /tmpu/scunam/7/gaussian-2016.03/g1/g16/l1102.exe)
 Symmetrizing basis deriv contribution to polar:
 IMax=3 JMax=2 DiffMx= 0.00D+00
 Leave Link 1102 at Wed Feb  7 20:09:31 2024, MaxMem=  6710886400 cpu:               2.2 elap:               0.2
 (Enter /tmpu/scunam/7/gaussian-2016.03/g1/g16/l1110.exe)
 Forming Gx(P) for the SCF density, NAtomX=    17.
 Integral derivatives from FoFJK, PRISM(SPDF).
 Do as many integral derivatives as possible in FoFJK.
 G2DrvN: MDV=    6710885040.
 G2DrvN: will do    18 centers at a time, making    1 passes.
 PxScal for G2LodP:  IOpCl= 0 ISclPx=1 IMOff=     1 NMtTot=     4 NTT=   53628 ScalPx= 4.73D+00
 Calling FoFCou, ICntrl=  3107 FMM=F I1Cent=   0 AccDes= 0.00D+00.
 FoFJK:  IHMeth= 1 ICntrl=    3107 DoSepK=F KAlg= 0 I1Cent=           0 FoldK=F
 IRaf=         0 NMat=       1 IRICut=       1 DoRegI=T DoRafI=F ISym2E= 0 IDoP0=0 IntGTp=1.
 FoFCou: FMM=F IPFlag=           0 FMFlag=      100000 FMFlg1=           0
         NFxFlg=           0 DoJE=F BraDBF=F KetDBF=F FulRan=T
         wScrn=  0.000000 ICntrl=      3107 IOpCl=  0 I1Cent=           0 NGrid=           0
         NMat0=    1 NMatS0=      1 NMatT0=    0 NMatD0=    4 NMtDS0=    3 NMtDT0=    0
 Symmetry not used in FoFCou.
 End of G2Drv F.D. properties file   721 does not exist.
 End of G2Drv F.D. properties file   722 does not exist.
 End of G2Drv F.D. properties file   788 does not exist.
 Leave Link 1110 at Wed Feb  7 20:11:31 2024, MaxMem=  6710886400 cpu:            1810.5 elap:             119.9
 (Enter /tmpu/scunam/7/gaussian-2016.03/g1/g16/l1002.exe)
 Minotr:  Closed shell wavefunction.
          IDoAtm=11111111111111111
          Direct CPHF calculation.
          Differentiating once with respect to electric field.
                with respect to dipole field.
          Differentiating once with respect to nuclear coordinates.
          Requested convergence is 1.0D-08 RMS, and 1.0D-07 maximum.
          Secondary convergence is 1.0D-12 RMS, and 1.0D-12 maximum.
          NewPWx=T KeepS1=F KeepF1=F KeepIn=T MapXYZ=F SortEE=F KeepMc=T.
         5102 words used for storage of precomputed grid.
 Keep R1 ints in memory in canonical form, NReq=1463964751.
 FoFCou: FMM=F IPFlag=           0 FMFlag=           0 FMFlg1=           0
         NFxFlg=           0 DoJE=F BraDBF=F KetDBF=F FulRan=T
         wScrn=  0.000000 ICntrl=       600 IOpCl=  0 I1Cent=           0 NGrid=           0
         NMat0=    1 NMatS0=  53628 NMatT0=    0 NMatD0=    1 NMtDS0=    0 NMtDT0=    0
 Symmetry not used in FoFCou.
 Two-electron integral symmetry not used.
          MDV=    6710886400 using IRadAn=       1.
          Solving linear equations simultaneously, MaxMat=       0.
          There are    54 degrees of freedom in the 1st order CPHF.  IDoFFX=5 NUNeed=    54.
 Will reuse    3 saved solutions.
     48 vectors produced by pass  0 Test12= 1.75D-14 1.85D-09 XBig12= 1.59D-01 1.61D-01.
 AX will form    48 AO Fock derivatives at one time.
     48 vectors produced by pass  1 Test12= 1.75D-14 1.85D-09 XBig12= 2.34D-02 6.23D-02.
     48 vectors produced by pass  2 Test12= 1.75D-14 1.85D-09 XBig12= 3.52D-04 3.34D-03.
     48 vectors produced by pass  3 Test12= 1.75D-14 1.85D-09 XBig12= 1.54D-06 1.88D-04.
     48 vectors produced by pass  4 Test12= 1.75D-14 1.85D-09 XBig12= 5.15D-09 8.51D-06.
     45 vectors produced by pass  5 Test12= 1.75D-14 1.85D-09 XBig12= 8.69D-12 3.95D-07.
     19 vectors produced by pass  6 Test12= 1.75D-14 1.85D-09 XBig12= 1.08D-14 1.45D-08.
 InvSVY:  IOpt=1 It=  1 EMax= 4.44D-16
 Solved reduced A of dimension   304 with    54 vectors.
 FullF1:  Do perturbations      1 to       3.
 Isotropic polarizability for W=    0.000000       93.69 Bohr**3.
 FullF1:  Do perturbations      1 to       6.
 End of Minotr F.D. properties file   721 does not exist.
 End of Minotr F.D. properties file   722 does not exist.
 End of Minotr F.D. properties file   788 does not exist.
 Leave Link 1002 at Wed Feb  7 20:13:29 2024, MaxMem=  6710886400 cpu:            1772.6 elap:             118.4
 (Enter /tmpu/scunam/7/gaussian-2016.03/g1/g16/l601.exe)
 Copying SCF densities to generalized density rwf, IOpCl= 0 IROHF=0.

 **********************************************************************

            Population analysis using the SCF density.

 **********************************************************************

 Orbital symmetries:
       Occupied  (A) (A) (A) (A) (A) (A) (A) (A) (A) (A) (A) (A)
                 (A) (A) (A) (A) (A) (A) (A) (A) (A) (A) (A) (A)
                 (A) (A) (A) (A) (A) (A) (A) (A)
       Virtual   (A) (A) (A) (A) (A) (A) (A) (A) (A) (A) (A) (A)
                 (A) (A) (A) (A) (A) (A) (A) (A) (A) (A) (A) (A)
                 (A) (A) (A) (A) (A) (A) (A) (A) (A) (A) (A) (A)
                 (A) (A) (A) (A) (A) (A) (A) (A) (A) (A) (A) (A)
                 (A) (A) (A) (A) (A) (A) (A) (A) (A) (A) (A) (A)
                 (A) (A) (A) (A) (A) (A) (A) (A) (A) (A) (A) (A)
                 (A) (A) (A) (A) (A) (A) (A) (A) (A) (A) (A) (A)
                 (A) (A) (A) (A) (A) (A) (A) (A) (A) (A) (A) (A)
                 (A) (A) (A) (A) (A) (A) (A) (A) (A) (A) (A) (A)
                 (A) (A) (A) (A) (A) (A) (A) (A) (A) (A) (A) (A)
                 (A) (A) (A) (A) (A) (A) (A) (A) (A) (A) (A) (A)
                 (A) (A) (A) (A) (A) (A) (A) (A) (A) (A) (A) (A)
                 (A) (A) (A) (A) (A) (A) (A) (A) (A) (A) (A) (A)
                 (A) (A) (A) (A) (A) (A) (A) (A) (A) (A) (A) (A)
                 (A) (A) (A) (A) (A) (A) (A) (A) (A) (A) (A) (A)
                 (A) (A) (A) (A) (A) (A) (A) (A) (A) (A) (A) (A)
                 (A) (A) (A) (A) (A) (A) (A) (A) (A) (A) (A) (A)
                 (A) (A) (A) (A) (A) (A) (A) (A) (A) (A) (A) (A)
                 (A) (A) (A) (A) (A) (A) (A) (A) (A) (A) (A) (A)
                 (A) (A) (A) (A) (A) (A) (A) (A) (A) (A) (A) (A)
                 (A) (A) (A) (A) (A) (A) (A) (A) (A) (A) (A) (A)
                 (A) (A) (A) (A) (A) (A) (A) (A) (A) (A) (A) (A)
                 (A) (A) (A) (A) (A) (A) (A) (A) (A) (A) (A) (A)
                 (A) (A) (A) (A) (A) (A) (A) (A) (A) (A) (A) (A)
                 (A) (A) (A) (A) (A) (A) (A)
 The electronic state is 1-A.
 Alpha  occ. eigenvalues --  -19.11502 -10.26519 -10.19382 -10.19290 -10.19220
 Alpha  occ. eigenvalues --  -10.18935 -10.18751 -10.18636 -10.17791  -1.04565
 Alpha  occ. eigenvalues --   -0.87387  -0.78266  -0.76315  -0.73887  -0.63918
 Alpha  occ. eigenvalues --   -0.61919  -0.56297  -0.52121  -0.47771  -0.46875
 Alpha  occ. eigenvalues --   -0.45756  -0.45214  -0.43774  -0.42476  -0.40018
 Alpha  occ. eigenvalues --   -0.39082  -0.37012  -0.36353  -0.35711  -0.27355
 Alpha  occ. eigenvalues --   -0.26999  -0.25940
 Alpha virt. eigenvalues --   -0.06773  -0.02571   0.02540   0.03234   0.05096
 Alpha virt. eigenvalues --    0.07442   0.08966   0.10251   0.10738   0.11072
 Alpha virt. eigenvalues --    0.12064   0.13429   0.14111   0.14340   0.17190
 Alpha virt. eigenvalues --    0.19471   0.19944   0.20906   0.21591   0.21802
 Alpha virt. eigenvalues --    0.22424   0.23694   0.23827   0.24816   0.25259
 Alpha virt. eigenvalues --    0.27516   0.29742   0.31448   0.31699   0.32859
 Alpha virt. eigenvalues --    0.33858   0.34869   0.35504   0.36394   0.37513
 Alpha virt. eigenvalues --    0.39219   0.39843   0.40067   0.40143   0.41126
 Alpha virt. eigenvalues --    0.42035   0.42665   0.44698   0.46370   0.47177
 Alpha virt. eigenvalues --    0.47396   0.48298   0.49449   0.49841   0.50127
 Alpha virt. eigenvalues --    0.51885   0.55793   0.56248   0.56336   0.58587
 Alpha virt. eigenvalues --    0.61912   0.64120   0.64586   0.67083   0.68261
 Alpha virt. eigenvalues --    0.68545   0.70826   0.70909   0.71807   0.73746
 Alpha virt. eigenvalues --    0.75144   0.77404   0.78467   0.79560   0.82310
 Alpha virt. eigenvalues --    0.82980   0.84480   0.85663   0.87448   0.88391
 Alpha virt. eigenvalues --    0.91952   0.93014   0.93678   0.97383   0.99824
 Alpha virt. eigenvalues --    0.99915   1.01747   1.02613   1.04645   1.08584
 Alpha virt. eigenvalues --    1.09327   1.11600   1.12691   1.17970   1.19018
 Alpha virt. eigenvalues --    1.20848   1.21357   1.22997   1.24927   1.25761
 Alpha virt. eigenvalues --    1.26465   1.27935   1.31034   1.35460   1.37509
 Alpha virt. eigenvalues --    1.38517   1.39677   1.43308   1.44727   1.44912
 Alpha virt. eigenvalues --    1.47313   1.48402   1.49306   1.50360   1.51823
 Alpha virt. eigenvalues --    1.54656   1.59092   1.59261   1.60079   1.60557
 Alpha virt. eigenvalues --    1.61246   1.63946   1.64659   1.65961   1.68005
 Alpha virt. eigenvalues --    1.68490   1.68976   1.69711   1.77279   1.80664
 Alpha virt. eigenvalues --    1.81931   1.83610   1.88063   1.89385   1.91894
 Alpha virt. eigenvalues --    1.93412   1.95309   1.96913   2.01647   2.03265
 Alpha virt. eigenvalues --    2.03623   2.07807   2.09688   2.10503   2.12345
 Alpha virt. eigenvalues --    2.14847   2.18843   2.19864   2.22555   2.23512
 Alpha virt. eigenvalues --    2.25192   2.30066   2.32235   2.32515   2.36295
 Alpha virt. eigenvalues --    2.36831   2.39394   2.41623   2.44277   2.48621
 Alpha virt. eigenvalues --    2.50264   2.51015   2.54305   2.55325   2.57302
 Alpha virt. eigenvalues --    2.59304   2.59622   2.62891   2.65082   2.65202
 Alpha virt. eigenvalues --    2.65804   2.65992   2.67662   2.70702   2.71119
 Alpha virt. eigenvalues --    2.71837   2.73452   2.77051   2.77742   2.77951
 Alpha virt. eigenvalues --    2.80482   2.81256   2.82687   2.83871   2.86100
 Alpha virt. eigenvalues --    2.88037   2.89027   2.89781   2.93211   2.96271
 Alpha virt. eigenvalues --    2.98323   2.99332   3.00518   3.02043   3.06627
 Alpha virt. eigenvalues --    3.07658   3.07954   3.10546   3.11367   3.11777
 Alpha virt. eigenvalues --    3.13318   3.13354   3.15323   3.16930   3.18327
 Alpha virt. eigenvalues --    3.19860   3.21119   3.22634   3.25858   3.27011
 Alpha virt. eigenvalues --    3.27088   3.28822   3.30917   3.32284   3.32380
 Alpha virt. eigenvalues --    3.35771   3.36796   3.37757   3.38585   3.41366
 Alpha virt. eigenvalues --    3.42103   3.45124   3.46022   3.47086   3.50773
 Alpha virt. eigenvalues --    3.51088   3.53121   3.53139   3.56437   3.57995
 Alpha virt. eigenvalues --    3.64061   3.65674   3.68092   3.70897   3.71195
 Alpha virt. eigenvalues --    3.76196   3.80989   3.83119   3.86671   3.88197
 Alpha virt. eigenvalues --    3.92716   3.93899   3.95256   3.98461   4.00386
 Alpha virt. eigenvalues --    4.05556   4.08090   4.12031   4.18004   4.18853
 Alpha virt. eigenvalues --    4.19774   4.21089   4.21973   4.22339   4.25365
 Alpha virt. eigenvalues --    4.29258   4.32827   4.34510   4.34651   4.36540
 Alpha virt. eigenvalues --    4.41800   4.51449   4.56538   4.64109   4.65808
 Alpha virt. eigenvalues --    4.67338   4.68281   4.72165   4.86006   4.86803
 Alpha virt. eigenvalues --    4.88424   4.99824   5.04493   5.19923   5.20290
 Alpha virt. eigenvalues --    5.21885   5.23990   5.34141   5.39120   5.43111
 Alpha virt. eigenvalues --    5.58972   5.63677   5.76282   6.11523   6.37883
 Alpha virt. eigenvalues --    6.37976   6.59268   6.60883   6.80996   7.07032
 Alpha virt. eigenvalues --    7.09263  22.02168  22.37682  22.55644  22.58715
 Alpha virt. eigenvalues --   22.72394  22.79333  23.09208  23.30680  43.87417
          Condensed to atoms (all electrons):
               1          2          3          4          5          6
     1  O    7.812919  -0.220431   0.008120   0.038577   0.708327  -0.000264
     2  C   -0.220431   5.931200   0.419882   0.190269   0.000787  -0.030183
     3  C    0.008120   0.419882   5.027487  -0.077067  -0.018785   0.507201
     4  C    0.038577   0.190269  -0.077067   5.177537   0.000206  -0.047835
     5  C    0.708327   0.000787  -0.018785   0.000206   4.841528  -0.000652
     6  C   -0.000264  -0.030183   0.507201  -0.047835  -0.000652   4.863649
     7  C    0.001558  -0.009642  -0.046100   0.439745   0.006381  -0.026810
     8  C    0.000304  -0.064449  -0.022388   0.002356  -0.000223   0.498851
     9  C   -0.095842  -0.241915  -0.000392   0.043962   0.364339  -0.002222
    10  H    0.000191  -0.047813   0.414715   0.006615  -0.006599  -0.032539
    11  H    0.027838  -0.072821   0.009301   0.435500   0.000431  -0.002401
    12  H    0.000007   0.008620  -0.049065  -0.001415   0.000197   0.423866
    13  H   -0.000142   0.011599  -0.001717  -0.052354  -0.000744   0.009358
    14  H   -0.000002  -0.001522   0.008961   0.008125   0.000092  -0.046004
    15  H    0.002599   0.017074  -0.000737  -0.004030  -0.033839   0.000725
    16  H    0.011169   0.019615  -0.001395  -0.001427  -0.049157   0.000006
    17  H    0.002596   0.016842  -0.000659  -0.004001  -0.033586   0.000735
               7          8          9         10         11         12
     1  O    0.001558   0.000304  -0.095842   0.000191   0.027838   0.000007
     2  C   -0.009642  -0.064449  -0.241915  -0.047813  -0.072821   0.008620
     3  C   -0.046100  -0.022388  -0.000392   0.414715   0.009301  -0.049065
     4  C    0.439745   0.002356   0.043962   0.006615   0.435500  -0.001415
     5  C    0.006381  -0.000223   0.364339  -0.006599   0.000431   0.000197
     6  C   -0.026810   0.498851  -0.002222  -0.032539  -0.002401   0.423866
     7  C    4.921502   0.463268  -0.001226  -0.000440  -0.054100   0.007904
     8  C    0.463268   4.878280   0.000390   0.005746   0.010266  -0.044351
     9  C   -0.001226   0.000390   5.142194   0.005352   0.003843   0.000076
    10  H   -0.000440   0.005746   0.005352   0.540979  -0.000192  -0.006173
    11  H   -0.054100   0.010266   0.003843  -0.000192   0.509415   0.000073
    12  H    0.007904  -0.044351   0.000076  -0.006173   0.000073   0.553211
    13  H    0.430287  -0.050820  -0.000010   0.000082  -0.006492  -0.000276
    14  H   -0.047069   0.421584  -0.000004  -0.000292  -0.000196  -0.006621
    15  H    0.000144  -0.000089   0.375656  -0.001625  -0.000207  -0.000022
    16  H    0.000013   0.000005   0.394985   0.000122  -0.000184  -0.000003
    17  H    0.000142  -0.000088   0.375430  -0.001596  -0.000205  -0.000022
              13         14         15         16         17
     1  O   -0.000142  -0.000002   0.002599   0.011169   0.002596
     2  C    0.011599  -0.001522   0.017074   0.019615   0.016842
     3  C   -0.001717   0.008961  -0.000737  -0.001395  -0.000659
     4  C   -0.052354   0.008125  -0.004030  -0.001427  -0.004001
     5  C   -0.000744   0.000092  -0.033839  -0.049157  -0.033586
     6  C    0.009358  -0.046004   0.000725   0.000006   0.000735
     7  C    0.430287  -0.047069   0.000144   0.000013   0.000142
     8  C   -0.050820   0.421584  -0.000089   0.000005  -0.000088
     9  C   -0.000010  -0.000004   0.375656   0.394985   0.375430
    10  H    0.000082  -0.000292  -0.001625   0.000122  -0.001596
    11  H   -0.006492  -0.000196  -0.000207  -0.000184  -0.000205
    12  H   -0.000276  -0.006621  -0.000022  -0.000003  -0.000022
    13  H    0.551598  -0.006726   0.000002   0.000000   0.000002
    14  H   -0.006726   0.552968   0.000001   0.000000   0.000001
    15  H    0.000002   0.000001   0.561760  -0.013739  -0.030575
    16  H    0.000000   0.000000  -0.013739   0.518351  -0.013744
    17  H    0.000002   0.000001  -0.030575  -0.013744   0.561911
 Mulliken charges:
               1
     1  O   -0.297523
     2  C    0.072889
     3  C   -0.177362
     4  C   -0.154763
     5  C    0.221299
     6  C   -0.115482
     7  C   -0.085557
     8  C   -0.098644
     9  C   -0.364615
    10  H    0.123469
    11  H    0.140131
    12  H    0.113995
    13  H    0.116353
    14  H    0.116706
    15  H    0.126903
    16  H    0.135384
    17  H    0.126817
 Sum of Mulliken charges =  -0.00000
 Mulliken charges with hydrogens summed into heavy atoms:
               1
     1  O   -0.297523
     2  C    0.072889
     3  C   -0.053893
     4  C   -0.014633
     5  C    0.221299
     6  C   -0.001486
     7  C    0.030796
     8  C    0.018062
     9  C    0.024490
 APT charges:
               1
     1  O   -0.738380
     2  C   -0.274458
     3  C    0.002259
     4  C   -0.009491
     5  C    0.983233
     6  C   -0.076598
     7  C   -0.059722
     8  C    0.010397
     9  C   -0.114699
    10  H    0.046604
    11  H    0.080391
    12  H    0.032745
    13  H    0.032525
    14  H    0.037306
    15  H    0.015313
    16  H    0.017221
    17  H    0.015353
 Sum of APT charges =   0.00000
 APT charges with hydrogens summed into heavy atoms:
               1
     1  O   -0.738380
     2  C   -0.274458
     3  C    0.048864
     4  C    0.070900
     5  C    0.983233
     6  C   -0.043853
     7  C   -0.027197
     8  C    0.047703
     9  C   -0.066811
 Electronic spatial extent (au):  <R**2>=           1232.8258
 Charge=              0.0000 electrons
 Dipole moment (field-independent basis, Debye):
    X=             -1.9301    Y=              2.4648    Z=             -0.0039  Tot=              3.1306
 Quadrupole moment (field-independent basis, Debye-Ang):
   XX=            -51.5861   YY=            -51.2842   ZZ=            -55.4911
   XY=              6.5814   XZ=             -0.0040   YZ=              0.0102
 Traceless Quadrupole moment (field-independent basis, Debye-Ang):
   XX=              1.2011   YY=              1.5029   ZZ=             -2.7040
   XY=              6.5814   XZ=             -0.0040   YZ=              0.0102
 Octapole moment (field-independent basis, Debye-Ang**2):
  XXX=            -14.9399  YYY=              0.7278  ZZZ=              0.0056  XYY=             -9.3832
  XXY=             13.5620  XXZ=             -0.0354  XZZ=              9.3765  YZZ=             -1.0429
  YYZ=             -0.0038  XYZ=              0.0068
 Hexadecapole moment (field-independent basis, Debye-Ang**3):
 XXXX=          -1115.6761 YYYY=           -413.4750 ZZZZ=            -68.9105 XXXY=             26.3683
 XXXZ=             -0.0811 YYYX=              2.7789 YYYZ=              0.0550 ZZZX=             -0.0901
 ZZZY=             -0.0076 XXYY=           -272.1040 XXZZ=           -216.6199 YYZZ=            -87.6122
 XXYZ=              0.0498 YYXZ=             -0.0290 ZZXY=             -1.1832
 N-N= 4.019262704630D+02 E-N=-1.699721186926D+03  KE= 3.831097415996D+02
  Exact polarizability: 125.806  -0.775 101.056   0.023   0.009  54.222
 Approx polarizability: 187.950 -10.534 174.250   0.055   0.018  86.428
 No NMR shielding tensors so no spin-rotation constants.
 Leave Link  601 at Wed Feb  7 20:13:30 2024, MaxMem=  6710886400 cpu:              14.1 elap:               1.0
 (Enter /tmpu/scunam/7/gaussian-2016.03/g1/g16/l701.exe)
 ... and contract with generalized density number  0.
 Compute integral second derivatives.
   1 Symmetry operations used in ECPInt.
 ECPInt:  NShTT=    8646 NPrTT=   26328 LenC2=    8395 LenP2D=   20309.
 LDataN:  DoStor=T MaxTD1= 8 Len=  415
 Leave Link  701 at Wed Feb  7 20:13:32 2024, MaxMem=  6710886400 cpu:              19.9 elap:               1.3
 (Enter /tmpu/scunam/7/gaussian-2016.03/g1/g16/l702.exe)
 L702 exits ... SP integral derivatives will be done elsewhere.
 Leave Link  702 at Wed Feb  7 20:13:32 2024, MaxMem=  6710886400 cpu:               0.8 elap:               0.1
 (Enter /tmpu/scunam/7/gaussian-2016.03/g1/g16/l703.exe)
 Integral derivatives from FoFJK, PRISM(SPDF).
 Compute integral second derivatives, UseDBF=F ICtDFT=           0.
 Calling FoFJK, ICntrl=    100127 FMM=F ISym2X=0 I1Cent= 0 IOpClX= 0 NMat=1 NMatS=1 NMatT=0.
 FoFJK:  IHMeth= 1 ICntrl=  100127 DoSepK=F KAlg= 0 I1Cent=           0 FoldK=F
 IRaf=         0 NMat=       1 IRICut=       1 DoRegI=T DoRafI=F ISym2E= 0 IDoP0=0 IntGTp=1.
 FoFCou: FMM=F IPFlag=           0 FMFlag=      100000 FMFlg1=         800
         NFxFlg=           0 DoJE=F BraDBF=F KetDBF=F FulRan=T
         wScrn=  0.000000 ICntrl=    100127 IOpCl=  0 I1Cent=           0 NGrid=           0
         NMat0=    1 NMatS0=      1 NMatT0=    0 NMatD0=    1 NMtDS0=    0 NMtDT0=    0
 Symmetry not used in FoFCou.
 Leave Link  703 at Wed Feb  7 20:16:35 2024, MaxMem=  6710886400 cpu:            2761.8 elap:             183.1
 (Enter /tmpu/scunam/7/gaussian-2016.03/g1/g16/l716.exe)
 Dipole        =-7.59359925D-01 9.69745452D-01-1.52229302D-03
 Polarizability= 1.25806133D+02-7.74975065D-01 1.01056051D+02
                 2.30355625D-02 8.84585105D-03 5.42217228D+01
 HyperPolar    = 2.91806851D+02 3.47042270D+00-3.94586472D+01
                 5.19475047D+01-2.23663155D-02-1.23454852D-02
                -8.71587446D-03-1.17319374D+01 3.18108689D+01
                -6.99127894D-02
 Full mass-weighted force constant matrix:
 Low frequencies ---   -4.4255   -0.0001    0.0006    0.0007    2.3409    4.2168
 Low frequencies ---   55.2735  150.5749  153.1079
 Diagonal vibrational polarizability:
       10.7189294       2.2764526      36.8859952
 Diagonal vibrational hyperpolarizability:
      -68.3454891       4.4868007      -1.8921961
 Harmonic frequencies (cm**-1), IR intensities (KM/Mole), Raman scattering
 activities (A**4/AMU), depolarization ratios for plane and unpolarized
 incident light, reduced masses (AMU), force constants (mDyne/A),
 and normal coordinates:
                      1                      2                      3
                      A                      A                      A
 Frequencies --     55.2618               150.5747               153.1077
 Red. masses --      4.0666                 1.0756                 3.7353
 Frc consts  --      0.0073                 0.0144                 0.0516
 IR Inten    --      3.6226                 0.0872                 0.0068
 Raman Activ --      0.6670                 0.4101                 1.9206
 Depolar (P) --      0.7500                 0.7500                 0.7500
 Depolar (U) --      0.8571                 0.8571                 0.8571
  Atom  AN      X      Y      Z        X      Y      Z        X      Y      Z
     1   8     0.00   0.00   0.27    -0.00  -0.00   0.00     0.00  -0.00  -0.17
     2   6     0.00  -0.00   0.01     0.00   0.00  -0.03    -0.00  -0.00   0.25
     3   6    -0.00  -0.00   0.15    -0.00   0.00  -0.02    -0.00  -0.00   0.21
     4   6     0.00   0.00  -0.14     0.00   0.00  -0.04    -0.00  -0.00   0.20
     5   6     0.00   0.00   0.03     0.00   0.00   0.00    -0.00  -0.00   0.04
     6   6    -0.00  -0.00   0.15    -0.00  -0.00   0.02     0.00   0.00  -0.04
     7   6     0.00   0.00  -0.17     0.00  -0.00   0.00     0.00   0.00  -0.04
     8   6     0.00   0.00  -0.02    -0.00  -0.00   0.04     0.00   0.00  -0.22
     9   6    -0.00  -0.00  -0.29     0.00  -0.00   0.02    -0.00   0.00  -0.11
    10   1    -0.00  -0.00   0.27    -0.00   0.00  -0.03    -0.00  -0.00   0.28
    11   1     0.00   0.00  -0.24     0.00   0.00  -0.06    -0.00  -0.00   0.25
    12   1    -0.00  -0.00   0.28    -0.00  -0.00   0.05     0.00   0.00  -0.14
    13   1     0.00   0.00  -0.30     0.00  -0.00   0.01     0.00   0.00  -0.13
    14   1     0.00   0.00  -0.03    -0.00  -0.00   0.09     0.00   0.00  -0.47
    15   1    -0.13  -0.13  -0.35     0.38  -0.32  -0.30     0.11  -0.25  -0.31
    16   1    -0.00  -0.00  -0.38     0.00   0.00   0.56    -0.00   0.00   0.09
    17   1     0.13   0.13  -0.35    -0.38   0.32  -0.30    -0.11   0.25  -0.31
                      4                      5                      6
                      A                      A                      A
 Frequencies --    218.4691               365.8719               413.3380
 Red. masses --      3.8918                 4.5232                 2.9103
 Frc consts  --      0.1094                 0.3567                 0.2930
 IR Inten    --      5.0609                 0.7550                 0.0029
 Raman Activ --      0.0995                 3.8497                 0.0097
 Depolar (P) --      0.7090                 0.1899                 0.7500
 Depolar (U) --      0.8297                 0.3192                 0.8571
  Atom  AN      X      Y      Z        X      Y      Z        X      Y      Z
     1   8    -0.20  -0.04  -0.00     0.24   0.11   0.00    -0.00   0.00   0.01
     2   6     0.00   0.18   0.00    -0.02  -0.06  -0.00    -0.00  -0.00  -0.03
     3   6    -0.11   0.12   0.00    -0.09  -0.09   0.00     0.00   0.00  -0.19
     4   6     0.11   0.11   0.00    -0.15  -0.02   0.00    -0.00  -0.00   0.23
     5   6    -0.00   0.05   0.00     0.11   0.05  -0.00    -0.00   0.00  -0.04
     6   6    -0.13  -0.04   0.00    -0.11  -0.03   0.00    -0.00  -0.00   0.22
     7   6     0.11  -0.06  -0.00    -0.18   0.03   0.00     0.00   0.00  -0.19
     8   6    -0.02  -0.12  -0.00    -0.19   0.03  -0.00     0.00   0.00  -0.03
     9   6     0.24  -0.13  -0.00     0.29  -0.03  -0.00    -0.00   0.00   0.01
    10   1    -0.19   0.19   0.00    -0.10  -0.08   0.00     0.00   0.00  -0.44
    11   1     0.22   0.17   0.00    -0.26  -0.08   0.00    -0.00  -0.00   0.50
    12   1    -0.24  -0.10  -0.00    -0.03   0.01   0.00    -0.00  -0.00   0.46
    13   1     0.21  -0.12  -0.00    -0.17   0.03   0.00     0.00   0.00  -0.40
    14   1    -0.02  -0.23  -0.00    -0.19   0.06  -0.00     0.00   0.00  -0.06
    15   1     0.36  -0.09   0.00     0.45   0.02  -0.00     0.04   0.04   0.02
    16   1     0.18  -0.35  -0.00     0.22  -0.30   0.00    -0.00   0.00   0.04
    17   1     0.36  -0.09  -0.00     0.45   0.02   0.00    -0.04  -0.04   0.02
                      7                      8                      9
                      A                      A                      A
 Frequencies --    431.5521               465.5503               597.8188
 Red. masses --      3.3309                 4.5134                 4.3719
 Frc consts  --      0.3655                 0.5763                 0.9206
 IR Inten    --      0.2941                 0.7506                25.6027
 Raman Activ --      0.1366                 1.8864                 2.4529
 Depolar (P) --      0.7497                 0.5269                 0.5086
 Depolar (U) --      0.8570                 0.6902                 0.6742
  Atom  AN      X      Y      Z        X      Y      Z        X      Y      Z
     1   8     0.00  -0.00  -0.08     0.23  -0.18   0.00    -0.21  -0.16  -0.00
     2   6     0.00   0.00   0.25     0.08   0.12  -0.00     0.14  -0.03  -0.00
     3   6    -0.00   0.00  -0.13    -0.10   0.11   0.00     0.04  -0.13  -0.00
     4   6     0.00   0.00  -0.06     0.04   0.19   0.00    -0.03   0.05  -0.00
     5   6     0.00  -0.00   0.20     0.16  -0.19  -0.00     0.19   0.02   0.00
     6   6    -0.00   0.00  -0.10    -0.14   0.00   0.00     0.02  -0.12   0.00
     7   6    -0.00   0.00  -0.16     0.02   0.07   0.00    -0.06   0.05   0.00
     8   6    -0.00  -0.00   0.21    -0.13  -0.02  -0.00    -0.14   0.01  -0.00
     9   6    -0.00  -0.00  -0.02    -0.12  -0.07   0.00     0.13   0.28  -0.00
    10   1    -0.00   0.00  -0.38    -0.26   0.21   0.00    -0.06  -0.07   0.00
    11   1     0.00   0.00  -0.22     0.05   0.19   0.00    -0.17  -0.02   0.00
    12   1    -0.00   0.00  -0.25    -0.18  -0.01   0.00     0.15  -0.05   0.00
    13   1     0.00   0.00  -0.39     0.15  -0.01   0.00     0.02  -0.00   0.00
    14   1    -0.00  -0.00   0.45    -0.13  -0.11  -0.00    -0.13   0.07  -0.00
    15   1    -0.18  -0.17  -0.09    -0.39  -0.15   0.01    -0.11   0.21   0.01
    16   1    -0.00   0.00  -0.21    -0.01   0.35   0.00     0.25   0.68  -0.00
    17   1     0.18   0.16  -0.09    -0.39  -0.15  -0.01    -0.10   0.22  -0.01
                     10                     11                     12
                      A                      A                      A
 Frequencies --    603.5410               633.4923               706.0250
 Red. masses --      2.4000                 6.4011                 1.8531
 Frc consts  --      0.5151                 1.5135                 0.5442
 IR Inten    --     11.9360                 0.9789                38.3938
 Raman Activ --      0.3127                 5.1387                 0.0232
 Depolar (P) --      0.7500                 0.7499                 0.7500
 Depolar (U) --      0.8571                 0.8571                 0.8571
  Atom  AN      X      Y      Z        X      Y      Z        X      Y      Z
     1   8     0.00   0.00  -0.08    -0.03  -0.03   0.00     0.00  -0.00  -0.01
     2   6    -0.00   0.00  -0.13     0.00  -0.14  -0.00    -0.00   0.00  -0.12
     3   6    -0.00   0.00  -0.07    -0.24  -0.22  -0.00    -0.00   0.00   0.08
     4   6     0.00  -0.00  -0.05     0.22  -0.23   0.00    -0.00  -0.00   0.09
     5   6    -0.00   0.00   0.26     0.03   0.01  -0.00     0.00  -0.00   0.01
     6   6    -0.00   0.00   0.08    -0.24   0.24  -0.00     0.00   0.00  -0.15
     7   6     0.00  -0.00   0.07     0.27   0.23   0.00     0.00   0.00  -0.15
     8   6     0.00   0.00  -0.10    -0.01   0.15   0.00     0.00  -0.00   0.08
     9   6    -0.00  -0.00   0.03     0.02   0.01  -0.00     0.00   0.00   0.00
    10   1     0.00  -0.00   0.12    -0.10  -0.31  -0.00    -0.00  -0.00   0.52
    11   1     0.00  -0.00   0.15     0.06  -0.31  -0.00    -0.00  -0.00   0.50
    12   1    -0.00   0.00   0.33    -0.07   0.33  -0.00    -0.00  -0.00   0.20
    13   1    -0.00  -0.00   0.33     0.13   0.32  -0.00    -0.00  -0.00   0.17
    14   1     0.00  -0.00  -0.06    -0.03  -0.27  -0.00    -0.00  -0.00   0.58
    15   1    -0.32  -0.37  -0.16    -0.01   0.01   0.00    -0.03  -0.03  -0.01
    16   1    -0.00  -0.00  -0.29     0.03   0.05   0.00     0.00   0.00  -0.01
    17   1     0.32   0.37  -0.16    -0.01   0.01  -0.00     0.03   0.03  -0.01
                     13                     14                     15
                      A                      A                      A
 Frequencies --    742.7616               778.5435               864.6613
 Red. masses --      5.1069                 1.7062                 1.2490
 Frc consts  --      1.6600                 0.6093                 0.5502
 IR Inten    --      0.6396                36.1043                 0.2434
 Raman Activ --     12.5548                 0.2794                 0.0124
 Depolar (P) --      0.0953                 0.7500                 0.7489
 Depolar (U) --      0.1741                 0.8571                 0.8564
  Atom  AN      X      Y      Z        X      Y      Z        X      Y      Z
     1   8     0.04  -0.14   0.00    -0.00  -0.00   0.01    -0.00   0.00   0.00
     2   6    -0.17   0.01  -0.00    -0.00  -0.00   0.18    -0.00   0.00   0.01
     3   6    -0.07   0.21   0.00     0.00   0.00  -0.10    -0.00  -0.00   0.08
     4   6    -0.09  -0.18  -0.00     0.00  -0.00  -0.08     0.00   0.00  -0.07
     5   6     0.09  -0.09   0.00    -0.00  -0.00  -0.04     0.00  -0.00  -0.00
     6   6    -0.08   0.23   0.00    -0.00   0.00  -0.00    -0.00  -0.00   0.07
     7   6    -0.09  -0.21  -0.00    -0.00  -0.00   0.01     0.00   0.00  -0.08
     8   6     0.22  -0.02   0.00     0.00   0.00  -0.12     0.00   0.00  -0.02
     9   6     0.14   0.17  -0.00     0.00   0.00  -0.03    -0.00  -0.00  -0.00
    10   1     0.08   0.12  -0.00    -0.00  -0.00   0.15     0.00   0.00  -0.52
    11   1     0.08  -0.10  -0.00    -0.00  -0.00   0.03    -0.00  -0.00   0.42
    12   1    -0.36   0.09  -0.00    -0.00  -0.00   0.59     0.00   0.00  -0.45
    13   1    -0.35  -0.04  -0.00    -0.00  -0.00   0.50    -0.00  -0.00   0.57
    14   1     0.22  -0.02  -0.00    -0.00  -0.00   0.48    -0.00  -0.00   0.10
    15   1    -0.00   0.13   0.01     0.11   0.15   0.05     0.00   0.00   0.00
    16   1     0.22   0.44  -0.00     0.00   0.00   0.10    -0.00   0.00  -0.01
    17   1    -0.00   0.13  -0.01    -0.11  -0.15   0.05    -0.00  -0.00   0.00
                     16                     17                     18
                      A                      A                      A
 Frequencies --    944.8657               958.0298               979.4398
 Red. masses --      1.3648                 2.1924                 1.3266
 Frc consts  --      0.7179                 1.1856                 0.7498
 IR Inten    --      1.8732                36.0113                 0.2990
 Raman Activ --      0.0384                 4.2390                 0.0562
 Depolar (P) --      0.7492                 0.1839                 0.7500
 Depolar (U) --      0.8566                 0.3106                 0.8571
  Atom  AN      X      Y      Z        X      Y      Z        X      Y      Z
     1   8     0.00  -0.00  -0.00     0.06  -0.10   0.00    -0.00   0.00  -0.00
     2   6    -0.00  -0.00   0.04    -0.05  -0.02  -0.00    -0.00  -0.00   0.02
     3   6     0.00   0.00  -0.12     0.01   0.01   0.00    -0.00  -0.00   0.06
     4   6     0.00   0.00  -0.06     0.00   0.06   0.00     0.00   0.00  -0.08
     5   6    -0.00  -0.00   0.02    -0.14  -0.13   0.00     0.00   0.00   0.01
     6   6    -0.00  -0.00   0.05     0.01  -0.03  -0.00     0.00   0.00  -0.11
     7   6     0.00   0.00  -0.04     0.06   0.06   0.00    -0.00  -0.00   0.01
     8   6    -0.00  -0.00   0.09    -0.02  -0.02  -0.00    -0.00  -0.00   0.09
     9   6    -0.00   0.00  -0.03    -0.04   0.19  -0.00    -0.00  -0.00  -0.01
    10   1    -0.00  -0.00   0.65     0.06  -0.02  -0.00     0.00   0.00  -0.37
    11   1    -0.00  -0.00   0.34     0.01   0.07  -0.00    -0.00  -0.00   0.37
    12   1     0.00   0.00  -0.29    -0.00  -0.03   0.00    -0.00  -0.00   0.63
    13   1    -0.00  -0.00   0.21     0.15   0.00  -0.00    -0.00  -0.00  -0.00
    14   1     0.00   0.00  -0.52    -0.02  -0.10   0.00     0.00   0.00  -0.54
    15   1     0.07   0.10   0.03     0.48   0.29  -0.05     0.02   0.03   0.01
    16   1    -0.00  -0.00   0.07    -0.20  -0.42   0.00     0.00   0.00   0.01
    17   1    -0.06  -0.10   0.03     0.48   0.29   0.05    -0.02  -0.03   0.01
                     19                     20                     21
                      A                      A                      A
 Frequencies --   1001.2790              1021.3955              1048.2276
 Red. masses --      1.3082                 6.2337                 2.4434
 Frc consts  --      0.7728                 3.8317                 1.5818
 IR Inten    --      0.5014                 0.8894                 5.5848
 Raman Activ --      0.0529                37.6122                18.2113
 Depolar (P) --      0.7500                 0.0654                 0.0708
 Depolar (U) --      0.8571                 0.1228                 0.1323
  Atom  AN      X      Y      Z        X      Y      Z        X      Y      Z
     1   8    -0.00   0.00  -0.01     0.00   0.00   0.00     0.01   0.01  -0.00
     2   6    -0.00   0.00   0.01    -0.01  -0.00   0.00    -0.06   0.00  -0.00
     3   6    -0.00  -0.00   0.00    -0.22  -0.34  -0.00    -0.04   0.08   0.00
     4   6     0.00   0.00  -0.10    -0.17   0.36   0.00    -0.05  -0.07  -0.00
     5   6     0.00   0.00   0.03     0.01  -0.00  -0.00    -0.02  -0.01   0.00
     6   6     0.00  -0.00   0.02    -0.01   0.03  -0.00     0.03  -0.21  -0.00
     7   6    -0.00  -0.00   0.11    -0.02  -0.03  -0.00     0.06   0.21   0.00
     8   6     0.00   0.00  -0.05     0.39  -0.03   0.00     0.13  -0.02   0.00
     9   6     0.00  -0.00  -0.03     0.02  -0.01   0.00     0.04  -0.01  -0.00
    10   1    -0.00  -0.00   0.03    -0.14  -0.40  -0.00    -0.30   0.24  -0.00
    11   1    -0.00  -0.00   0.64    -0.14   0.40  -0.00    -0.38  -0.23  -0.00
    12   1     0.00   0.00  -0.15    -0.00   0.02   0.00    -0.30  -0.39  -0.00
    13   1     0.00   0.00  -0.64     0.00  -0.02   0.00    -0.23   0.42   0.00
    14   1    -0.00  -0.00   0.32     0.40  -0.04   0.00     0.14  -0.04  -0.00
    15   1     0.06   0.09   0.03    -0.02  -0.01   0.01    -0.07  -0.02   0.02
    16   1     0.00   0.00   0.06     0.02   0.03  -0.00     0.08   0.14   0.00
    17   1    -0.06  -0.09   0.03    -0.02  -0.00  -0.01    -0.07  -0.02  -0.02
                     22                     23                     24
                      A                      A                      A
 Frequencies --   1048.7967              1094.7457              1108.6536
 Red. masses --      1.9216                 2.2531                 1.5446
 Frc consts  --      1.2454                 1.5910                 1.1186
 IR Inten    --      0.4632                 1.4877                 5.9578
 Raman Activ --      0.2460                10.1957                 0.4852
 Depolar (P) --      0.7489                 0.1852                 0.5822
 Depolar (U) --      0.8565                 0.3125                 0.7360
  Atom  AN      X      Y      Z        X      Y      Z        X      Y      Z
     1   8    -0.00  -0.00  -0.04    -0.04  -0.02   0.00     0.01  -0.03   0.00
     2   6     0.00   0.00  -0.08     0.23  -0.01   0.00     0.01   0.05   0.00
     3   6     0.00  -0.00   0.03     0.01   0.03   0.00    -0.11  -0.03  -0.00
     4   6     0.00   0.00   0.04    -0.03  -0.03  -0.00     0.09  -0.05   0.00
     5   6     0.00   0.00   0.21     0.12   0.07  -0.00     0.02   0.00  -0.00
     6   6    -0.00   0.00  -0.00    -0.08   0.05  -0.00     0.05  -0.07  -0.00
     7   6    -0.00  -0.00  -0.01    -0.06  -0.03  -0.00    -0.06  -0.04  -0.00
     8   6    -0.00   0.00  -0.00     0.07  -0.02   0.00     0.02   0.08   0.00
     9   6    -0.00  -0.00  -0.16    -0.14   0.01   0.00    -0.03   0.02   0.00
    10   1     0.00  -0.00  -0.14    -0.15   0.15   0.00    -0.44   0.18  -0.00
    11   1     0.00   0.00  -0.23    -0.43  -0.24   0.00     0.47   0.13   0.00
    12   1     0.00   0.00   0.01    -0.31  -0.06  -0.00     0.21   0.00   0.00
    13   1     0.00  -0.00   0.07    -0.19   0.06  -0.00    -0.31   0.12  -0.00
    14   1    -0.00   0.00   0.01     0.06  -0.08   0.00     0.05   0.54   0.00
    15   1     0.30   0.51   0.14     0.21   0.02  -0.07     0.09   0.03  -0.02
    16   1     0.00  -0.00   0.33    -0.28  -0.52   0.00    -0.08  -0.16   0.00
    17   1    -0.30  -0.50   0.15     0.21   0.02   0.07     0.09   0.03   0.02
                     25                     26                     27
                      A                      A                      A
 Frequencies --   1185.8717              1202.9194              1275.6496
 Red. masses --      1.1218                 1.1493                 3.6274
 Frc consts  --      0.9295                 0.9798                 3.4778
 IR Inten    --      0.6841                15.8652               177.9553
 Raman Activ --      5.2622                 3.5809                29.6240
 Depolar (P) --      0.7484                 0.2644                 0.1860
 Depolar (U) --      0.8561                 0.4183                 0.3136
  Atom  AN      X      Y      Z        X      Y      Z        X      Y      Z
     1   8     0.00  -0.00   0.00     0.00   0.00  -0.00    -0.02  -0.05   0.00
     2   6    -0.01   0.00   0.00     0.01   0.00  -0.00    -0.28   0.06   0.00
     3   6    -0.00  -0.01  -0.00    -0.06   0.03  -0.00    -0.04   0.02  -0.00
     4   6    -0.01  -0.01  -0.00    -0.03  -0.02  -0.00    -0.07  -0.04  -0.00
     5   6    -0.01  -0.00  -0.00    -0.03  -0.01   0.00     0.32   0.12  -0.00
     6   6    -0.03  -0.02  -0.00     0.06   0.03   0.00     0.06  -0.06  -0.00
     7   6     0.05  -0.03   0.00     0.03  -0.03   0.00     0.07   0.05   0.00
     8   6     0.00   0.07   0.00     0.01  -0.01  -0.00    -0.01  -0.00  -0.00
     9   6     0.00  -0.00   0.00     0.02   0.00   0.00    -0.11   0.02   0.00
    10   1     0.07  -0.06   0.00    -0.45   0.28  -0.00     0.30  -0.21   0.00
    11   1    -0.21  -0.11  -0.00    -0.42  -0.21  -0.00     0.01   0.01  -0.00
    12   1    -0.35  -0.18  -0.00     0.52   0.26   0.00     0.34   0.07   0.00
    13   1     0.46  -0.30   0.00     0.31  -0.22   0.00     0.29  -0.09   0.00
    14   1     0.04   0.68   0.00     0.00  -0.07  -0.00    -0.01  -0.06  -0.00
    15   1    -0.00   0.00   0.00    -0.01   0.01   0.01     0.09  -0.16  -0.15
    16   1     0.01   0.02  -0.00     0.02   0.03  -0.00    -0.25  -0.48   0.00
    17   1    -0.00   0.00  -0.00    -0.01   0.01  -0.01     0.09  -0.16   0.15
                     28                     29                     30
                      A                      A                      A
 Frequencies --   1337.5093              1355.8870              1388.1724
 Red. masses --      3.4424                 1.7012                 1.3157
 Frc consts  --      3.6283                 1.8427                 1.4938
 IR Inten    --      6.6292                 1.9282                46.2787
 Raman Activ --      0.6429                 1.2666                 1.7897
 Depolar (P) --      0.3336                 0.6087                 0.6916
 Depolar (U) --      0.5002                 0.7568                 0.8177
  Atom  AN      X      Y      Z        X      Y      Z        X      Y      Z
     1   8     0.03  -0.02   0.00     0.00  -0.00   0.00    -0.01  -0.00   0.00
     2   6     0.03   0.31   0.00     0.00   0.03   0.00    -0.02  -0.02   0.00
     3   6     0.09  -0.10  -0.00    -0.12   0.05  -0.00     0.00   0.00  -0.00
     4   6    -0.09  -0.07  -0.00     0.14   0.04   0.00    -0.02  -0.01  -0.00
     5   6    -0.05  -0.02  -0.00    -0.01  -0.01  -0.00     0.05   0.02  -0.00
     6   6    -0.16  -0.10  -0.00     0.06   0.01   0.00     0.01   0.00   0.00
     7   6     0.14  -0.12   0.00    -0.06   0.01  -0.00    -0.01   0.01  -0.00
     8   6     0.01   0.13   0.00    -0.01  -0.12  -0.00     0.00   0.01   0.00
     9   6    -0.02  -0.02   0.00    -0.02  -0.02   0.00    -0.09  -0.12   0.00
    10   1     0.29  -0.23   0.00     0.49  -0.35  -0.00    -0.06   0.04  -0.00
    11   1    -0.31  -0.18  -0.00    -0.47  -0.28  -0.00     0.10   0.05   0.00
    12   1     0.42   0.18   0.00     0.19   0.08   0.00    -0.04  -0.03  -0.00
    13   1    -0.44   0.25  -0.00    -0.25   0.14  -0.00     0.11  -0.06   0.00
    14   1    -0.00  -0.05  -0.00     0.01   0.34   0.00    -0.00  -0.08  -0.00
    15   1     0.09   0.08   0.04     0.07   0.07   0.03     0.36   0.40   0.25
    16   1     0.03   0.15  -0.00     0.03   0.12  -0.00     0.09   0.47  -0.00
    17   1     0.09   0.08  -0.04     0.07   0.07  -0.04     0.36   0.40  -0.25
                     31                     32                     33
                      A                      A                      A
 Frequencies --   1469.9694              1479.0184              1484.4107
 Red. masses --      1.0583                 1.0476                 2.2007
 Frc consts  --      1.3473                 1.3502                 2.8570
 IR Inten    --     11.1810                10.7805                16.7729
 Raman Activ --      4.9061                 8.7060                 1.8612
 Depolar (P) --      0.7130                 0.7500                 0.3967
 Depolar (U) --      0.8324                 0.8571                 0.5681
  Atom  AN      X      Y      Z        X      Y      Z        X      Y      Z
     1   8    -0.01   0.03  -0.00    -0.00   0.00   0.00    -0.02   0.02  -0.00
     2   6     0.01  -0.01  -0.00     0.00  -0.00   0.00    -0.02  -0.16  -0.00
     3   6    -0.00   0.00  -0.00     0.00   0.00   0.00     0.09   0.06   0.00
     4   6    -0.00   0.00   0.00    -0.00   0.00  -0.00    -0.08   0.07  -0.00
     5   6    -0.01  -0.02   0.00     0.00  -0.00  -0.02     0.04   0.00   0.00
     6   6    -0.01  -0.00  -0.00    -0.00  -0.00  -0.00    -0.15   0.01  -0.00
     7   6    -0.00   0.00  -0.00     0.00  -0.00  -0.00     0.14  -0.00   0.00
     8   6     0.00   0.00   0.00     0.00  -0.00  -0.00    -0.00  -0.13  -0.00
     9   6    -0.05   0.02   0.00    -0.00  -0.00  -0.06    -0.00  -0.01   0.00
    10   1    -0.02   0.02   0.00    -0.00   0.00  -0.01    -0.07   0.18   0.00
    11   1     0.02   0.01   0.00     0.00   0.00   0.00     0.08   0.17   0.00
    12   1     0.02   0.01   0.00     0.00   0.00   0.00     0.37   0.28   0.00
    13   1     0.01  -0.00   0.00    -0.00   0.00  -0.00    -0.30   0.30  -0.00
    14   1     0.00   0.00   0.00     0.00   0.00   0.00     0.05   0.64   0.00
    15   1     0.34  -0.39  -0.36    -0.48  -0.02   0.06     0.01   0.04   0.04
    16   1     0.09   0.44  -0.00     0.00   0.00   0.73     0.00   0.00  -0.00
    17   1     0.34  -0.38   0.36     0.48   0.02   0.06     0.00   0.04  -0.04
                     34                     35                     36
                      A                      A                      A
 Frequencies --   1527.0683              1622.0871              1640.9323
 Red. masses --      2.1549                 5.3676                 5.4409
 Frc consts  --      2.9607                 8.3211                 8.6319
 IR Inten    --      0.3753                 9.2546                22.0348
 Raman Activ --      2.0597                 7.5106                82.2306
 Depolar (P) --      0.3961                 0.5727                 0.5131
 Depolar (U) --      0.5674                 0.7283                 0.6782
  Atom  AN      X      Y      Z        X      Y      Z        X      Y      Z
     1   8     0.00  -0.00   0.00    -0.03   0.05  -0.00    -0.01   0.02  -0.00
     2   6     0.14   0.00   0.00    -0.02  -0.28  -0.00    -0.19   0.05  -0.00
     3   6    -0.07   0.10   0.00    -0.08   0.19   0.00     0.28  -0.11   0.00
     4   6    -0.08  -0.10  -0.00     0.13   0.17   0.00     0.29   0.04   0.00
     5   6    -0.04   0.00   0.00     0.05  -0.04   0.00     0.04  -0.04   0.00
     6   6    -0.11  -0.09  -0.00    -0.10  -0.21  -0.00    -0.27  -0.04  -0.00
     7   6    -0.10   0.12   0.00     0.01  -0.19  -0.00    -0.28   0.10  -0.00
     8   6     0.10  -0.02   0.00     0.04   0.36   0.00     0.14  -0.03   0.00
     9   6     0.01   0.00   0.00     0.00  -0.00  -0.00    -0.00   0.00  -0.00
    10   1     0.43  -0.21   0.00     0.34  -0.07   0.00    -0.31   0.28   0.00
    11   1     0.42   0.14   0.00    -0.28  -0.04  -0.00    -0.27  -0.26  -0.00
    12   1     0.44   0.17   0.00     0.28  -0.04   0.00     0.24   0.23   0.00
    13   1     0.43  -0.22   0.00    -0.18  -0.08  -0.00     0.27  -0.27   0.00
    14   1     0.12   0.02   0.00    -0.01  -0.53  -0.00     0.16   0.02   0.00
    15   1    -0.04   0.00   0.01    -0.02   0.04   0.03     0.02   0.02   0.00
    16   1     0.00  -0.01  -0.00    -0.00  -0.03  -0.00    -0.01  -0.03   0.00
    17   1    -0.04   0.00  -0.01    -0.02   0.04  -0.03     0.02   0.02  -0.00
                     37                     38                     39
                      A                      A                      A
 Frequencies --   1747.8165              3038.3684              3093.4144
 Red. masses --     10.7106                 1.0376                 1.0991
 Frc consts  --     19.2777                 5.6434                 6.1965
 IR Inten    --    188.7743                 2.7320                 7.1215
 Raman Activ --     48.9588               137.7942                42.8706
 Depolar (P) --      0.2633                 0.0058                 0.7500
 Depolar (U) --      0.4168                 0.0115                 0.8571
  Atom  AN      X      Y      Z        X      Y      Z        X      Y      Z
     1   8     0.20  -0.44   0.00    -0.00   0.00  -0.00    -0.00   0.00  -0.00
     2   6    -0.03  -0.11   0.00     0.00  -0.00  -0.00    -0.00  -0.00  -0.00
     3   6     0.05   0.01   0.00     0.00   0.00   0.00     0.00   0.00   0.00
     4   6     0.05   0.06   0.00    -0.00  -0.00  -0.00     0.00   0.00   0.00
     5   6    -0.29   0.68  -0.00     0.00   0.00  -0.00    -0.00  -0.00  -0.00
     6   6    -0.05  -0.03  -0.00    -0.00  -0.00   0.00     0.00  -0.00   0.00
     7   6    -0.02  -0.02  -0.00     0.00  -0.00  -0.00    -0.00   0.00   0.00
     8   6     0.02   0.03   0.00     0.00   0.00   0.00     0.00  -0.00  -0.00
     9   6     0.01  -0.04   0.00    -0.01  -0.05  -0.00     0.00  -0.00  -0.09
    10   1    -0.03   0.07   0.00    -0.01  -0.02  -0.00    -0.00  -0.00  -0.00
    11   1    -0.12  -0.00   0.00    -0.00   0.00   0.00    -0.00  -0.00   0.00
    12   1     0.05   0.03   0.00    -0.00   0.00   0.00    -0.00   0.00   0.00
    13   1    -0.05  -0.00  -0.00     0.00   0.00   0.00    -0.00  -0.00   0.00
    14   1     0.01  -0.03   0.00    -0.00   0.00  -0.00    -0.00   0.00  -0.00
    15   1    -0.00  -0.18  -0.10    -0.12   0.35  -0.53     0.14  -0.41   0.56
    16   1     0.08   0.28  -0.00     0.37  -0.11  -0.00    -0.00   0.00  -0.02
    17   1    -0.00  -0.18   0.10    -0.12   0.36   0.53    -0.14   0.41   0.56
                     40                     41                     42
                      A                      A                      A
 Frequencies --   3145.9007              3168.9327              3179.3764
 Red. masses --      1.1011                 1.0855                 1.0887
 Frc consts  --      6.4202                 6.4228                 6.4841
 IR Inten    --     11.5767                 0.0731                 7.9321
 Raman Activ --     89.7932                46.6487               108.3234
 Depolar (P) --      0.5544                 0.7286                 0.7464
 Depolar (U) --      0.7134                 0.8430                 0.8548
  Atom  AN      X      Y      Z        X      Y      Z        X      Y      Z
     1   8     0.00  -0.00   0.00     0.00   0.00  -0.00    -0.00  -0.00  -0.00
     2   6     0.00   0.00   0.00     0.00  -0.00   0.00     0.00   0.00   0.00
     3   6    -0.00  -0.00  -0.00     0.01   0.01   0.00     0.01   0.02   0.00
     4   6     0.00  -0.00   0.00     0.00  -0.01  -0.00    -0.01   0.01   0.00
     5   6    -0.00   0.00  -0.00    -0.00  -0.00   0.00     0.00   0.00  -0.00
     6   6    -0.00   0.00   0.00     0.02  -0.04  -0.00     0.02  -0.05  -0.00
     7   6    -0.00   0.00  -0.00     0.02   0.03   0.00    -0.03  -0.05  -0.00
     8   6    -0.00  -0.00  -0.00    -0.06   0.00  -0.00     0.00   0.00   0.00
     9   6    -0.08   0.04  -0.00    -0.00   0.00   0.00    -0.00   0.00   0.00
    10   1     0.02   0.02   0.00    -0.09  -0.14  -0.00    -0.17  -0.26  -0.00
    11   1    -0.00   0.00   0.00    -0.05   0.11   0.00     0.09  -0.17  -0.00
    12   1     0.00  -0.01  -0.00    -0.23   0.46   0.00    -0.29   0.58   0.00
    13   1    -0.00  -0.00  -0.00    -0.27  -0.41  -0.00     0.36   0.55   0.00
    14   1    -0.00  -0.00  -0.00     0.67  -0.04   0.00    -0.05  -0.00  -0.00
    15   1     0.04  -0.14   0.22     0.00  -0.00   0.00     0.00  -0.01   0.01
    16   1     0.89  -0.25  -0.00     0.01  -0.00  -0.00     0.01  -0.00  -0.00
    17   1     0.04  -0.14  -0.22     0.00  -0.00  -0.00     0.00  -0.01  -0.01
                     43                     44                     45
                      A                      A                      A
 Frequencies --   3189.4256              3199.4789              3204.5405
 Red. masses --      1.0926                 1.0936                 1.0936
 Frc consts  --      6.5485                 6.5959                 6.6164
 IR Inten    --     15.7761                 9.1013                 5.5548
 Raman Activ --     92.7782               113.9664               159.2831
 Depolar (P) --      0.2518                 0.1130                 0.1297
 Depolar (U) --      0.4023                 0.2031                 0.2296
  Atom  AN      X      Y      Z        X      Y      Z        X      Y      Z
     1   8     0.00  -0.00  -0.00     0.00   0.00   0.00     0.00   0.00  -0.00
     2   6    -0.00   0.00  -0.00    -0.00   0.00   0.00     0.00   0.00   0.00
     3   6    -0.02  -0.03  -0.00    -0.04  -0.06  -0.00     0.01   0.01   0.00
     4   6    -0.01   0.02   0.00     0.01  -0.02  -0.00     0.04  -0.07  -0.00
     5   6    -0.00   0.00  -0.00    -0.00  -0.00   0.00     0.00  -0.00   0.00
     6   6    -0.01   0.02   0.00     0.02  -0.04  -0.00    -0.00   0.01   0.00
     7   6    -0.02  -0.03  -0.00     0.00   0.00   0.00    -0.02  -0.02  -0.00
     8   6    -0.06   0.00  -0.00     0.02   0.00   0.00    -0.01   0.00  -0.00
     9   6     0.00  -0.00  -0.00     0.00  -0.00  -0.00     0.00   0.00   0.00
    10   1     0.24   0.38   0.00     0.44   0.68   0.00    -0.07  -0.10  -0.00
    11   1     0.11  -0.23  -0.00    -0.10   0.20   0.00    -0.41   0.81   0.00
    12   1     0.11  -0.23  -0.00    -0.21   0.43   0.00     0.05  -0.11  -0.00
    13   1     0.24   0.37   0.00    -0.02  -0.04  -0.00     0.19   0.28   0.00
    14   1     0.68  -0.04   0.00    -0.24   0.01  -0.00     0.15  -0.01   0.00
    15   1    -0.00   0.01  -0.01    -0.00   0.01  -0.01     0.00  -0.00   0.00
    16   1    -0.01   0.00   0.00    -0.01   0.00   0.00    -0.00   0.00   0.00
    17   1    -0.00   0.01   0.01    -0.00   0.01   0.01     0.00  -0.00  -0.00

 -------------------
 - Thermochemistry -
 -------------------
 Temperature   298.150 Kelvin.  Pressure   1.00000 Atm.
 Atom     1 has atomic number  8 and mass  15.99491
 Atom     2 has atomic number  6 and mass  12.00000
 Atom     3 has atomic number  6 and mass  12.00000
 Atom     4 has atomic number  6 and mass  12.00000
 Atom     5 has atomic number  6 and mass  12.00000
 Atom     6 has atomic number  6 and mass  12.00000
 Atom     7 has atomic number  6 and mass  12.00000
 Atom     8 has atomic number  6 and mass  12.00000
 Atom     9 has atomic number  6 and mass  12.00000
 Atom    10 has atomic number  1 and mass   1.00783
 Atom    11 has atomic number  1 and mass   1.00783
 Atom    12 has atomic number  1 and mass   1.00783
 Atom    13 has atomic number  1 and mass   1.00783
 Atom    14 has atomic number  1 and mass   1.00783
 Atom    15 has atomic number  1 and mass   1.00783
 Atom    16 has atomic number  1 and mass   1.00783
 Atom    17 has atomic number  1 and mass   1.00783
 Molecular mass:   120.05751 amu.
 Principal axes and moments of inertia in atomic units:
                           1         2         3
     Eigenvalues --   486.064521482.431271957.34321
           X            0.99932   0.03683  -0.00019
           Y           -0.03683   0.99932   0.00008
           Z            0.00020  -0.00008   1.00000
 This molecule is an asymmetric top.
 Rotational symmetry number  1.
 Warning -- assumption of classical behavior for rotation
           may cause significant error
 Rotational temperatures (Kelvin)      0.17819     0.05843     0.04425
 Rotational constants (GHZ):           3.71297     1.21742     0.92204
 Zero-point vibrational energy     360810.2 (Joules/Mol)
                                   86.23570 (Kcal/Mol)
 Warning -- explicit consideration of  10 degrees of freedom as
           vibrations may cause significant error
 Vibrational temperatures:     79.51   216.64   220.29   314.33   526.41
          (Kelvin)            594.70   620.91   669.82   860.13   868.36
                              911.45  1015.81  1068.67  1120.15  1244.05
                             1359.45  1378.39  1409.20  1440.62  1469.56
                             1508.17  1508.98  1575.09  1595.11  1706.20
                             1730.73  1835.38  1924.38  1950.82  1997.27
                             2114.96  2127.98  2135.74  2197.11  2333.82
                             2360.94  2514.72  4371.53  4450.73  4526.25
                             4559.39  4574.41  4588.87  4603.34  4610.62
 
 Zero-point correction=                           0.137425 (Hartree/Particle)
 Thermal correction to Energy=                    0.145292
 Thermal correction to Enthalpy=                  0.146236
 Thermal correction to Gibbs Free Energy=         0.104533
 Sum of electronic and zero-point Energies=           -384.906971
 Sum of electronic and thermal Energies=              -384.899105
 Sum of electronic and thermal Enthalpies=            -384.898160
 Sum of electronic and thermal Free Energies=         -384.939863
 
                     E (Thermal)             CV                S
                      KCal/Mol        Cal/Mol-Kelvin    Cal/Mol-Kelvin
 Total                   91.172             29.676             87.772
 Electronic               0.000              0.000              0.000
 Translational            0.889              2.981             40.263
 Rotational               0.889              2.981             28.735
 Vibrational             89.394             23.715             18.773
 Vibration     1          0.596              1.975              4.620
 Vibration     2          0.618              1.902              2.665
 Vibration     3          0.619              1.899              2.633
 Vibration     4          0.646              1.813              1.972
 Vibration     5          0.739              1.542              1.097
 Vibration     6          0.777              1.441              0.915
 Vibration     7          0.793              1.402              0.854
 Vibration     8          0.823              1.326              0.750
 Vibration     9          0.956              1.036              0.453
 Vibration    10          0.962              1.024              0.444
                       Q            Log10(Q)             Ln(Q)
 Total Bot       0.828539D-48        -48.081687       -110.712176
 Total V=0       0.134749D+16         15.129526         34.837020
 Vib (Bot)       0.376931D-61        -61.423738       -141.433385
 Vib (Bot)    1  0.373879D+01          0.572731          1.318761
 Vib (Bot)    2  0.134641D+01          0.129177          0.297440
 Vib (Bot)    3  0.132315D+01          0.121611          0.280019
 Vib (Bot)    4  0.905987D+00         -0.042878         -0.098731
 Vib (Bot)    5  0.498999D+00         -0.301900         -0.695150
 Vib (Bot)    6  0.426961D+00         -0.369612         -0.851063
 Vib (Bot)    7  0.403259D+00         -0.394416         -0.908176
 Vib (Bot)    8  0.363666D+00         -0.439297         -1.011519
 Vib (Bot)    9  0.250334D+00         -0.601480         -1.384959
 Vib (Bot)   10  0.246504D+00         -0.608176         -1.400376
 Vib (V=0)       0.613020D+02          1.787474          4.115812
 Vib (V=0)    1  0.427207D+01          0.630638          1.452099
 Vib (V=0)    2  0.193625D+01          0.286962          0.660753
 Vib (V=0)    3  0.191447D+01          0.282050          0.649443
 Vib (V=0)    4  0.153480D+01          0.186052          0.428400
 Vib (V=0)    5  0.120640D+01          0.081491          0.187640
 Vib (V=0)    6  0.115749D+01          0.063518          0.146255
 Vib (V=0)    7  0.114235D+01          0.057800          0.133091
 Vib (V=0)    8  0.111827D+01          0.048545          0.111779
 Vib (V=0)    9  0.105917D+01          0.024964          0.057482
 Vib (V=0)   10  0.105746D+01          0.024265          0.055872
 Electronic      0.100000D+01          0.000000          0.000000
 Translational   0.517056D+08          7.713538         17.761077
 Rotational      0.425122D+06          5.628513         12.960131
 
                                                             Acetophenone
                                                             IR Spectrum
 
   333333 3 3                                                  1   11  1111  111  1  11111111                                        
   211111 0 0                                                  7   66  5444  333  2  21100000999  8   77 7 665    444 3     2 11     
   098764 9 3                                                  4   42  2877  853  7  08094420754  6   74 0 309    631 6     1 55  5  
   599996 3 8                                                  8   12  7490  868  6  36959811985  5   93 6 348    623 6     8 31  5  
 
   XXXXXX X X                                                  X   XX  XXXX  XXX  X  XXXXXXXXXXX  X   XX X XXX    XX  X     X  X  X  
     X                                                         X   X    X    X    X  X        X       X  X   X                       
                                                               X             X    X           X       X  X   X                       
                                                               X             X    X           X       X  X                           
                                                               X             X    X                                                  
                                                               X                  X                                                  
                                                               X                  X                                                  
                                                               X                  X                                                  
                                                               X                  X                                                  
                                                               X                  X                                                  
                                                               X                  X                                                  
                                                               X                  X                                                  
                                                               X                  X                                                  
                                                               X                  X                                                  
                                                               X                  X                                                  
                                                               X                  X                                                  
                                                               X                  X                                                  
                                                               X                  X                                                  
                                                               X                  X                                                  
                                                               X                                                                     
 
 
                                                             Acetophenone
                                                            Raman Spectrum
 
   333333 3 3                                                  1   11  1111  111  1  11111111                                        
   211111 0 0                                                  7   66  5444  333  2  21100000999  8   77 7 665    444 3     2 11     
   098764 9 3                                                  4   42  2877  853  7  08094420754  6   74 0 309    631 6     1 55  5  
   599996 3 8                                                  8   12  7490  868  6  36959811985  5   93 6 348    623 6     8 31  5  
 
   XXXXXX X X                                                  X   XX  XXXX  XXX  X  XXXXXXXXXX       XX   XXX    XX  X     X XX  X  
   XXXXXX X X                                                  X   X              X       XX           X                             
   XXXXXX X X                                                  X   X              X        X                                         
   XXXXXX X X                                                  X   X              X        X                                         
   XXXXXX X X                                                  X   X                       X                                         
   XXXXXX   X                                                  X   X                                                                 
   XXXX X   X                                                      X                                                                 
   XXXX X   X                                                      X                                                                 
   XXXX X   X                                                      X                                                                 
   XXXX X   X                                                      X                                                                 
   XXXX X   X                                                                                                                        
   XXXX     X                                                                                                                        
   XX X     X                                                                                                                        
   XX X     X                                                                                                                        
   X        X                                                                                                                        
   X        X                                                                                                                        
   X        X                                                                                                                        
   X                                                                                                                                 
   X                                                                                                                                 
   X                                                                                                                                 
 
 ***** Axes restored to original set *****
 -------------------------------------------------------------------
 Center     Atomic                   Forces (Hartrees/Bohr)
 Number     Number              X              Y              Z
 -------------------------------------------------------------------
      1        8          -0.000081456    0.000275604    0.000016946
      2        6          -0.000200863    0.000036873    0.000004644
      3        6          -0.000010235   -0.000024428    0.000001830
      4        6           0.000014767   -0.000006990   -0.000005042
      5        6           0.000297375   -0.000225161   -0.000044538
      6        6          -0.000027869   -0.000028601   -0.000002734
      7        6           0.000029505    0.000004557   -0.000000665
      8        6          -0.000006990    0.000036431    0.000003918
      9        6           0.000006038   -0.000013449    0.000022414
     10        1          -0.000000589   -0.000010991   -0.000003547
     11        1          -0.000025807   -0.000011401    0.000000795
     12        1           0.000009656    0.000008290   -0.000001406
     13        1          -0.000007984    0.000003702    0.000002079
     14        1           0.000003735   -0.000002716    0.000005137
     15        1          -0.000001538   -0.000014128    0.000002319
     16        1          -0.000003307   -0.000006706    0.000007089
     17        1           0.000005562   -0.000020887   -0.000009239
 -------------------------------------------------------------------
 Cartesian Forces:  Max     0.000297375 RMS     0.000073219
 Leave Link  716 at Wed Feb  7 20:16:35 2024, MaxMem=  6710886400 cpu:               6.7 elap:               0.5
 (Enter /tmpu/scunam/7/gaussian-2016.03/g1/g16/l103.exe)

 GradGradGradGradGradGradGradGradGradGradGradGradGradGradGradGradGradGrad
 Berny optimization.
 Search for a local minimum.
 Step number   1 out of a maximum of    2
 All quantities printed in internal units (Hartrees-Bohrs-Radians)
 Second derivative matrix not updated -- analytic derivatives used.
 ITU=  0
     Eigenvalues ---    0.00055   0.00093   0.00466   0.00654   0.01470
     Eigenvalues ---    0.02076   0.02140   0.03045   0.03371   0.04007
     Eigenvalues ---    0.05288   0.05342   0.05895   0.06194   0.07552
     Eigenvalues ---    0.07838   0.08324   0.09588   0.10299   0.10477
     Eigenvalues ---    0.13087   0.13912   0.17885   0.18595   0.19422
     Eigenvalues ---    0.21843   0.23679   0.26559   0.31041   0.32225
     Eigenvalues ---    0.41301   0.47147   0.59361   0.67972   0.70608
     Eigenvalues ---    0.74624   0.80780   0.84427   0.89222   0.99096
     Eigenvalues ---    1.07105   1.10534   1.25440   1.25780   1.54612
 Angle between quadratic step and forces=  85.36 degrees.
 Linear search not attempted -- first point.
 B after Tr=     0.000041    0.000026   -0.000485
         Rot=    1.000000   -0.000051   -0.000052   -0.000009 Ang=  -0.01 deg.
 Variable       Old X    -DE/DX   Delta X   Delta X   Delta X     New X
                                 (Linear)    (Quad)   (Total)
    X1        4.39123  -0.00008   0.00000   0.00079   0.00087   4.39209
    Y1       -2.23816   0.00028   0.00000   0.00056   0.00066  -2.23750
    Z1        0.00435   0.00002   0.00000  -0.00338  -0.00455  -0.00020
    X2        0.51655  -0.00020   0.00000  -0.00026  -0.00022   0.51633
    Y2       -0.02478   0.00004   0.00000  -0.00019  -0.00015  -0.02493
    Z2        0.00202   0.00000   0.00000  -0.00143  -0.00198   0.00004
    X3       -0.76685  -0.00001   0.00000  -0.00024  -0.00024  -0.76708
    Y3        2.28322  -0.00002   0.00000  -0.00028  -0.00027   2.28295
    Z3        0.00278   0.00000   0.00000  -0.00231  -0.00248   0.00030
    X4       -0.88178   0.00001   0.00000  -0.00025  -0.00017  -0.88194
    Y4       -2.26779  -0.00001   0.00000  -0.00018  -0.00017  -2.26796
    Z4        0.00021  -0.00001   0.00000   0.00029  -0.00034  -0.00012
    X5        3.34280   0.00030   0.00000   0.00061   0.00066   3.34345
    Y5       -0.19681  -0.00023   0.00000   0.00000   0.00009  -0.19672
    Z5        0.00226  -0.00004   0.00000  -0.00148  -0.00233  -0.00007
    X6       -3.39200  -0.00003   0.00000  -0.00026  -0.00026  -3.39226
    Y6        2.34807  -0.00003   0.00000  -0.00003  -0.00006   2.34800
    Z6        0.00152  -0.00000   0.00000  -0.00123  -0.00112   0.00041
    X7       -3.49946   0.00003   0.00000  -0.00025  -0.00017  -3.49963
    Y7       -2.20346   0.00000   0.00000   0.00010   0.00006  -2.20340
    Z7       -0.00139  -0.00000   0.00000   0.00171   0.00136  -0.00003
    X8       -4.76095  -0.00001   0.00000  -0.00031  -0.00027  -4.76123
    Y8        0.10660   0.00004   0.00000   0.00012   0.00006   0.10666
    Z8       -0.00086   0.00000   0.00000   0.00107   0.00109   0.00024
    X9        4.87618   0.00001   0.00000   0.00034   0.00034   4.87652
    Y9        2.22043  -0.00001   0.00000   0.00007   0.00018   2.22061
    Z9       -0.00179   0.00002   0.00000   0.00256   0.00179   0.00000
   X10        0.27284  -0.00000   0.00000  -0.00010  -0.00013   0.27271
   Y10        4.04299  -0.00001   0.00000  -0.00039  -0.00036   4.04263
   Z10        0.00447  -0.00000   0.00000  -0.00394  -0.00404   0.00044
   X11        0.13283  -0.00003   0.00000  -0.00082  -0.00071   0.13212
   Y11       -4.04218  -0.00001   0.00000  -0.00051  -0.00048  -4.04266
   Z11       -0.00028   0.00000   0.00000   0.00087  -0.00004  -0.00032
   X12       -4.36751   0.00001   0.00000   0.00011   0.00008  -4.36743
   Y12        4.14633   0.00001   0.00000   0.00018   0.00013   4.14645
   Z12        0.00222  -0.00000   0.00000  -0.00200  -0.00160   0.00061
   X13       -4.56397  -0.00001   0.00000  -0.00046  -0.00035  -4.56433
   Y13       -3.95075   0.00000   0.00000   0.00022   0.00016  -3.95058
   Z13       -0.00322   0.00000   0.00000   0.00348   0.00306  -0.00016
   X14       -6.80668   0.00000   0.00000  -0.00030  -0.00027  -6.80694
   Y14        0.15737  -0.00000   0.00000   0.00002  -0.00008   0.15729
   Z14       -0.00235   0.00001   0.00000   0.00242   0.00266   0.00031
   X15        4.44759  -0.00000   0.00000   0.00197   0.00178   4.44936
   Y15        3.36438  -0.00001   0.00000   0.00171   0.00199   3.36636
   Z15       -1.66584   0.00000   0.00000   0.00329   0.00269  -1.66315
   X16        6.87237  -0.00000   0.00000   0.00033   0.00034   6.87271
   Y16        1.73489  -0.00001   0.00000   0.00004   0.00019   1.73508
   Z16       -0.00317   0.00001   0.00000   0.00406   0.00304  -0.00013
   X17        4.45081   0.00001   0.00000  -0.00142  -0.00127   4.44954
   Y17        3.36811  -0.00002   0.00000  -0.00189  -0.00195   3.36616
   Z17        1.66057  -0.00001   0.00000   0.00338   0.00277   1.66334
         Item               Value     Threshold  Converged?
 Maximum Force            0.000297     0.000450     YES
 RMS     Force            0.000073     0.000300     YES
 Maximum Displacement     0.004553     0.001800     NO 
 RMS     Displacement     0.001530     0.001200     NO 
 Predicted change in Energy=-2.370340D-07
 GradGradGradGradGradGradGradGradGradGradGradGradGradGradGradGradGradGrad

 Leave Link  103 at Wed Feb  7 20:16:36 2024, MaxMem=  6710886400 cpu:               7.2 elap:               0.5
 (Enter /tmpu/scunam/7/gaussian-2016.03/g1/g16/l9999.exe)

 ----------------------------------------------------------------------

 Electric dipole moment (input orientation):
 (Debye = 10**-18 statcoulomb cm , SI units = C m)
                  (au)            (Debye)         (10**-30 SI)
   Tot        0.123168D+01      0.313062D+01      0.104426D+02
   x         -0.794659D+00     -0.201982D+01     -0.673740D+01
   y          0.941037D+00      0.239188D+01      0.797845D+01
   z         -0.152229D-02     -0.386928D-02     -0.129065D-01

 Dipole polarizability, Alpha (input orientation).
 (esu units = cm**3 , SI units = C**2 m**2 J**-1)
 Alpha(0;0):
               (au)            (10**-24 esu)      (10**-40 SI)
   iso        0.936946D+02      0.138841D+02      0.154482D+02
   aniso      0.629839D+02      0.933326D+01      0.103847D+02
   xx         0.125830D+03      0.186460D+02      0.207465D+02
   yx         0.140640D+00      0.208407D-01      0.231884D-01
   yy         0.101033D+03      0.149715D+02      0.166580D+02
   zx         0.226931D-01      0.336278D-02      0.374159D-02
   zy         0.969062D-02      0.143600D-02      0.159777D-02
   zz         0.542217D+02      0.803483D+01      0.893995D+01

 First dipole hyperpolarizability, Beta (input orientation).
 ||, _|_  parallel and perpendicular components, (z) with respect to z axis,
 vector components x,y,z.  Values do not include the 1/n! factor of 1/2.
 (esu units = statvolt**-1 cm**4 , SI units = C**3 m**3 J**-2)
 Beta(0;0,0):
               (au)            (10**-30 esu)      (10**-50 SI)
   || (z)    -0.605970D-01     -0.523511D-03     -0.194296D-03
   _|_(z)    -0.201990D-01     -0.174504D-03     -0.647653D-04
   x          0.711691D+03      0.614846D+01      0.228194D+01
   y          0.288169D+03      0.248955D+01      0.923973D+00
   z         -0.302985D+00     -0.261755D-02     -0.971479D-03
   ||         0.153564D+03      0.132667D+01      0.492381D+00
   xxx        0.290662D+03      0.251109D+01      0.931967D+00
   xxy        0.171964D+02      0.148564D+00      0.551379D-01
   yxy       -0.405328D+02     -0.350171D+00     -0.129963D+00
   yyy        0.475040D+02      0.410397D+00      0.152315D+00
   xxz       -0.214364D-01     -0.185194D-03     -0.687328D-04
   yxz       -0.128156D-01     -0.110717D-03     -0.410915D-04
   yyz       -0.964581D-02     -0.833323D-04     -0.309280D-04
   zxz       -0.128988D+02     -0.111436D+00     -0.413583D-01
   zyz        0.313559D+02      0.270890D+00      0.100538D+00
   zzz       -0.699128D-01     -0.603992D-03     -0.224166D-03

 ----------------------------------------------------------------------

 Dipole orientation:
     8          1.45923825          1.23390939         -4.54316810
     6          0.29033781          0.24310576         -0.35220402
     6          0.68142902          0.56816787          2.23919761
     6         -1.63339495         -1.37771694         -1.16374460
     6          1.85392370          1.56631570         -2.30708495
     6         -0.81843233         -0.69955919          3.98244564
     6         -3.12937674         -2.64171093          0.57428520
     6         -2.72464270         -2.30480456          3.15312979
     6          3.93863478          3.33066639         -1.44955522
     1          2.15741816          1.81126484          2.91291664
     1         -1.91772066         -1.61391572         -3.17403835
     1         -0.49939546         -0.43429973          5.98574447
     1         -4.61377897         -3.89176555         -0.07387739
     1         -3.89366742         -3.29222803          4.51178564
     1          3.17964963          4.86587390         -0.29696976
     1          4.86233821          4.11517533         -3.10841999
     1          5.32951255          2.32754426         -0.30030803

 Electric dipole moment (dipole orientation):
 (Debye = 10**-18 statcoulomb cm , SI units = C m)
                  (au)            (Debye)         (10**-30 SI)
   Tot        0.123168D+01      0.313062D+01      0.104426D+02
   x          0.000000D+00      0.000000D+00      0.000000D+00
   y          0.000000D+00      0.000000D+00      0.000000D+00
   z          0.123168D+01      0.313062D+01      0.104426D+02

 Dipole polarizability, Alpha (dipole orientation).
 (esu units = cm**3 , SI units = C**2 m**2 J**-1)
 Alpha(0;0):
               (au)            (10**-24 esu)      (10**-40 SI)
   iso        0.936946D+02      0.138841D+02      0.154482D+02
   aniso      0.629839D+02      0.933326D+01      0.103847D+02
   xx         0.900860D+02      0.133494D+02      0.148532D+02
   yx         0.302770D+02      0.448659D+01      0.499200D+01
   yy         0.797820D+02      0.118225D+02      0.131543D+02
   zx        -0.928024D+01     -0.137519D+01     -0.153010D+01
   zy        -0.791942D+01     -0.117354D+01     -0.130574D+01
   zz         0.111216D+03      0.164805D+02      0.183370D+02

 First dipole hyperpolarizability, Beta (dipole orientation).
 ||, _|_  parallel and perpendicular components, (z) with respect to z axis,
 vector components x,y,z.  Values do not include the 1/n! factor of 1/2.
 (esu units = statvolt**-1 cm**4 , SI units = C**3 m**3 J**-2)
 Beta(0;0,0):
               (au)            (10**-30 esu)      (10**-50 SI)
   || (z)    -0.478003D+02     -0.412957D+00     -0.153265D+00
   _|_(z)    -0.159334D+02     -0.137652D+00     -0.510883D-01
   x          0.557105D+03      0.481295D+01      0.178628D+01
   y          0.471230D+03      0.407106D+01      0.151093D+01
   z         -0.239001D+03     -0.206479D+01     -0.766325D+00
   ||         0.153564D+03      0.132667D+01      0.492381D+00
   xxx        0.646389D+02      0.558430D+00      0.207256D+00
   xxy        0.413022D+02      0.356819D+00      0.132430D+00
   yxy        0.372964D+02      0.322212D+00      0.119586D+00
   yyy        0.449398D+02      0.388244D+00      0.144093D+00
   xxz       -0.548965D+02     -0.474263D+00     -0.176018D+00
   yxz       -0.737416D+02     -0.637070D+00     -0.236442D+00
   yyz       -0.300990D+02     -0.260032D+00     -0.965083D-01
   zxz        0.837663D+02      0.723676D+00      0.268585D+00
   zyz        0.708348D+02      0.611957D+00      0.227122D+00
   zzz        0.532838D+01      0.460330D-01      0.170847D-01

 ----------------------------------------------------------------------
 1\1\GINC-MN75\Freq\RB3LYP\def2TZVP\C8H8O1\AGRC_A\07-Feb-2024\0\\#P Geo
 m=AllCheck Guess=TCheck SCRF=Check GenChk RB3LYP/def2TZVP Freq\\Acetop
 henone\\0,1\O,2.3237381325,-1.184385253,0.0023017073\C,0.2733476162,-0
 .0131119681,0.0010672093\C,-0.4057982979,1.2082290972,0.0014725709\C,-
 0.4666158982,-1.2000608744,0.0001131902\C,1.7689310004,-0.1041478828,0
 .0011972885\C,-1.7949689162,1.2425441301,0.000805425\C,-1.8518326074,-
 1.1660214852,-0.0007353015\C,-2.519387362,0.0564103304,-0.0004525503\C
 ,2.5803614386,1.1749990226,-0.0009474231\H,0.1443809023,2.1394573087,0
 .0023666779\H,0.0702902573,-2.1390317045,-0.0001487637\H,-2.3111841324
 ,2.1941427954,0.0011734987\H,-2.4151508606,-2.0906442997,-0.0017054613
 \H,-3.6019383159,0.0832754944,-0.0012436632\H,2.353561739,1.7803521524
 ,-0.881524332\H,3.6366992422,0.9180663748,-0.0016770112\H,2.355266062,
 1.7823267617,0.8787369386\\Version=ES64L-G16RevA.03\State=1-A\HF=-385.
 0443962\RMSD=2.067e-09\RMSF=7.322e-05\ZeroPoint=0.1374253\Thermal=0.14
 52917\Dipole=-0.7946586,0.9410374,-0.0015223\DipoleDeriv=-1.0077467,0.
 1969385,-0.0003392,0.3811011,-0.8912138,0.0009796,-0.0001589,0.0006897
 ,-0.31618,-0.7069184,-0.0116835,-0.0001494,-0.1027256,-0.0932896,0.000
 2151,-0.0000374,0.0001193,-0.0231661,0.1101915,0.1018064,0.0001737,-0.
 073387,-0.0038992,0.0000269,0.0004637,0.0001917,-0.0995144,0.0408547,-
 0.1356306,0.0000865,0.0969693,0.0140625,0.0000421,-0.0000675,-0.000066
 9,-0.0833912,1.7565813,0.0131256,0.0000905,-0.0515892,1.0475781,-0.001
 5333,-0.0002537,-0.0012609,0.1455396,-0.1420469,-0.1446124,-0.0000717,
 -0.1634855,0.0516383,0.0000847,-0.00016,0.0000249,-0.1393861,-0.093292
 9,0.1790051,0.0001396,0.1332531,0.0461345,0.0002239,0.0000823,0.000209
 7,-0.1320074,0.1057331,-0.0061054,0.0002115,0.0134214,0.0381058,0.0000
 726,0.0002223,0.0001121,-0.1126482,-0.143886,-0.1852966,0.0002249,-0.2
 462187,-0.2756744,0.0005454,0.000363,0.0004964,0.075464,0.0485909,-0.0
 717851,-0.0001297,-0.0774448,-0.0279918,-0.0001157,-0.0001455,-0.00014
 21,0.1192139,0.0991637,0.0572202,0.0000152,0.0220049,0.0177339,-0.0000
 676,0.0000994,-0.0000158,0.1242764,0.0201616,0.0616715,-0.0000115,0.07
 60698,-0.0568564,-0.0000964,-0.0000531,-0.0000971,0.1349306,0.0101935,
 -0.070659,-0.0001027,-0.0799558,-0.0468265,-0.0001575,-0.000141,-0.000
 1748,0.1342073,-0.0942982,0.0035418,-0.0001459,0.0036618,0.0744638,-0.
 0000351,-0.0001455,-0.0000398,0.1317529,0.0432419,0.0107068,-0.0628624
 ,0.0066928,0.0249716,0.0457397,-0.0439347,0.0688131,-0.0222747,-0.0900
 476,-0.0089892,0.0001277,0.0549526,0.0563632,-0.0000184,0.0001042,0.00
 00661,0.0853484,0.0435248,0.0107458,0.0627431,0.0066796,0.0246999,-0.0
 459061,0.0437623,-0.0689256,-0.022165\Polar=125.8295773,0.1406401,101.
 0326064,0.0226931,0.0096906,54.2217228\PolarDeriv=13.0653577,-5.046546
 1,2.5781706,0.0083518,-0.0031047,0.6562477,-17.0541314,6.6870007,-7.67
 04334,-0.0073778,0.0072495,-1.0345971,0.0102642,-0.0046473,0.0033924,2
 .3727616,-2.6219496,0.0083653,24.6947665,-3.4920437,0.9703804,0.009261
 1,-0.0010261,0.4795793,-0.5894297,-0.7367304,-0.3307419,-0.0031572,-0.
 0006006,-0.0948162,-0.000706,-0.0033356,0.0031365,3.2724086,-0.1429071
 ,0.005725,-10.3485841,-0.5261654,2.8009902,-0.0049888,0.0001188,1.0544
 474,8.7473575,-0.0551536,1.2683414,0.0020838,-0.002132,1.2243582,-0.00
 46706,0.0006563,-0.0036553,0.5378875,2.9627868,0.0064125,-9.6556476,2.
 1030118,2.0383909,-0.0034686,0.0021587,1.0252578,-7.5719118,0.8605664,
 -1.2132817,-0.0015165,0.0019205,-1.2996293,-0.004995,0.0002019,0.00253
 99,0.5433797,-2.9294725,-0.0023942,-17.0580365,4.0785888,-1.6937485,-0
 .0081373,0.0049224,-0.1512844,10.4519376,-5.6049408,2.1932182,0.010023
 4,-0.0013427,0.1891993,0.0026006,0.0125161,-0.0004757,0.4735342,0.7805
 629,0.0019764,7.6093645,1.0886541,-2.1884458,0.004161,-0.0028334,-1.08
 68058,6.274779,0.6450743,-0.7449008,0.0032319,-0.0037065,1.628053,0.00
 9553,-0.0015523,-0.0028066,-1.942969,3.3026693,0.0049961,6.4982318,-1.
 7470414,-1.2716183,0.0044804,0.0025583,-1.04252,-5.9404127,1.4156581,0
 .628542,0.0001095,0.0036238,-1.5396976,0.0062401,0.003297,0.004769,-2.
 3465096,-3.3076673,-0.0067534,-5.2324029,0.003927,-2.1999858,0.0035546
 ,-0.0005175,-1.9243235,-0.3671888,-1.7583737,0.4199853,0.0030996,0.000
 3475,0.0327495,0.0026553,0.0018809,-0.003361,-5.2215298,0.1172873,-0.0
 07248,-6.1976307,2.6939001,2.4675708,0.002998,-0.0062907,2.063128,6.17
 24889,2.0828392,-1.7261664,-0.0088415,-0.0086947,-3.6432175,-0.0062559
 ,-0.0141365,-0.0118326,0.3069244,-4.1581293,0.0085454,2.4854174,1.9399
 11,2.29531,0.0014897,0.0021813,0.1679105,1.6833311,2.4366489,6.5280418
 ,0.0016752,0.0055971,0.4020335,0.0037897,0.0025786,0.0057557,0.2146081
 ,0.347796,0.0015833,2.1097379,-1.2833606,2.463941,-0.0003396,0.0010087
 ,0.2935724,-1.3296607,2.0010626,-6.9333217,0.000641,-0.0018608,-0.5226
 71,0.0006533,0.0007472,-0.0014781,0.2357097,-0.6086021,-0.0005942,-3.2
 475305,3.0859453,-3.2642835,0.0008264,-0.0009755,-0.2208312,2.9306899,
 -4.1697361,8.1580395,-0.0014883,0.0032519,0.4530485,0.0017394,-0.00094
 33,0.0025052,-0.2981726,0.5187796,0.0005109,-3.7370882,-3.3610104,-3.4
 848206,-0.003836,-0.0035426,-0.2684523,-3.2504971,-4.4007689,-7.874599
 9,-0.0039629,-0.0065611,-0.4542824,-0.0061351,-0.0040862,-0.0068491,-0
 .2975812,-0.5251251,-0.0015384,-13.0897642,0.2051203,-0.7279927,-0.007
 7804,-0.0000403,-0.5225801,0.2756577,-1.5011934,0.0800222,-0.0005485,-
 0.0008651,0.0132957,-0.0097808,-0.0003108,-0.0001383,-0.428014,0.00209
 85,-0.0011549,0.5579854,0.0851482,-0.7849734,-1.0024876,0.1294085,-0.6
 80779,0.8702831,0.6414305,3.8486554,-0.2917784,-2.0235806,2.2660596,-1
 .651162,-0.7445716,-2.5838903,0.4932263,2.9545793,-4.3395914,10.984401
 8,0.0840799,0.7811516,-0.0059921,0.000014,0.8327608,-2.1780623,0.80996
 91,-0.4957474,0.0024401,0.0004172,0.1133261,-0.0047202,0.0017063,0.001
 325,1.5887539,0.3527622,-0.0037644,0.5614219,0.0878812,-0.7800368,1.00
 19072,-0.1240399,-0.6753276,0.8747697,0.646647,3.8643475,0.2953666,2.0
 269367,2.2667878,1.6509301,0.7499994,2.5910633,0.4955822,2.9545312,4.3
 24924\HyperPolar=290.6619635,17.1964118,-40.5327538,47.5039838,-0.0214
 364,-0.0128156,-0.0096458,-12.8988418,31.3558546,-0.0699128\Quadrupole
 =0.5320606,1.4782639,-2.0103245,4.8714496,-0.0032739,0.0074932\PG=C01 
 [X(C8H8O1)]\NImag=0\\0.25005186,-0.27926769,0.65678676,0.00028929,-0.0
 0067924,0.02497287,-0.04109698,0.04595365,-0.00005213,0.60187771,0.054
 25536,-0.01064534,0.00002675,-0.00674122,0.68899781,-0.00005066,0.0000
 2501,0.01939159,0.00011632,0.00020185,0.14534673,-0.00557443,-0.000720
 39,-0.00000150,-0.16488332,0.04865288,0.00001090,0.68230731,-0.0079503
 9,0.00509370,-0.00000800,0.09992417,-0.27379850,-0.00007444,0.03932929
 ,0.70692239,-0.00000568,-0.00000006,0.00309655,0.00003396,-0.00010927,
 -0.06468928,0.00027249,0.00039075,0.13625983,0.00028862,-0.00746215,-0
 .00000026,-0.16579718,-0.05150870,-0.00008444,0.06159870,-0.02325020,0
 .00001399,0.70008007,0.00338446,-0.00864185,0.00000377,-0.10131592,-0.
 26072368,-0.00013866,0.01774099,-0.05823653,-0.00002713,-0.04462223,0.
 70256636,-0.00000729,-0.00000540,0.00028449,-0.00011490,-0.00012088,-0
 .06945079,0.00003983,-0.00005442,0.00942636,0.00028061,0.00028496,0.14
 274706,-0.22101074,0.22605510,-0.00022638,-0.16769494,-0.01691744,-0.0
 0000624,-0.01471085,0.01661303,-0.00000849,-0.03351467,-0.01672936,-0.
 00000739,0.56623577,0.23555007,-0.57747511,0.00052361,-0.03224172,-0.1
 0549838,0.00000777,0.03043394,0.00257421,0.00001029,-0.02474656,0.0152
 9303,-0.00000677,-0.14977173,0.83078127,-0.00024367,0.00053581,-0.0685
 6974,0.00005265,-0.00000567,-0.07916507,0.00000342,0.00000773,-0.00058
 012,-0.00002677,-0.00000600,0.00306331,0.00012408,-0.00063122,0.224136
 37,-0.00363118,0.00162307,-0.00000252,-0.02796132,0.07370486,0.0000184
 3,-0.33070131,-0.02666871,-0.00013994,-0.05199891,-0.02887287,-0.00003
 836,0.00574509,0.00344651,-0.00000164,0.67513028,0.00127305,0.00069366
 ,0.00000290,0.02866760,0.02838801,0.00001532,0.03946538,-0.12898148,-0
 .00001740,-0.02699841,-0.01531763,-0.00002076,0.00212617,-0.00512011,-
 0.00000638,-0.03377199,0.72264722,0.00000275,-0.00000163,-0.00187988,-
 0.00000402,0.00005798,0.00875727,-0.00011268,-0.00005807,-0.06033857,-
 0.00003969,-0.00001902,-0.00687163,0.00000756,-0.00000624,0.00840206,0
 .00028093,0.00039622,0.12819101,0.00082768,0.00263208,0.00000301,-0.03
 329537,-0.06948628,-0.00005493,-0.04980757,0.02918055,-0.00000462,-0.3
 4180005,0.03692695,-0.00015718,0.00523185,-0.00708235,-0.00000680,0.06
 606735,0.01990461,0.00004224,0.68577604,0.00191288,0.00089225,0.000000
 21,-0.02514742,0.03446010,-0.00000716,0.02935552,-0.01798130,0.0000082
 9,-0.02833877,-0.13144621,-0.00005781,-0.00454150,-0.00559270,-0.00000
 408,-0.02556127,-0.05856899,-0.00005065,0.03889067,0.71409422,0.000006
 46,0.00000238,-0.00078424,-0.00003748,-0.00000976,0.00841988,-0.000008
 59,0.00000897,-0.00710771,-0.00019990,-0.00002936,-0.06248799,0.000000
 39,-0.00001578,0.00736676,0.00001846,-0.00003054,0.00706221,0.00038925
 ,0.00038150,0.13157769,-0.00068458,-0.00063130,0.00000069,-0.00004606,
 -0.00251636,0.00000141,-0.03108348,-0.02896357,-0.00003983,-0.02540773
 ,0.03301756,0.00000064,0.00077296,0.00090834,-0.00000123,-0.18512493,-
 0.12222411,-0.00016461,-0.17503387,0.11433789,-0.00000939,0.73914602,0
 .00181565,0.00048040,0.00000270,-0.00180031,-0.06399641,-0.00002322,-0
 .07685990,0.03550723,-0.00002851,0.07876467,0.03176827,0.00005686,0.00
 020256,-0.00427038,-0.00000219,-0.05615315,-0.27775068,-0.00019463,0.0
 4830972,-0.28210467,-0.00009354,0.00071092,0.65626052,0.00000145,0.000
 00008,-0.00002348,0.00000349,-0.00003884,-0.00716966,-0.00006631,0.000
 00231,0.00589686,0.00002978,0.00003975,0.00601733,0.00000055,-0.000001
 71,-0.00096815,-0.00012562,-0.00022923,-0.06003443,-0.00005266,-0.0000
 5457,-0.06038840,0.00043059,0.00033047,0.13343983,0.01989412,0.0142748
 1,-0.00000507,-0.01395684,-0.02570009,0.00004364,-0.00242619,-0.000455
 96,0.00000246,-0.00481630,0.00245946,0.00000340,-0.13505471,-0.0507427
 3,0.00008063,0.00023524,-0.00038279,-0.00000163,-0.00053182,-0.0016741
 0,-0.00000447,-0.00016483,-0.00018260,0.,0.56293851,-0.00735915,-0.063
 65379,0.00011856,-0.00374399,0.00530314,0.00002386,-0.00088514,-0.0006
 0918,-0.00000068,0.00345754,0.00074266,0.00000479,-0.04602176,-0.12503
 277,0.00005800,0.00009273,0.00002533,-0.00000353,-0.00062306,0.0012737
 7,0.00000016,-0.00011694,-0.00052157,-0.00000022,-0.06436121,0.4896627
 1,0.00001321,0.00010395,0.02571429,0.00000409,0.00002882,0.01590416,-0
 .00000178,0.00000513,-0.00126757,0.00000318,-0.00000565,0.00152996,0.0
 0010727,0.00009271,-0.08691710,-0.00000175,-0.00000114,-0.00166288,0.0
 0000081,0.00000212,-0.00078856,-0.00000069,0.00000136,0.00039270,0.000
 07575,0.00005955,0.51970538,0.00025627,-0.00056506,0.00000092,0.012125
 60,0.01216259,0.00001152,-0.13035534,-0.12071109,-0.00012604,-0.001031
 13,0.00344626,-0.00000110,0.00075398,0.00026241,0.00000050,-0.01192953
 ,-0.02916141,-0.00002663,-0.00070691,0.00077210,0.00000077,-0.00560464
 ,0.00143031,-0.00000584,-0.00176856,0.00011987,0.00000384,0.13944325,0
 .00073108,0.00046444,-0.00000105,-0.01571054,-0.01929310,-0.00002065,-
 0.12039603,-0.26603973,-0.00021221,0.00425331,-0.00334363,-0.00000399,
 -0.00278597,-0.00048623,0.00000499,0.00208228,0.00438031,0.00000152,0.
 00075812,0.00021745,0.00000065,0.00064506,0.00166420,-0.00000368,-0.00
 052895,0.00036496,-0.00000271,0.13215477,0.28095701,-0.00000182,0.0000
 0389,0.00064985,-0.00001161,-0.00000136,0.00208545,-0.00011576,-0.0002
 1874,-0.03624832,-0.00000298,-0.00000793,0.00624040,-0.00000091,0.0000
 0245,-0.00408266,-0.00001131,-0.00001305,0.00312285,0.00000385,-0.0000
 0128,-0.00061003,-0.00000490,0.,0.00778983,0.00000241,0.00000287,0.001
 60210,0.00014076,0.00023226,0.02495058,-0.00204323,0.00026115,0.000000
 46,0.01366018,-0.01298389,-0.00000401,-0.00179987,-0.00332294,-0.00000
 555,-0.12530831,0.12001162,0.00003281,0.00054524,-0.00084322,0.0000036
 0,-0.00078221,-0.00080192,-0.00000008,-0.00989442,0.02745100,0.0000076
 7,-0.00524892,-0.00092398,-0.00000923,-0.00001049,0.00047857,-0.000001
 47,0.00052193,-0.00102806,-0.00000176,0.12945331,0.00097206,0.00310660
 ,0.00000017,0.01328848,-0.02093135,-0.00000804,-0.00395246,-0.00289676
 ,-0.00000597,0.11890992,-0.27283468,-0.00007158,0.00297100,-0.00264462
 ,0.00000572,-0.00062372,0.00031214,0.00000011,-0.00212425,0.00500969,-
 0.00000037,-0.00076570,0.00144714,-0.00000404,-0.00013460,0.00023508,-
 0.00000041,0.00076931,-0.00096746,-0.00000077,-0.12954331,0.28918547,-
 0.00000267,0.00000085,-0.00022271,0.00002307,-0.00002347,0.00456902,-0
 .00000751,-0.00000352,0.00562087,0.00003124,-0.00007478,-0.04039823,-0
 .00000313,0.00000445,-0.00389709,0.00000261,0.00000020,-0.00062629,-0.
 00001368,0.00001692,0.00409338,-0.00000865,-0.00000780,0.00796695,0.00
 000060,0.00000106,0.00016125,-0.00000005,-0.00000142,0.00069638,-0.000
 02662,0.00008184,0.02741643,-0.00106489,0.00043110,-0.00000059,-0.0056
 9319,-0.00149357,-0.00000567,-0.01088549,0.02958636,0.00001292,-0.0008
 1704,-0.00086119,-0.00000058,0.00097341,0.00135409,0.00000039,-0.12231
 459,0.11558758,0.00002840,-0.00109834,-0.00319858,-0.00000709,0.012009
 97,-0.01599930,-0.00000473,-0.00008401,-0.00002755,-0.00000016,0.00114
 878,-0.00034445,0.00000197,0.00003629,0.00009578,0.00000076,0.12660631
 ,0.00017386,-0.00009432,0.00000017,-0.00018323,0.00183710,-0.00000447,
 -0.00153201,0.00308662,0.00000055,-0.00090097,0.00021008,0.00000010,-0
 .00059298,0.00009333,-0.00000012,0.11565523,-0.27323934,-0.00010056,-0
 .00410117,-0.00285947,-0.00000994,0.01527123,-0.01925391,-0.00000524,0
 .00007145,0.00003294,-0.00000002,0.00037039,0.00084451,0.00000308,0.00
 007003,0.00000121,0.00000089,-0.12484212,0.28929435,-0.00000007,0.0000
 0027,-0.00034661,-0.00000687,-0.00000256,0.00767631,-0.00000541,0.0000
 1525,0.00160223,-0.00000301,-0.00000020,-0.00073137,-0.00000018,0.0000
 0125,0.00053817,0.00002562,-0.00010151,-0.03484213,-0.00000693,-0.0000
 0977,0.00738295,0.00001720,-0.00002039,0.00200107,0.00000047,0.,0.0000
 2125,0.00000285,0.00000268,-0.00379107,0.00000069,0.00000062,-0.001159
 43,-0.00002866,0.00011235,0.02509883,-0.00013554,0.00052032,-0.0000004
 1,-0.00552547,0.00154213,-0.00000858,-0.00080083,0.00093810,0.00000016
 ,-0.01246194,-0.02893313,-0.00002839,0.00032642,-0.00209570,-0.0000001
 2,-0.00066805,0.00314482,-0.00000355,-0.13406197,-0.12242782,-0.000144
 18,0.01189828,0.01449157,0.00001551,-0.00050081,0.00019810,0.00000057,
 0.00005613,-0.00010875,0.00000099,0.00123588,0.00038806,0.00000371,0.0
 0038642,0.00077071,0.00000071,0.13951687,-0.00021387,0.00009727,-0.000
 00029,0.00061792,0.00171302,-0.00000356,0.00090754,0.00019089,0.000001
 15,0.00191968,0.00461360,0.00000277,0.00046416,0.00000805,0.00000001,0
 .00399328,-0.00318460,-0.00000406,-0.12234656,-0.26129710,-0.00022476,
 -0.01666743,-0.01919110,-0.00002458,0.00000354,0.00002576,0.,-0.000082
 56,-0.00000445,0.00000071,-0.00033107,0.00073248,0.00000299,-0.0008311
 4,-0.00097806,-0.00000139,0.13230275,0.27626235,-0.00000090,0.00000033
 ,0.00015652,-0.00000773,-0.00000459,0.00796687,-0.00000091,0.00000222,
 -0.00054068,-0.00000478,-0.00001751,0.00260241,0.00000015,-0.00000159,
 0.00022765,-0.00000225,-0.00000282,0.00721852,-0.00014738,-0.00022492,
 -0.03638408,-0.00000288,-0.00000529,0.00220410,-0.00000105,0.00000004,
 -0.00025979,0.00000048,0.00000081,-0.00129648,0.00000330,0.00000310,-0
 .00414916,-0.00000018,-0.00000006,0.00022646,0.00016071,0.00024780,0.0
 2558741,-0.00017071,-0.00002503,-0.00000043,0.00077990,-0.00003863,0.0
 0000115,0.00037308,-0.00322026,-0.00000834,0.00059805,0.00310175,-0.00
 000377,0.00003624,0.00002285,0.00000109,-0.01226672,0.00287752,-0.0000
 0859,-0.01091848,-0.00212853,-0.00001077,-0.33537598,0.00677792,-0.000
 21631,-0.00006751,-0.00000245,-0.00000015,-0.00065717,0.00021547,-0.00
 000002,-0.00051450,-0.00026644,-0.00000026,0.00085051,-0.00025262,0.00
 000343,0.00083106,0.00026138,0.00000345,0.35648233,0.00008397,0.000274
 98,-0.00000009,-0.00007893,-0.00138453,0.00000006,-0.00259381,-0.00433
 508,-0.00000961,0.00243038,-0.00476422,-0.00000601,0.00008049,-0.00020
 389,0.00000119,-0.02816994,0.00541013,-0.00001797,0.02881414,0.0043524
 6,0.00002131,0.00687553,-0.06054604,-0.00001093,-0.00001861,0.00001352
 ,-0.00000045,-0.00135192,0.00005505,-0.00000004,0.00124081,0.00013126,
 0.00000062,0.00058340,0.00102477,0.00000341,-0.00058572,0.00103197,0.0
 0000251,-0.00733773,0.05887035,-0.00000062,0.00000008,0.00024778,0.000
 00332,-0.00000278,-0.00103404,-0.00000585,-0.00001024,0.00780472,-0.00
 000202,-0.00000358,0.00770519,-0.00000146,0.00000093,-0.00134958,-0.00
 002692,0.00000563,0.00284744,0.00000739,-0.00000069,0.00279874,-0.0002
 1858,-0.00001265,-0.03698749,0.00000017,0.00000071,0.00021670,-0.00000
 158,0.00000042,-0.00006152,0.00000072,-0.00000008,-0.00018925,0.000003
 17,0.00000330,-0.00369709,0.00000264,0.00000315,-0.00352932,0.00023935
 ,0.00001588,0.02533174,-0.00019256,-0.00261305,-0.00213543,-0.00112192
 ,0.00015637,-0.00215246,-0.00089631,-0.00034665,0.00024674,0.00058203,
 0.00034584,-0.00018632,0.00642653,-0.00502415,0.01760000,0.00004990,0.
 00013553,0.00034000,-0.00031613,0.00030974,0.00017110,-0.00002042,-0.0
 0025597,-0.00003553,-0.05933027,0.02780178,-0.04368134,-0.00118964,0.0
 0005923,0.00032040,0.00007884,0.00004590,-0.00003343,-0.00000901,0.000
 00289,-0.00000238,0.00000827,0.00000284,0.00004295,0.00001990,0.000015
 52,-0.00006683,0.05894819,-0.00361790,-0.00521672,-0.00372569,-0.00015
 361,0.00031958,-0.00222583,0.00029507,0.00030082,-0.00012116,-0.000275
 53,-0.00021951,-0.00025388,0.01039036,-0.01413771,0.02367555,-0.000420
 28,-0.00004883,-0.00000176,0.00025923,-0.00004008,0.00013679,0.0000169
 3,0.00030037,-0.00001911,0.02933134,-0.12225165,0.12227494,0.00007861,
 0.00030125,0.00001064,0.00014491,0.00005521,-0.00002959,-0.00000171,-0
 .00000049,-0.00000327,-0.00000249,-0.00001111,0.00004903,0.00000067,0.
 00001538,0.00001461,-0.03295665,0.13357080,0.00055082,-0.00094836,-0.0
 0080403,0.00008394,0.00044790,-0.00006885,-0.00037038,0.00098152,0.000
 43865,0.00026268,-0.00008287,0.00001935,-0.00011388,-0.00112648,0.0013
 5543,0.00003241,-0.00040022,0.00022886,-0.00010383,0.00001151,0.000006
 45,-0.00008446,-0.00006498,-0.00005631,-0.04450806,0.11842088,-0.21346
 495,0.00010890,-0.00060494,-0.00031807,-0.00007262,-0.00005326,0.00001
 857,0.00002680,0.00001167,0.00000710,0.00001723,-0.00000716,0.00000546
 ,-0.00002649,-0.00004535,-0.00003950,0.04986139,-0.12992319,0.23297332
 ,0.00447624,0.00213563,-0.00000768,-0.00025204,-0.00325276,0.00000531,
 0.00054414,-0.00033468,-0.00000058,-0.00077579,0.00055589,0.00000096,-
 0.02145859,0.00562697,0.00001008,0.00010149,0.00002215,0.00000050,-0.0
 0012331,-0.00032197,-0.00000084,-0.00001129,-0.00007356,0.,-0.30520940
 ,0.06334308,0.00017841,0.00013431,-0.00005495,-0.00000089,-0.00000831,
 -0.00007620,0.00000015,-0.00003599,0.00001648,0.00000006,-0.00011310,-
 0.00000333,-0.00000028,-0.00001989,-0.00000308,-0.00000007,-0.00376130
 ,0.00070960,-0.00012307,0.33022349,0.00186880,0.00303710,-0.00000789,-
 0.00117837,-0.00506906,0.00000710,0.00046427,-0.00109272,-0.00000187,-
 0.00135910,0.00055275,-0.00000010,-0.03189072,0.00589775,0.00002330,0.
 00006253,0.00040067,0.00000022,-0.00017042,-0.00037060,-0.00000134,0.0
 0008459,-0.00009213,0.00000025,0.06885334,-0.06283141,-0.00004194,0.00
 022673,0.00057998,0.00000046,-0.00002432,0.00000338,0.00000037,-0.0000
 3682,0.00000118,-0.00000004,-0.00014054,0.00000205,-0.00000020,0.00001
 329,0.00003836,0.00000007,0.01607688,-0.00414638,-0.00168213,-0.068988
 97,0.06724398,-0.00000709,-0.00000410,-0.00106341,-0.00000032,0.000008
 31,0.00153981,-0.00000202,-0.00000030,0.00019219,0.00000369,-0.0000005
 5,0.00028586,0.00005175,-0.00001951,-0.00100196,0.00000148,0.00000085,
 0.00019605,-0.00000067,0.00000162,-0.00016421,-0.00000005,-0.00000118,
 -0.00002509,0.00017280,-0.00003608,-0.04782521,-0.00000156,0.00000069,
 -0.00041640,-0.00000004,0.,0.00008071,0.00000007,-0.00000003,0.0000063
 7,0.00000032,0.00000003,-0.00004147,0.00000008,0.00000004,-0.00002505,
 -0.02579640,0.00527519,0.00112407,-0.00019305,0.00004160,0.04605802,-0
 .00018995,-0.00260223,0.00213803,-0.00111877,0.00016476,0.00215829,-0.
 00089824,-0.00034705,-0.00024364,0.00058158,0.00034393,0.00018703,0.00
 639701,-0.00505704,-0.01759622,0.00004940,0.00013622,-0.00034091,-0.00
 031467,0.00031017,-0.00017140,-0.00002048,-0.00025456,0.00003486,-0.05
 914612,0.02764958,0.04330022,-0.00119735,0.00005838,-0.00031843,0.0000
 7857,0.00004617,0.00003385,-0.00000913,0.00000284,0.00000249,0.0000084
 0,0.00000287,-0.00004269,0.00001987,0.00001548,0.00006718,0.00072390,-
 0.00379856,-0.00554138,-0.00371066,0.01613885,0.02577101,0.05874665,-0
 .00361224,-0.00520003,0.00374341,-0.00015657,0.00032158,0.00222505,0.0
 0029488,0.00029544,0.00012284,-0.00027288,-0.00021881,0.00025212,0.010
 34861,-0.01418574,-0.02365664,-0.00041858,-0.00004579,0.00000207,0.000
 25801,-0.00003881,-0.00013637,0.00001736,0.00029876,0.00001928,0.02918
 769,-0.12277949,-0.12251625,0.00007869,0.00030544,-0.00001318,0.000144
 65,0.00005519,0.00003040,-0.00000188,-0.00000051,0.00000328,-0.0000024
 1,-0.00001104,-0.00004887,0.00000084,0.00001554,-0.00001476,-0.0037560
 6,0.01120909,0.01506547,0.00069971,-0.00415490,-0.00526659,-0.03280983
 ,0.13413408,-0.00054351,0.00096614,-0.00081984,-0.00008579,-0.00045242
 ,-0.00007941,0.00037205,-0.00098615,0.00043398,-0.00026132,0.00008476,
 0.00001829,0.00007629,0.00116584,0.00144171,-0.00002963,0.00040192,0.0
 0022953,0.00010215,-0.00001124,0.00000715,0.00008475,0.00006301,-0.000
 05566,0.04413795,-0.11864998,-0.21306172,-0.00010774,0.00060662,-0.000
 31291,0.00007211,0.00005295,0.00001858,-0.00002682,-0.00001169,0.00000
 697,-0.00001730,0.00000719,0.00000556,0.00002658,0.00004544,-0.0000394
 6,0.00550753,-0.01513327,-0.02142557,0.00013098,0.00166214,0.00107972,
 -0.04943829,0.13018874,0.23255308\\0.00008146,-0.00027560,-0.00001695,
 0.00020086,-0.00003687,-0.00000464,0.00001023,0.00002443,-0.00000183,-
 0.00001477,0.00000699,0.00000504,-0.00029737,0.00022516,0.00004454,0.0
 0002787,0.00002860,0.00000273,-0.00002951,-0.00000456,0.00000066,0.000
 00699,-0.00003643,-0.00000392,-0.00000604,0.00001345,-0.00002241,0.000
 00059,0.00001099,0.00000355,0.00002581,0.00001140,-0.00000079,-0.00000
 966,-0.00000829,0.00000141,0.00000798,-0.00000370,-0.00000208,-0.00000
 374,0.00000272,-0.00000514,0.00000154,0.00001413,-0.00000232,0.0000033
 1,0.00000671,-0.00000709,-0.00000556,0.00002089,0.00000924\\\@


 THOSE WITH THE GOLD MAKE THE RULES.

             -- PETER'S GOLDEN RULE
 Job cpu time:       0 days  2 hours 13 minutes 39.4 seconds.
 Elapsed time:       0 days  0 hours  8 minutes 53.2 seconds.
 File lengths (MBytes):  RWF=    183 Int=      0 D2E=      0 Chk=     10 Scr=      1
 Normal termination of Gaussian 16 at Wed Feb  7 20:16:36 2024.


PS:

Read file <Acetophenone.err> for stderr output of this job.

