Sender: LSF System <lsfadmin@mn444>
Subject: Job 425752: <#!/bin/bash;#BSUB -q q_hpc;#BSUB -oo Heptanal.out;#BSUB -eo Heptanal.err;#BSUB -n 16; #BSUB -R "span[hosts=1]";#BSUB -m "g1 g3_a g3_b"; module load gaussian/2016.03;input=Heptanal.com; sed -i "s/\( % nprocshared =\).*/\1 $LSB_DJOB_NUMPROC /g" $input;echo " Ejecucion de Gaussian ";g16 < $input> in cluster <cluster1> Done

Job <#!/bin/bash;#BSUB -q q_hpc;#BSUB -oo Heptanal.out;#BSUB -eo Heptanal.err;#BSUB -n 16; #BSUB -R "span[hosts=1]";#BSUB -m "g1 g3_a g3_b"; module load gaussian/2016.03;input=Heptanal.com; sed -i "s/\( % nprocshared =\).*/\1 $LSB_DJOB_NUMPROC /g" $input;echo " Ejecucion de Gaussian ";g16 < $input> was submitted from host <mn325> by user <agrc_a> in cluster <cluster1>.
Job was executed on host(s) <16*mn444>, in queue <q_hpc>, as user <agrc_a> in cluster <cluster1>.
</home/ilgs_g/agrc_a> was used as the home directory.
</home/ilgs_g/agrc_a/work/g16scrdir/Test/Apocinaceas> was used as the working directory.
Started at Wed Feb  7 19:26:56 2024
Results reported on Wed Feb  7 19:48:12 2024

Your job looked like:

------------------------------------------------------------
# LSBATCH: User input
#!/bin/bash
#BSUB -q q_hpc
#BSUB -oo Heptanal.out
#BSUB -eo Heptanal.err
#BSUB -n 16

#BSUB -R "span[hosts=1]"
#BSUB -m "g1 g3_a g3_b"

module load gaussian/2016.03
input=Heptanal.com

sed -i "s/\( % nprocshared =\).*/\1 $LSB_DJOB_NUMPROC /g" $input
echo " Ejecucion de Gaussian "
g16 < $input


------------------------------------------------------------

Successfully completed.

Resource usage summary:

    CPU time :                                   20276.25 sec.
    Max Memory :                                 15119.60 MB
    Average Memory :                             2156.78 MB
    Total Requested Memory :                     -
    Delta Memory :                               -
    Max Swap :                                   54736 MB
    Max Processes :                              5
    Max Threads :                                21

The output (if any) follows:

	 Directorio de scratch es: 	 /tmpu/ilgs_g/agrc_a/g16scrdir
 Ejecucion de Gaussian 
 Entering Gaussian System, Link 0=g16
 Initial command:
 /tmpu/scunam/7/gaussian-2016.03/g1/g16/l1.exe "/tmpu/ilgs_g/agrc_a/g16scrdir/Gau-26231.inp" -scrdir="/tmpu/ilgs_g/agrc_a/g16scrdir/"
 Entering Link 1 = /tmpu/scunam/7/gaussian-2016.03/g1/g16/l1.exe PID=     26232.
  
 Copyright (c) 1988,1990,1992,1993,1995,1998,2003,2009,2016,
            Gaussian, Inc.  All Rights Reserved.
  
 This is part of the Gaussian(R) 16 program.  It is based on
 the Gaussian(R) 09 system (copyright 2009, Gaussian, Inc.),
 the Gaussian(R) 03 system (copyright 2003, Gaussian, Inc.),
 the Gaussian(R) 98 system (copyright 1998, Gaussian, Inc.),
 the Gaussian(R) 94 system (copyright 1995, Gaussian, Inc.),
 the Gaussian 92(TM) system (copyright 1992, Gaussian, Inc.),
 the Gaussian 90(TM) system (copyright 1990, Gaussian, Inc.),
 the Gaussian 88(TM) system (copyright 1988, Gaussian, Inc.),
 the Gaussian 86(TM) system (copyright 1986, Carnegie Mellon
 University), and the Gaussian 82(TM) system (copyright 1983,
 Carnegie Mellon University). Gaussian is a federally registered
 trademark of Gaussian, Inc.
  
 This software contains proprietary and confidential information,
 including trade secrets, belonging to Gaussian, Inc.
  
 This software is provided under written license and may be
 used, copied, transmitted, or stored only in accord with that
 written license.
  
 The following legend is applicable only to US Government
 contracts under FAR:
  
                    RESTRICTED RIGHTS LEGEND
  
 Use, reproduction and disclosure by the US Government is
 subject to restrictions as set forth in subparagraphs (a)
 and (c) of the Commercial Computer Software - Restricted
 Rights clause in FAR 52.227-19.
  
 Gaussian, Inc.
 340 Quinnipiac St., Bldg. 40, Wallingford CT 06492
  
  
 ---------------------------------------------------------------
 Warning -- This program may not be used in any manner that
 competes with the business of Gaussian, Inc. or will provide
 assistance to any competitor of Gaussian, Inc.  The licensee
 of this program is prohibited from giving any competitor of
 Gaussian, Inc. access to this program.  By using this program,
 the user acknowledges that Gaussian, Inc. is engaged in the
 business of creating and licensing software in the field of
 computational chemistry and represents and warrants to the
 licensee that it is not a competitor of Gaussian, Inc. and that
 it will not use this program in any manner prohibited above.
 ---------------------------------------------------------------
  

 Cite this work as:
 Gaussian 16, Revision A.03,
 M. J. Frisch, G. W. Trucks, H. B. Schlegel, G. E. Scuseria, 
 M. A. Robb, J. R. Cheeseman, G. Scalmani, V. Barone, 
 G. A. Petersson, H. Nakatsuji, X. Li, M. Caricato, A. V. Marenich, 
 J. Bloino, B. G. Janesko, R. Gomperts, B. Mennucci, H. P. Hratchian, 
 J. V. Ortiz, A. F. Izmaylov, J. L. Sonnenberg, D. Williams-Young, 
 F. Ding, F. Lipparini, F. Egidi, J. Goings, B. Peng, A. Petrone, 
 T. Henderson, D. Ranasinghe, V. G. Zakrzewski, J. Gao, N. Rega, 
 G. Zheng, W. Liang, M. Hada, M. Ehara, K. Toyota, R. Fukuda, 
 J. Hasegawa, M. Ishida, T. Nakajima, Y. Honda, O. Kitao, H. Nakai, 
 T. Vreven, K. Throssell, J. A. Montgomery, Jr., J. E. Peralta, 
 F. Ogliaro, M. J. Bearpark, J. J. Heyd, E. N. Brothers, K. N. Kudin, 
 V. N. Staroverov, T. A. Keith, R. Kobayashi, J. Normand, 
 K. Raghavachari, A. P. Rendell, J. C. Burant, S. S. Iyengar, 
 J. Tomasi, M. Cossi, J. M. Millam, M. Klene, C. Adamo, R. Cammi, 
 J. W. Ochterski, R. L. Martin, K. Morokuma, O. Farkas, 
 J. B. Foresman, and D. J. Fox, Gaussian, Inc., Wallingford CT, 2016.
 
 ******************************************
 Gaussian 16:  ES64L-G16RevA.03 25-Dec-2016
                 7-Feb-2024 
 ******************************************
 %NProcShared=16
 Will use up to   16 processors via shared memory.
 %Mem=50GB
 %chk=Heptanal.chk
 ----------------------------------------------------------------------
 #p b3lyp/def2TZVP opt=(cartesian,maxcycle=500) freq=raman scf=(maxcycl
 e=2000,direct,noincore,xqc)
 ----------------------------------------------------------------------
 1/6=500,10=7,18=10,26=3,38=1/1,3;
 2/12=2,17=6,18=5,29=2,40=1/2;
 3/5=44,7=101,11=2,25=1,30=1,71=1,74=-5/1,2,3;
 4//1;
 5/5=2,7=2000,8=3,13=1,38=5/2,8;
 6/7=2,8=2,9=2,10=2,28=1/1;
 7/7=1,29=1/1,2,3,16;
 1/6=500,10=7,18=10,26=3/3(2);
 2/29=1/2;
 99/12=1/99;
 2/29=1/2;
 3/5=44,7=101,11=2,25=1,30=1,71=1,74=-5/1,2,3;
 4/5=5,16=3,69=1/1;
 5/5=2,7=2000,8=3,13=1,38=5/2,8;
 7/7=1/1,2,3,16;
 1/6=500,18=10,26=3/3(-5);
 2/29=1/2;
 6/7=2,8=2,9=2,10=2,19=2,28=1/1;
 99/9=1,12=1/99;
 Leave Link    1 at Wed Feb  7 19:26:56 2024, MaxMem=  6710886400 cpu:               1.6 elap:               0.1
 (Enter /tmpu/scunam/7/gaussian-2016.03/g1/g16/l101.exe)
 --------
 Heptanal
 --------
 Symbolic Z-matrix:
 Charge =  0 Multiplicity = 1
 O                     3.3867    1.0806   -0.0235 
 C                    -0.5354   -0.6544    0.0086 
 C                    -1.7034    0.3339    0.0182 
 C                     0.8104    0.0765    0.0337 
 C                    -3.047    -0.3927   -0.0377 
 C                     1.9942   -0.885    -0.0056 
 C                    -4.211     0.5845    0.0049 
 C                     3.3053   -0.1434    0.0015 
 H                    -0.6072   -1.321     0.8765 
 H                    -0.5928   -1.2827   -0.8885 
 H                    -1.619     1.0134   -0.8387 
 H                    -1.6544    0.9494    0.9247 
 H                     0.8703    0.6985    0.9359 
 H                     0.8654    0.7612   -0.8224 
 H                    -3.11     -0.9892   -0.9553 
 H                    -3.1305   -1.0867    0.8069 
 H                     1.9632   -1.5023   -0.9094 
 H                     1.9791   -1.5471    0.8663 
 H                    -5.1616    0.0437   -0.0371 
 H                    -4.1749    1.2746   -0.8441 
 H                    -4.1956    1.1731    0.9276 
 H                     4.2099   -0.7746    0.0188 
 
 ITRead=  0  0  0  0  0  0  0  0  0  0  0  0  0  0  0  0  0  0  0  0
 ITRead=  0  0
 MicOpt= -1 -1 -1 -1 -1 -1 -1 -1 -1 -1 -1 -1 -1 -1 -1 -1 -1 -1 -1 -1
 MicOpt= -1 -1
 NAtoms=     22 NQM=       22 NQMF=       0 NMMI=      0 NMMIF=      0
                NMic=       0 NMicF=      0.
                    Isotopes and Nuclear Properties:
 (Nuclear quadrupole moments (NQMom) in fm**2, nuclear magnetic moments (NMagM)
  in nuclear magnetons)

  Atom         1           2           3           4           5           6           7           8           9          10
 IAtWgt=          16          12          12          12          12          12          12          12           1           1
 AtmWgt=  15.9949146  12.0000000  12.0000000  12.0000000  12.0000000  12.0000000  12.0000000  12.0000000   1.0078250   1.0078250
 NucSpn=           0           0           0           0           0           0           0           0           1           1
 AtZEff=  -0.0000000  -0.0000000  -0.0000000  -0.0000000  -0.0000000  -0.0000000  -0.0000000  -0.0000000  -0.0000000  -0.0000000
 NQMom=    0.0000000   0.0000000   0.0000000   0.0000000   0.0000000   0.0000000   0.0000000   0.0000000   0.0000000   0.0000000
 NMagM=    0.0000000   0.0000000   0.0000000   0.0000000   0.0000000   0.0000000   0.0000000   0.0000000   2.7928460   2.7928460
 AtZNuc=   8.0000000   6.0000000   6.0000000   6.0000000   6.0000000   6.0000000   6.0000000   6.0000000   1.0000000   1.0000000

  Atom        11          12          13          14          15          16          17          18          19          20
 IAtWgt=           1           1           1           1           1           1           1           1           1           1
 AtmWgt=   1.0078250   1.0078250   1.0078250   1.0078250   1.0078250   1.0078250   1.0078250   1.0078250   1.0078250   1.0078250
 NucSpn=           1           1           1           1           1           1           1           1           1           1
 AtZEff=  -0.0000000  -0.0000000  -0.0000000  -0.0000000  -0.0000000  -0.0000000  -0.0000000  -0.0000000  -0.0000000  -0.0000000
 NQMom=    0.0000000   0.0000000   0.0000000   0.0000000   0.0000000   0.0000000   0.0000000   0.0000000   0.0000000   0.0000000
 NMagM=    2.7928460   2.7928460   2.7928460   2.7928460   2.7928460   2.7928460   2.7928460   2.7928460   2.7928460   2.7928460
 AtZNuc=   1.0000000   1.0000000   1.0000000   1.0000000   1.0000000   1.0000000   1.0000000   1.0000000   1.0000000   1.0000000

  Atom        21          22
 IAtWgt=           1           1
 AtmWgt=   1.0078250   1.0078250
 NucSpn=           1           1
 AtZEff=  -0.0000000  -0.0000000
 NQMom=    0.0000000   0.0000000
 NMagM=    2.7928460   2.7928460
 AtZNuc=   1.0000000   1.0000000
 Leave Link  101 at Wed Feb  7 19:26:56 2024, MaxMem=  6710886400 cpu:               1.4 elap:               0.1
 (Enter /tmpu/scunam/7/gaussian-2016.03/g1/g16/l103.exe)

 GradGradGradGradGradGradGradGradGradGradGradGradGradGradGradGradGradGrad
 Berny optimization.
 Initialization pass.
 No Z-matrix variables, so optimization will use Cartesian coordinates.
 Trust Radius=3.00D-01 FncErr=1.00D-07 GrdErr=1.00D-06 EigMax=2.50D+02 EigMin=1.00D-04
 Number of steps in this run=    132 maximum allowed number of steps=    132.
 GradGradGradGradGradGradGradGradGradGradGradGradGradGradGradGradGradGrad

 Leave Link  103 at Wed Feb  7 19:26:56 2024, MaxMem=  6710886400 cpu:               0.9 elap:               0.1
 (Enter /tmpu/scunam/7/gaussian-2016.03/g1/g16/l202.exe)
 ---------------------------------------------------------------------------------------------------
                            Z-MATRIX (ANGSTROMS AND DEGREES)
   CD    Cent   Atom    N1       Length/X        N2       Alpha/Y        N3        Beta/Z          J
 ---------------------------------------------------------------------------------------------------
      1      1  O        0   3.386700          1.080600         -0.023500
      2      2  C        0  -0.535400         -0.654400          0.008600
      3      3  C        0  -1.703400          0.333900          0.018200
      4      4  C        0   0.810400          0.076500          0.033700
      5      5  C        0  -3.047000         -0.392700         -0.037700
      6      6  C        0   1.994200         -0.885000         -0.005600
      7      7  C        0  -4.211000          0.584500          0.004900
      8      8  C        0   3.305300         -0.143400          0.001500
      9      9  H        0  -0.607200         -1.321000          0.876500
     10     10  H        0  -0.592800         -1.282700         -0.888500
     11     11  H        0  -1.619000          1.013400         -0.838700
     12     12  H        0  -1.654400          0.949400          0.924700
     13     13  H        0   0.870300          0.698500          0.935900
     14     14  H        0   0.865400          0.761200         -0.822400
     15     15  H        0  -3.110000         -0.989200         -0.955300
     16     16  H        0  -3.130500         -1.086700          0.806900
     17     17  H        0   1.963200         -1.502300         -0.909400
     18     18  H        0   1.979100         -1.547100          0.866300
     19     19  H        0  -5.161600          0.043700         -0.037100
     20     20  H        0  -4.174900          1.274600         -0.844100
     21     21  H        0  -4.195600          1.173100          0.927600
     22     22  H        0   4.209900         -0.774600          0.018800
 ---------------------------------------------------------------------------------------------------
                         Z-Matrix orientation:                         
 ---------------------------------------------------------------------
 Center     Atomic      Atomic             Coordinates (Angstroms)
 Number     Number       Type             X           Y           Z
 ---------------------------------------------------------------------
      1          8           0        3.386700    1.080600   -0.023500
      2          6           0       -0.535400   -0.654400    0.008600
      3          6           0       -1.703400    0.333900    0.018200
      4          6           0        0.810400    0.076500    0.033700
      5          6           0       -3.047000   -0.392700   -0.037700
      6          6           0        1.994200   -0.885000   -0.005600
      7          6           0       -4.211000    0.584500    0.004900
      8          6           0        3.305300   -0.143400    0.001500
      9          1           0       -0.607200   -1.321000    0.876500
     10          1           0       -0.592800   -1.282700   -0.888500
     11          1           0       -1.619000    1.013400   -0.838700
     12          1           0       -1.654400    0.949400    0.924700
     13          1           0        0.870300    0.698500    0.935900
     14          1           0        0.865400    0.761200   -0.822400
     15          1           0       -3.110000   -0.989200   -0.955300
     16          1           0       -3.130500   -1.086700    0.806900
     17          1           0        1.963200   -1.502300   -0.909400
     18          1           0        1.979100   -1.547100    0.866300
     19          1           0       -5.161600    0.043700   -0.037100
     20          1           0       -4.174900    1.274600   -0.844100
     21          1           0       -4.195600    1.173100    0.927600
     22          1           0        4.209900   -0.774600    0.018800
 ---------------------------------------------------------------------
                    Distance matrix (angstroms):
                    1          2          3          4          5
     1  O    0.000000
     2  C    4.288837   0.000000
     3  C    5.144747   1.530050   0.000000
     4  C    2.765648   1.531673   2.526991   0.000000
     5  C    6.600251   2.525622   1.528507   3.886487   0.000000
     6  C    2.408933   2.540129   3.893396   1.525585   5.065283
     7  C    7.613932   3.878778   2.520126   5.047113   1.520405
     8  C    1.226958   3.874551   5.031418   2.504779   6.357311
     9  H    4.746464   1.096705   2.162644   2.161691   2.765886
    10  H    4.708485   1.096742   2.160771   2.160289   2.745735
    11  H    5.072090   2.161866   1.096869   2.746060   2.158217
    12  H    5.131178   2.159531   1.096806   2.762440   2.160273
    13  H    2.720058   2.160143   2.756635   1.097468   4.181370
    14  H    2.664059   2.157945   2.736408   1.097609   4.153807
    15  H    6.881819   2.769433   2.162596   4.181312   1.096253
    16  H    6.918139   2.749311   2.162583   4.181096   1.096338
    17  H    3.079374   2.793682   4.204287   2.170483   5.205111
    18  H    3.110931   2.802726   4.221166   2.166832   5.235603
    19  H    8.610969   4.678799   3.470795   5.972510   2.159162
    20  H    7.608470   4.206435   2.781509   5.201845   2.168485
    21  H    7.642279   4.193016   2.782504   5.202079   2.168598
    22  H    2.030077   4.746833   6.016302   3.504453   7.267162
                    6          7          8          9         10
     6  C    0.000000
     7  C    6.376837   0.000000
     8  C    1.506321   7.551464   0.000000
     9  H    2.781273   4.168692   4.178519   0.000000
    10  H    2.762290   4.168449   4.157558   1.765474   0.000000
    11  H    4.165716   2.759362   5.127656   3.068399   2.515480
    12  H    4.188408   2.741421   5.161892   2.500733   3.065446
    13  H    2.158019   5.167143   2.740643   2.502981   3.065004
    14  H    2.156693   5.146405   2.729510   3.064371   2.511622
    15  H    5.192846   2.147258   6.541171   3.119229   2.535133
    16  H    5.192628   2.145599   6.554236   2.535110   3.058221
    17  H    1.094931   6.581142   2.116029   3.135166   2.565501
    18  H    1.094904   6.603262   2.115906   2.596184   3.124724
    19  H    7.215882   1.094472   8.469055   4.841449   4.833027
    20  H    6.589746   1.094688   7.660232   4.735619   4.401499
    21  H    6.589405   1.094560   7.671658   4.370327   4.723276
    22  H    2.218583   8.529883   1.103184   4.923277   4.913989
                   11         12         13         14         15
    11  H    0.000000
    12  H    1.764916   0.000000
    13  H    3.073269   2.537161   0.000000
    14  H    2.497221   3.071998   1.759424   0.000000
    15  H    2.499417   3.067791   4.718872   4.345730   0.000000
    16  H    3.066440   2.517628   4.382919   4.694312   1.765014
    17  H    4.377888   4.739387   3.072960   2.517174   5.099288
    18  H    4.733868   4.408883   2.505394   3.069248   5.434006
    19  H    3.759374   3.747773   6.144860   6.120150   2.473669
    20  H    2.569218   3.096341   5.380923   5.066426   2.504230
    21  H    3.127969   2.551029   5.088090   5.370836   3.065841
    22  H    6.156974   6.179227   3.763512   3.775179   7.387548
                   16         17         18         19         20
    16  H    0.000000
    17  H    5.391121   0.000000
    18  H    5.130644   1.776336   0.000000
    19  H    2.472955   7.342602   7.371321   0.000000
    20  H    3.064688   6.737337   6.982777   1.771988   0.000000
    21  H    2.501140   6.961548   6.747604   1.771820   1.774726
    22  H    7.389180   2.537472   2.508283   9.407324   8.674600
                   21         22
    21  H    0.000000
    22  H    8.675937   0.000000
 Stoichiometry    C7H14O
 Framework group  C1[X(C7H14O)]
 Deg. of freedom    60
 Full point group                 C1      NOp   1
 Largest Abelian subgroup         C1      NOp   1
 Largest concise Abelian subgroup C1      NOp   1
                         Standard orientation:                         
 ---------------------------------------------------------------------
 Center     Atomic      Atomic             Coordinates (Angstroms)
 Number     Number       Type             X           Y           Z
 ---------------------------------------------------------------------
      1          8           0       -3.489194   -1.137625   -0.027260
      2          6           0        0.407492    0.653619    0.010245
      3          6           0        1.589612   -0.317769    0.017227
      4          6           0       -0.927637   -0.096667    0.033109
      5          6           0        2.922607    0.428272   -0.036450
      6          6           0       -2.125167    0.847780   -0.003650
      7          6           0        4.100565   -0.532168    0.003562
      8          6           0       -3.425444    0.087345    0.001189
      9          1           0        0.469595    1.318742    0.880023
     10          1           0        0.455916    1.285200   -0.885079
     11          1           0        1.515095   -0.996004   -0.841590
     12          1           0        1.549402   -0.936457    0.921987
     13          1           0       -0.978653   -0.721999    0.933550
     14          1           0       -0.972683   -0.779680   -0.824918
     15          1           0        2.977091    1.028195   -0.952362
     16          1           0        2.996017    1.121027    0.810107
     17          1           0       -2.102981    1.468000   -0.905708
     18          1           0       -2.119693    1.507575    0.870108
     19          1           0        5.043276    0.022391   -0.036790
     20          1           0        4.074494   -1.220327   -0.847378
     21          1           0        4.093561   -1.123520    0.924603
     22          1           0       -4.339048    0.705392    0.020140
 ---------------------------------------------------------------------
 Rotational constants (GHZ):           7.5175974           0.5895450           0.5581484
 Leave Link  202 at Wed Feb  7 19:26:56 2024, MaxMem=  6710886400 cpu:               0.3 elap:               0.0
 (Enter /tmpu/scunam/7/gaussian-2016.03/g1/g16/l301.exe)
 Standard basis: def2TZVP (5D, 7F)
 Ernie: Thresh=  0.10000D-02 Tol=  0.10000D-05 Strict=F.
 There are   372 symmetry adapted cartesian basis functions of A   symmetry.
 There are   332 symmetry adapted basis functions of A   symmetry.
   332 basis functions,   520 primitive gaussians,   372 cartesian basis functions
    32 alpha electrons       32 beta electrons
       nuclear repulsion energy       362.2180458479 Hartrees.
 IExCor=  402 DFT=T Ex+Corr=B3LYP ExCW=0 ScaHFX=  0.200000
 ScaDFX=  0.800000  0.720000  1.000000  0.810000 ScalE2=  1.000000  1.000000
 IRadAn=      5 IRanWt=     -1 IRanGd=            0 ICorTp=0 IEmpDi=  4
 NAtoms=   22 NActive=   22 NUniq=   22 SFac= 1.00D+00 NAtFMM=   60 NAOKFM=F Big=F
 Integral buffers will be    131072 words long.
 Raffenetti 2 integral format.
 Two-electron integral symmetry is turned on.
 Leave Link  301 at Wed Feb  7 19:26:56 2024, MaxMem=  6710886400 cpu:               1.3 elap:               0.1
 (Enter /tmpu/scunam/7/gaussian-2016.03/g1/g16/l302.exe)
 NPDir=0 NMtPBC=     1 NCelOv=     1 NCel=       1 NClECP=     1 NCelD=      1
         NCelK=      1 NCelE2=     1 NClLst=     1 CellRange=     0.0.
 One-electron integrals computed using PRISM.
 One-electron integral symmetry used in STVInt
   1 Symmetry operations used in ECPInt.
 ECPInt:  NShTT=   10440 NPrTT=   30108 LenC2=    9736 LenP2D=   22048.
 LDataN:  DoStor=T MaxTD1= 6 Len=  172
 NBasis=   332 RedAO= T EigKep=  7.88D-05  NBF=   332
 NBsUse=   332 1.00D-06 EigRej= -1.00D+00 NBFU=   332
 Precomputing XC quadrature grid using
 IXCGrd= 4 IRadAn=           5 IRanWt=          -1 IRanGd=           0 AccXCQ= 0.00D+00.
 Generated NRdTot=       0 NPtTot=           0 NUsed=           0 NTot=          32
 NSgBfM=   367   367   367   367   367 MxSgAt=    22 MxSgA2=    22.
 Leave Link  302 at Wed Feb  7 19:26:57 2024, MaxMem=  6710886400 cpu:               6.1 elap:               0.4
 (Enter /tmpu/scunam/7/gaussian-2016.03/g1/g16/l303.exe)
 DipDrv:  MaxL=1.
 Leave Link  303 at Wed Feb  7 19:26:57 2024, MaxMem=  6710886400 cpu:               2.1 elap:               0.2
 (Enter /tmpu/scunam/7/gaussian-2016.03/g1/g16/l401.exe)
 ExpMin= 9.52D-02 ExpMax= 2.70D+04 ExpMxC= 9.22D+02 IAcc=3 IRadAn=         5 AccDes= 0.00D+00
 Harris functional with IExCor=  402 and IRadAn=       5 diagonalized for initial guess.
 HarFok:  IExCor=  402 AccDes= 0.00D+00 IRadAn=         5 IDoV= 1 UseB2=F ITyADJ=14
 ICtDFT=  3500011 ScaDFX=  1.000000  1.000000  1.000000  1.000000
 FoFCou: FMM=F IPFlag=           0 FMFlag=      100000 FMFlg1=           0
         NFxFlg=           0 DoJE=T BraDBF=F KetDBF=T FulRan=T
         wScrn=  0.000000 ICntrl=       500 IOpCl=  0 I1Cent=   200000004 NGrid=           0
         NMat0=    1 NMatS0=      1 NMatT0=    0 NMatD0=    1 NMtDS0=    0 NMtDT0=    0
 Petite list used in FoFCou.
 Harris En= -350.628647422984    
 JPrj=0 DoOrth=F DoCkMO=F.
 Leave Link  401 at Wed Feb  7 19:26:59 2024, MaxMem=  6710886400 cpu:              23.3 elap:               1.5
 (Enter /tmpu/scunam/7/gaussian-2016.03/g1/g16/l502.exe)
 Integral symmetry usage will be decided dynamically.
 Closed shell SCF:
 Using DIIS extrapolation, IDIIS=  1040.
 NGot=  6710886400 LenX=  6710600118 LenY=  6710461293
 Requested convergence on RMS density matrix=1.00D-08 within 128 cycles.
 Requested convergence on MAX density matrix=1.00D-06.
 Requested convergence on             energy=1.00D-06.
 No special actions if energy rises.
 Fock matrices will be formed incrementally for  20 cycles.
 Integral accuracy reduced to 1.0D-05 until final iterations.

 Cycle   1  Pass 0  IDiag  1:
 FoFJK:  IHMeth= 1 ICntrl=       0 DoSepK=F KAlg= 0 I1Cent=           0 FoldK=F
 IRaf= 890000000 NMat=       1 IRICut=       1 DoRegI=T DoRafI=F ISym2E= 0 IDoP0=0 IntGTp=1.
 FoFCou: FMM=F IPFlag=           0 FMFlag=      100000 FMFlg1=           0
         NFxFlg=           0 DoJE=F BraDBF=F KetDBF=F FulRan=T
         wScrn=  0.000000 ICntrl=         0 IOpCl=  0 I1Cent=           0 NGrid=           0
         NMat0=    1 NMatS0=      1 NMatT0=    0 NMatD0=    1 NMtDS0=    0 NMtDT0=    0
 Symmetry not used in FoFCou.
 E= -350.197944528992    
 DIIS: error= 3.64D-02 at cycle   1 NSaved=   1.
 NSaved= 1 IEnMin= 1 EnMin= -350.197944528992     IErMin= 1 ErrMin= 3.64D-02
 ErrMax= 3.64D-02  0.00D+00 EMaxC= 1.00D-01 BMatC= 3.54D-01 BMatP= 3.54D-01
 IDIUse=3 WtCom= 6.36D-01 WtEn= 3.64D-01
 Coeff-Com:  0.100D+01
 Coeff-En:   0.100D+01
 Coeff:      0.100D+01
 Gap=     0.147 Goal=   None    Shift=    0.000
 GapD=    0.147 DampG=1.000 DampE=0.500 DampFc=0.5000 IDamp=-1.
 Damping current iteration by 5.00D-01
 RMSDP=7.37D-03 MaxDP=1.19D+00              OVMax= 2.63D-01

 Cycle   2  Pass 0  IDiag  1:
 RMSU=  3.68D-03    CP:  9.79D-01
 E= -350.309150654097     Delta-E=       -0.111206125105 Rises=F Damp=T
 DIIS: error= 9.51D-03 at cycle   2 NSaved=   2.
 NSaved= 2 IEnMin= 2 EnMin= -350.309150654097     IErMin= 2 ErrMin= 9.51D-03
 ErrMax= 9.51D-03  0.00D+00 EMaxC= 1.00D-01 BMatC= 4.01D-02 BMatP= 3.54D-01
 IDIUse=3 WtCom= 9.05D-01 WtEn= 9.51D-02
 Coeff-Com:  0.177D+00 0.823D+00
 Coeff-En:   0.292D+00 0.708D+00
 Coeff:      0.188D+00 0.812D+00
 Gap=     0.228 Goal=   None    Shift=    0.000
 RMSDP=2.79D-03 MaxDP=5.05D-01 DE=-1.11D-01 OVMax= 2.08D-01

 Cycle   3  Pass 0  IDiag  1:
 RMSU=  1.11D-03    CP:  9.70D-01  3.04D-01
 E= -350.501445845766     Delta-E=       -0.192295191669 Rises=F Damp=F
 DIIS: error= 1.25D-02 at cycle   3 NSaved=   3.
 NSaved= 3 IEnMin= 3 EnMin= -350.501445845766     IErMin= 2 ErrMin= 9.51D-03
 ErrMax= 1.25D-02  0.00D+00 EMaxC= 1.00D-01 BMatC= 4.56D-02 BMatP= 4.01D-02
 IDIUse=2 WtCom= 0.00D+00 WtEn= 1.00D+00
 Coeff-En:   0.000D+00 0.000D+00 0.100D+01
 Coeff:      0.000D+00 0.000D+00 0.100D+01
 Gap=     0.208 Goal=   None    Shift=    0.000
 RMSDP=2.92D-03 MaxDP=4.62D-01 DE=-1.92D-01 OVMax= 2.37D-01

 Cycle   4  Pass 0  IDiag  1:
 RMSU=  1.30D-03    CP:  9.89D-01  9.59D-01  1.02D-01
 E= -350.325371915176     Delta-E=        0.176073930591 Rises=F Damp=F
 DIIS: error= 3.00D-02 at cycle   4 NSaved=   4.
 NSaved= 4 IEnMin= 3 EnMin= -350.501445845766     IErMin= 2 ErrMin= 9.51D-03
 ErrMax= 3.00D-02  0.00D+00 EMaxC= 1.00D-01 BMatC= 2.76D-01 BMatP= 4.01D-02
 IDIUse=2 WtCom= 0.00D+00 WtEn= 1.00D+00
 Coeff-En:   0.000D+00 0.000D+00 0.800D+00 0.200D+00
 Coeff:      0.000D+00 0.000D+00 0.800D+00 0.200D+00
 Gap=     0.205 Goal=   None    Shift=    0.000
 RMSDP=1.94D-03 MaxDP=3.33D-01 DE= 1.76D-01 OVMax= 1.30D-01

 Cycle   5  Pass 0  IDiag  1:
 RMSU=  1.93D-04    CP:  9.79D-01  5.02D-01  6.66D-01  4.45D-01
 E= -350.520189256538     Delta-E=       -0.194817341363 Rises=F Damp=F
 DIIS: error= 8.79D-03 at cycle   5 NSaved=   5.
 NSaved= 5 IEnMin= 5 EnMin= -350.520189256538     IErMin= 5 ErrMin= 8.79D-03
 ErrMax= 8.79D-03  0.00D+00 EMaxC= 1.00D-01 BMatC= 2.23D-02 BMatP= 4.01D-02
 IDIUse=3 WtCom= 9.12D-01 WtEn= 8.79D-02
 Coeff-Com: -0.191D-02 0.253D-01 0.299D+00-0.111D+00 0.789D+00
 Coeff-En:   0.000D+00 0.000D+00 0.364D+00 0.000D+00 0.636D+00
 Coeff:     -0.174D-02 0.231D-01 0.305D+00-0.102D+00 0.775D+00
 Gap=     0.225 Goal=   None    Shift=    0.000
 RMSDP=4.75D-04 MaxDP=6.65D-02 DE=-1.95D-01 OVMax= 3.77D-02

 Cycle   6  Pass 0  IDiag  1:
 RMSU=  2.93D-05    CP:  9.75D-01  4.03D-01  8.18D-01  2.53D-01  7.79D-01
 E= -350.536901595120     Delta-E=       -0.016712338581 Rises=F Damp=F
 DIIS: error= 1.15D-04 at cycle   6 NSaved=   6.
 NSaved= 6 IEnMin= 6 EnMin= -350.536901595120     IErMin= 6 ErrMin= 1.15D-04
 ErrMax= 1.15D-04  0.00D+00 EMaxC= 1.00D-01 BMatC= 9.47D-06 BMatP= 2.23D-02
 IDIUse=3 WtCom= 9.99D-01 WtEn= 1.15D-03
 Coeff-Com: -0.732D-03 0.237D-02 0.855D-01-0.376D-01 0.250D+00 0.701D+00
 Coeff-En:   0.000D+00 0.000D+00 0.000D+00 0.000D+00 0.000D+00 0.100D+01
 Coeff:     -0.731D-03 0.237D-02 0.854D-01-0.375D-01 0.249D+00 0.701D+00
 Gap=     0.225 Goal=   None    Shift=    0.000
 RMSDP=1.01D-05 MaxDP=4.51D-04 DE=-1.67D-02 OVMax= 6.37D-04

 Cycle   7  Pass 0  IDiag  1:
 RMSU=  8.52D-06    CP:  9.75D-01  4.03D-01  8.19D-01  2.55D-01  7.71D-01
                    CP:  8.59D-01
 E= -350.536908535133     Delta-E=       -0.000006940014 Rises=F Damp=F
 DIIS: error= 6.71D-05 at cycle   7 NSaved=   7.
 NSaved= 7 IEnMin= 7 EnMin= -350.536908535133     IErMin= 7 ErrMin= 6.71D-05
 ErrMax= 6.71D-05  0.00D+00 EMaxC= 1.00D-01 BMatC= 2.83D-06 BMatP= 9.47D-06
 IDIUse=1 WtCom= 1.00D+00 WtEn= 0.00D+00
 Coeff-Com:  0.134D-03-0.130D-02 0.232D-01-0.932D-02 0.627D-01 0.342D+00
 Coeff-Com:  0.583D+00
 Coeff:      0.134D-03-0.130D-02 0.232D-01-0.932D-02 0.627D-01 0.342D+00
 Coeff:      0.583D+00
 Gap=     0.225 Goal=   None    Shift=    0.000
 RMSDP=5.71D-06 MaxDP=6.89D-04 DE=-6.94D-06 OVMax= 3.09D-04

 Initial convergence to 1.0D-05 achieved.  Increase integral accuracy.
 Cycle   8  Pass 1  IDiag  1:
 E= -350.536881301229     Delta-E=        0.000027233904 Rises=F Damp=F
 DIIS: error= 1.13D-04 at cycle   1 NSaved=   1.
 NSaved= 1 IEnMin= 1 EnMin= -350.536881301229     IErMin= 1 ErrMin= 1.13D-04
 ErrMax= 1.13D-04  0.00D+00 EMaxC= 1.00D-01 BMatC= 1.40D-06 BMatP= 1.40D-06
 IDIUse=3 WtCom= 9.99D-01 WtEn= 1.13D-03
 Coeff-Com:  0.100D+01
 Coeff-En:   0.100D+01
 Coeff:      0.100D+01
 Gap=     0.225 Goal=   None    Shift=    0.000
 RMSDP=5.71D-06 MaxDP=6.89D-04 DE= 2.72D-05 OVMax= 2.26D-04

 Cycle   9  Pass 1  IDiag  1:
 RMSU=  7.83D-05    CP:  1.00D+00
 E= -350.536882004095     Delta-E=       -0.000000702865 Rises=F Damp=F
 DIIS: error= 2.99D-05 at cycle   2 NSaved=   2.
 NSaved= 2 IEnMin= 2 EnMin= -350.536882004095     IErMin= 2 ErrMin= 2.99D-05
 ErrMax= 2.99D-05  0.00D+00 EMaxC= 1.00D-01 BMatC= 2.63D-07 BMatP= 1.40D-06
 IDIUse=1 WtCom= 1.00D+00 WtEn= 0.00D+00
 Coeff-Com:  0.204D+00 0.796D+00
 Coeff:      0.204D+00 0.796D+00
 Gap=     0.225 Goal=   None    Shift=    0.000
 RMSDP=4.29D-06 MaxDP=5.63D-04 DE=-7.03D-07 OVMax= 3.08D-04

 Cycle  10  Pass 1  IDiag  1:
 RMSU=  4.05D-06    CP:  1.00D+00  1.02D+00
 E= -350.536881763294     Delta-E=        0.000000240801 Rises=F Damp=F
 DIIS: error= 4.72D-05 at cycle   3 NSaved=   3.
 NSaved= 3 IEnMin= 2 EnMin= -350.536882004095     IErMin= 2 ErrMin= 2.99D-05
 ErrMax= 4.72D-05  0.00D+00 EMaxC= 1.00D-01 BMatC= 5.98D-07 BMatP= 2.63D-07
 IDIUse=1 WtCom= 1.00D+00 WtEn= 0.00D+00
 Coeff-Com:  0.504D-02 0.600D+00 0.395D+00
 Coeff:      0.504D-02 0.600D+00 0.395D+00
 Gap=     0.225 Goal=   None    Shift=    0.000
 RMSDP=2.63D-06 MaxDP=3.58D-04 DE= 2.41D-07 OVMax= 2.08D-04

 Cycle  11  Pass 1  IDiag  1:
 RMSU=  4.60D-07    CP:  1.00D+00  1.02D+00  3.73D-01
 E= -350.536882191213     Delta-E=       -0.000000427920 Rises=F Damp=F
 DIIS: error= 4.25D-06 at cycle   4 NSaved=   4.
 NSaved= 4 IEnMin= 4 EnMin= -350.536882191213     IErMin= 4 ErrMin= 4.25D-06
 ErrMax= 4.25D-06  0.00D+00 EMaxC= 1.00D-01 BMatC= 1.01D-08 BMatP= 2.63D-07
 IDIUse=1 WtCom= 1.00D+00 WtEn= 0.00D+00
 Coeff-Com: -0.203D-02 0.343D+00 0.243D+00 0.416D+00
 Coeff:     -0.203D-02 0.343D+00 0.243D+00 0.416D+00
 Gap=     0.225 Goal=   None    Shift=    0.000
 RMSDP=2.46D-07 MaxDP=2.40D-05 DE=-4.28D-07 OVMax= 1.98D-05

 Cycle  12  Pass 1  IDiag  1:
 RMSU=  1.29D-07    CP:  1.00D+00  1.02D+00  4.09D-01  6.83D-01
 E= -350.536882200351     Delta-E=       -0.000000009138 Rises=F Damp=F
 DIIS: error= 3.58D-07 at cycle   5 NSaved=   5.
 NSaved= 5 IEnMin= 5 EnMin= -350.536882200351     IErMin= 5 ErrMin= 3.58D-07
 ErrMax= 3.58D-07  0.00D+00 EMaxC= 1.00D-01 BMatC= 4.75D-11 BMatP= 1.01D-08
 IDIUse=1 WtCom= 1.00D+00 WtEn= 0.00D+00
 Coeff-Com: -0.925D-03 0.122D+00 0.890D-01 0.162D+00 0.628D+00
 Coeff:     -0.925D-03 0.122D+00 0.890D-01 0.162D+00 0.628D+00
 Gap=     0.225 Goal=   None    Shift=    0.000
 RMSDP=3.73D-08 MaxDP=2.53D-06 DE=-9.14D-09 OVMax= 1.32D-06

 Cycle  13  Pass 1  IDiag  1:
 RMSU=  2.99D-08    CP:  1.00D+00  1.02D+00  4.14D-01  6.87D-01  1.00D+00
 E= -350.536882200400     Delta-E=       -0.000000000049 Rises=F Damp=F
 DIIS: error= 3.98D-08 at cycle   6 NSaved=   6.
 NSaved= 6 IEnMin= 6 EnMin= -350.536882200400     IErMin= 6 ErrMin= 3.98D-08
 ErrMax= 3.98D-08  0.00D+00 EMaxC= 1.00D-01 BMatC= 7.35D-13 BMatP= 4.75D-11
 IDIUse=1 WtCom= 1.00D+00 WtEn= 0.00D+00
 Coeff-Com: -0.247D-03 0.313D-01 0.228D-01 0.423D-01 0.193D+00 0.711D+00
 Coeff:     -0.247D-03 0.313D-01 0.228D-01 0.423D-01 0.193D+00 0.711D+00
 Gap=     0.225 Goal=   None    Shift=    0.000
 RMSDP=4.43D-09 MaxDP=1.32D-07 DE=-4.91D-11 OVMax= 2.09D-07

 SCF Done:  E(RB3LYP) =  -350.536882200     A.U. after   13 cycles
            NFock= 13  Conv=0.44D-08     -V/T= 2.0055
 KE= 3.486167963629D+02 PE=-1.539109770684D+03 EE= 4.777380462731D+02
 Leave Link  502 at Wed Feb  7 19:27:38 2024, MaxMem=  6710886400 cpu:             623.7 elap:              39.1
 (Enter /tmpu/scunam/7/gaussian-2016.03/g1/g16/l508.exe)
 QCSCF skips out because SCF is already converged.
 Leave Link  508 at Wed Feb  7 19:27:38 2024, MaxMem=  6710886400 cpu:               0.6 elap:               0.1
 (Enter /tmpu/scunam/7/gaussian-2016.03/g1/g16/l601.exe)
 Copying SCF densities to generalized density rwf, IOpCl= 0 IROHF=0.

 **********************************************************************

            Population analysis using the SCF density.

 **********************************************************************

 Orbital symmetries:
       Occupied  (A) (A) (A) (A) (A) (A) (A) (A) (A) (A) (A) (A)
                 (A) (A) (A) (A) (A) (A) (A) (A) (A) (A) (A) (A)
                 (A) (A) (A) (A) (A) (A) (A) (A)
       Virtual   (A) (A) (A) (A) (A) (A) (A) (A) (A) (A) (A) (A)
                 (A) (A) (A) (A) (A) (A) (A) (A) (A) (A) (A) (A)
                 (A) (A) (A) (A) (A) (A) (A) (A) (A) (A) (A) (A)
                 (A) (A) (A) (A) (A) (A) (A) (A) (A) (A) (A) (A)
                 (A) (A) (A) (A) (A) (A) (A) (A) (A) (A) (A) (A)
                 (A) (A) (A) (A) (A) (A) (A) (A) (A) (A) (A) (A)
                 (A) (A) (A) (A) (A) (A) (A) (A) (A) (A) (A) (A)
                 (A) (A) (A) (A) (A) (A) (A) (A) (A) (A) (A) (A)
                 (A) (A) (A) (A) (A) (A) (A) (A) (A) (A) (A) (A)
                 (A) (A) (A) (A) (A) (A) (A) (A) (A) (A) (A) (A)
                 (A) (A) (A) (A) (A) (A) (A) (A) (A) (A) (A) (A)
                 (A) (A) (A) (A) (A) (A) (A) (A) (A) (A) (A) (A)
                 (A) (A) (A) (A) (A) (A) (A) (A) (A) (A) (A) (A)
                 (A) (A) (A) (A) (A) (A) (A) (A) (A) (A) (A) (A)
                 (A) (A) (A) (A) (A) (A) (A) (A) (A) (A) (A) (A)
                 (A) (A) (A) (A) (A) (A) (A) (A) (A) (A) (A) (A)
                 (A) (A) (A) (A) (A) (A) (A) (A) (A) (A) (A) (A)
                 (A) (A) (A) (A) (A) (A) (A) (A) (A) (A) (A) (A)
                 (A) (A) (A) (A) (A) (A) (A) (A) (A) (A) (A) (A)
                 (A) (A) (A) (A) (A) (A) (A) (A) (A) (A) (A) (A)
                 (A) (A) (A) (A) (A) (A) (A) (A) (A) (A) (A) (A)
                 (A) (A) (A) (A) (A) (A) (A) (A) (A) (A) (A) (A)
                 (A) (A) (A) (A) (A) (A) (A) (A) (A) (A) (A) (A)
                 (A) (A) (A) (A) (A) (A) (A) (A) (A) (A) (A) (A)
                 (A) (A) (A) (A) (A) (A) (A) (A) (A) (A) (A) (A)
 The electronic state is 1-A.
 Alpha  occ. eigenvalues --  -19.12953 -10.26595 -10.18682 -10.16968 -10.16794
 Alpha  occ. eigenvalues --  -10.16510 -10.16469 -10.15770  -1.04357  -0.81831
 Alpha  occ. eigenvalues --   -0.78669  -0.73405  -0.66714  -0.60502  -0.58216
 Alpha  occ. eigenvalues --   -0.56147  -0.49490  -0.48419  -0.46787  -0.44788
 Alpha  occ. eigenvalues --   -0.42855  -0.42479  -0.39909  -0.38556  -0.37973
 Alpha  occ. eigenvalues --   -0.36118  -0.35278  -0.33795  -0.33636  -0.33042
 Alpha  occ. eigenvalues --   -0.31662  -0.26338
 Alpha virt. eigenvalues --   -0.03852   0.02520   0.03878   0.05449   0.06003
 Alpha virt. eigenvalues --    0.06535   0.08323   0.09076   0.10057   0.11517
 Alpha virt. eigenvalues --    0.11961   0.12212   0.12939   0.13822   0.14355
 Alpha virt. eigenvalues --    0.15054   0.16375   0.16786   0.17740   0.19391
 Alpha virt. eigenvalues --    0.20530   0.22504   0.23621   0.24411   0.25793
 Alpha virt. eigenvalues --    0.27043   0.27420   0.27803   0.29326   0.29896
 Alpha virt. eigenvalues --    0.30186   0.30680   0.32720   0.33287   0.37051
 Alpha virt. eigenvalues --    0.37935   0.39308   0.39479   0.39842   0.40588
 Alpha virt. eigenvalues --    0.42053   0.42765   0.43337   0.43899   0.44677
 Alpha virt. eigenvalues --    0.45469   0.45570   0.45938   0.46886   0.47028
 Alpha virt. eigenvalues --    0.48344   0.48685   0.48731   0.50072   0.50288
 Alpha virt. eigenvalues --    0.50473   0.54163   0.54953   0.57125   0.59080
 Alpha virt. eigenvalues --    0.59335   0.60191   0.61824   0.63942   0.67401
 Alpha virt. eigenvalues --    0.69131   0.70454   0.72056   0.76513   0.76864
 Alpha virt. eigenvalues --    0.79322   0.81723   0.82480   0.84036   0.84389
 Alpha virt. eigenvalues --    0.85159   0.86477   0.89113   0.89646   0.90514
 Alpha virt. eigenvalues --    0.97813   0.98186   0.99000   0.99370   1.03387
 Alpha virt. eigenvalues --    1.06134   1.07163   1.07322   1.07916   1.08655
 Alpha virt. eigenvalues --    1.09785   1.09988   1.10894   1.12316   1.15949
 Alpha virt. eigenvalues --    1.21522   1.22038   1.22393   1.27541   1.28690
 Alpha virt. eigenvalues --    1.31482   1.32685   1.34483   1.40694   1.41385
 Alpha virt. eigenvalues --    1.46959   1.48196   1.50766   1.51800   1.52249
 Alpha virt. eigenvalues --    1.53002   1.54296   1.54390   1.54586   1.55237
 Alpha virt. eigenvalues --    1.58544   1.59177   1.59772   1.60633   1.61009
 Alpha virt. eigenvalues --    1.63974   1.66866   1.72518   1.73453   1.77238
 Alpha virt. eigenvalues --    1.81289   1.81792   1.83218   1.83875   1.84215
 Alpha virt. eigenvalues --    1.85772   1.87425   1.87991   1.88358   1.90341
 Alpha virt. eigenvalues --    1.91317   1.92102   1.93399   1.94859   1.97984
 Alpha virt. eigenvalues --    1.99692   2.05642   2.06612   2.08340   2.11910
 Alpha virt. eigenvalues --    2.12949   2.13473   2.16156   2.19501   2.20830
 Alpha virt. eigenvalues --    2.23323   2.25434   2.28454   2.30244   2.32229
 Alpha virt. eigenvalues --    2.34654   2.35732   2.36742   2.37676   2.40336
 Alpha virt. eigenvalues --    2.43291   2.46520   2.46927   2.46967   2.47984
 Alpha virt. eigenvalues --    2.50966   2.52878   2.53237   2.54190   2.54487
 Alpha virt. eigenvalues --    2.54713   2.58482   2.59313   2.59517   2.61034
 Alpha virt. eigenvalues --    2.61818   2.64583   2.64951   2.65449   2.67434
 Alpha virt. eigenvalues --    2.68428   2.70167   2.70942   2.71949   2.72279
 Alpha virt. eigenvalues --    2.73957   2.74715   2.75057   2.77625   2.81632
 Alpha virt. eigenvalues --    2.83418   2.87804   2.89024   2.93630   2.97033
 Alpha virt. eigenvalues --    2.98481   2.99632   3.00246   3.03663   3.05688
 Alpha virt. eigenvalues --    3.07941   3.09257   3.10571   3.12593   3.15717
 Alpha virt. eigenvalues --    3.16311   3.17628   3.18068   3.18622   3.20673
 Alpha virt. eigenvalues --    3.23184   3.24369   3.24728   3.27187   3.28518
 Alpha virt. eigenvalues --    3.30235   3.30755   3.31782   3.33513   3.37960
 Alpha virt. eigenvalues --    3.39997   3.40576   3.40944   3.41771   3.42000
 Alpha virt. eigenvalues --    3.43008   3.46874   3.47210   3.51225   3.52255
 Alpha virt. eigenvalues --    3.52703   3.54633   3.56579   3.57470   3.60344
 Alpha virt. eigenvalues --    3.61711   3.61947   3.62886   3.65363   3.71518
 Alpha virt. eigenvalues --    3.76204   3.82874   3.84032   3.84570   3.85874
 Alpha virt. eigenvalues --    3.87692   3.88583   3.89749   3.90042   3.92218
 Alpha virt. eigenvalues --    3.97519   4.02210   4.05253   4.06812   4.07536
 Alpha virt. eigenvalues --    4.10909   4.16990   4.23094   4.28537   4.33180
 Alpha virt. eigenvalues --    4.33290   4.36257   4.41156   4.45175   4.49879
 Alpha virt. eigenvalues --    4.51733   4.52439   4.57438   4.59616   4.59815
 Alpha virt. eigenvalues --    4.61238   4.63912   4.66450   4.67592   4.71001
 Alpha virt. eigenvalues --    4.75680   4.89321   4.95449   5.14456   5.17382
 Alpha virt. eigenvalues --    5.20948   5.24166   5.52457   5.62245   6.04626
 Alpha virt. eigenvalues --    6.24826   6.33536   6.34537   6.45233   6.78066
 Alpha virt. eigenvalues --    6.92684   7.01616  22.26676  22.32936  22.41403
 Alpha virt. eigenvalues --   22.44798  22.49145  22.49667  22.67278  43.72964
          Condensed to atoms (all electrons):
               1          2          3          4          5          6
     1  O    7.814728   0.001388   0.000258   0.023456   0.000001  -0.162888
     2  C    0.001388   5.014007   0.318586   0.298628  -0.056535  -0.051297
     3  C    0.000258   0.318586   5.008255  -0.060956   0.317020   0.007952
     4  C    0.023456   0.298628  -0.060956   5.013182   0.013171   0.203985
     5  C    0.000001  -0.056535   0.317020   0.013171   4.957024  -0.000888
     6  C   -0.162888  -0.051297   0.007952   0.203985  -0.000888   5.577040
     7  C   -0.000000   0.015255  -0.066906  -0.001175   0.310043   0.000047
     8  C    0.649409   0.011063   0.000121  -0.012010   0.000028   0.127545
     9  H   -0.000050   0.398360  -0.035449  -0.033335  -0.006387  -0.005365
    10  H   -0.000026   0.402680  -0.037936  -0.037507  -0.005935  -0.005250
    11  H   -0.000062  -0.040052   0.409134  -0.005384  -0.040251   0.000493
    12  H   -0.000043  -0.039985   0.409224  -0.005507  -0.040731   0.000489
    13  H    0.005056  -0.050673  -0.003145   0.420420  -0.000120  -0.040001
    14  H    0.006735  -0.053693  -0.002890   0.424412  -0.000186  -0.041828
    15  H   -0.000000  -0.006822  -0.042065  -0.000100   0.410286   0.000015
    16  H   -0.000000  -0.005992  -0.043896  -0.000074   0.411543   0.000015
    17  H    0.003474  -0.004138  -0.000012  -0.030745  -0.000007   0.364525
    18  H    0.004192  -0.004913  -0.000004  -0.032765  -0.000014   0.365838
    19  H   -0.000000  -0.001199   0.015251   0.000056  -0.053920  -0.000002
    20  H    0.000000   0.000002  -0.007475  -0.000037  -0.040651   0.000001
    21  H    0.000000  -0.000132  -0.007407  -0.000019  -0.041394   0.000000
    22  H   -0.054678  -0.000422   0.000074   0.023080  -0.000001  -0.218735
               7          8          9         10         11         12
     1  O   -0.000000   0.649409  -0.000050  -0.000026  -0.000062  -0.000043
     2  C    0.015255   0.011063   0.398360   0.402680  -0.040052  -0.039985
     3  C   -0.066906   0.000121  -0.035449  -0.037936   0.409134   0.409224
     4  C   -0.001175  -0.012010  -0.033335  -0.037507  -0.005384  -0.005507
     5  C    0.310043   0.000028  -0.006387  -0.005935  -0.040251  -0.040731
     6  C    0.000047   0.127545  -0.005365  -0.005250   0.000493   0.000489
     7  C    4.918641  -0.000002   0.000042   0.000041  -0.004507  -0.004623
     8  C   -0.000002   4.686338  -0.000545  -0.000485  -0.000108  -0.000103
     9  H    0.000042  -0.000545   0.626705  -0.036053   0.008669  -0.006407
    10  H    0.000041  -0.000485  -0.036053   0.628080  -0.006032   0.008791
    11  H   -0.004507  -0.000108   0.008669  -0.006032   0.617003  -0.034117
    12  H   -0.004623  -0.000103  -0.006407   0.008791  -0.034117   0.618115
    13  H   -0.000015  -0.004253  -0.005505   0.008169   0.000418   0.003428
    14  H   -0.000002  -0.004046   0.007970  -0.004972   0.003482   0.000456
    15  H   -0.038495  -0.000001   0.000424   0.004051  -0.006828   0.009003
    16  H   -0.039994  -0.000000   0.003981   0.000306   0.009066  -0.006399
    17  H   -0.000000  -0.012841   0.000383   0.003027   0.000138  -0.000059
    18  H    0.000000  -0.014048   0.002888   0.000393  -0.000066   0.000125
    19  H    0.416223   0.000000   0.000010   0.000009  -0.000195  -0.000158
    20  H    0.408315   0.000000  -0.000038   0.000118   0.004740   0.000106
    21  H    0.409442   0.000000   0.000134  -0.000036   0.000154   0.004809
    22  H    0.000000   0.468960  -0.000036  -0.000025  -0.000004  -0.000003
              13         14         15         16         17         18
     1  O    0.005056   0.006735  -0.000000  -0.000000   0.003474   0.004192
     2  C   -0.050673  -0.053693  -0.006822  -0.005992  -0.004138  -0.004913
     3  C   -0.003145  -0.002890  -0.042065  -0.043896  -0.000012  -0.000004
     4  C    0.420420   0.424412  -0.000100  -0.000074  -0.030745  -0.032765
     5  C   -0.000120  -0.000186   0.410286   0.411543  -0.000007  -0.000014
     6  C   -0.040001  -0.041828   0.000015   0.000015   0.364525   0.365838
     7  C   -0.000015  -0.000002  -0.038495  -0.039994  -0.000000   0.000000
     8  C   -0.004253  -0.004046  -0.000001  -0.000000  -0.012841  -0.014048
     9  H   -0.005505   0.007970   0.000424   0.003981   0.000383   0.002888
    10  H    0.008169  -0.004972   0.004051   0.000306   0.003027   0.000393
    11  H    0.000418   0.003482  -0.006828   0.009066   0.000138  -0.000066
    12  H    0.003428   0.000456   0.009003  -0.006399  -0.000059   0.000125
    13  H    0.587935  -0.022167  -0.000053   0.000150   0.007564  -0.004803
    14  H   -0.022167   0.582481   0.000168  -0.000056  -0.004489   0.007785
    15  H   -0.000053   0.000168   0.628118  -0.036534  -0.000029   0.000011
    16  H    0.000150  -0.000056  -0.036534   0.629646   0.000012  -0.000028
    17  H    0.007564  -0.004489  -0.000029   0.000012   0.584657  -0.024215
    18  H   -0.004803   0.007785   0.000011  -0.000028  -0.024215   0.587794
    19  H    0.000001   0.000001  -0.004669  -0.004569   0.000000   0.000000
    20  H    0.000013  -0.000029  -0.006346   0.008928   0.000000  -0.000000
    21  H   -0.000027   0.000013   0.008838  -0.006319  -0.000000   0.000000
    22  H    0.000631   0.000865  -0.000000  -0.000000   0.006854   0.007707
              19         20         21         22
     1  O   -0.000000   0.000000   0.000000  -0.054678
     2  C   -0.001199   0.000002  -0.000132  -0.000422
     3  C    0.015251  -0.007475  -0.007407   0.000074
     4  C    0.000056  -0.000037  -0.000019   0.023080
     5  C   -0.053920  -0.040651  -0.041394  -0.000001
     6  C   -0.000002   0.000001   0.000000  -0.218735
     7  C    0.416223   0.408315   0.409442   0.000000
     8  C    0.000000   0.000000   0.000000   0.468960
     9  H    0.000010  -0.000038   0.000134  -0.000036
    10  H    0.000009   0.000118  -0.000036  -0.000025
    11  H   -0.000195   0.004740   0.000154  -0.000004
    12  H   -0.000158   0.000106   0.004809  -0.000003
    13  H    0.000001   0.000013  -0.000027   0.000631
    14  H    0.000001  -0.000029   0.000013   0.000865
    15  H   -0.004669  -0.006346   0.008838  -0.000000
    16  H   -0.004569   0.008928  -0.006319  -0.000000
    17  H    0.000000   0.000000  -0.000000   0.006854
    18  H    0.000000  -0.000000   0.000000   0.007707
    19  H    0.579011  -0.026744  -0.026784  -0.000000
    20  H   -0.026744   0.589054  -0.030045   0.000000
    21  H   -0.026784  -0.030045   0.588541   0.000000
    22  H   -0.000000   0.000000   0.000000   0.683341
 Mulliken charges:
               1
     1  O   -0.290951
     2  C   -0.144115
     3  C   -0.177734
     4  C   -0.200776
     5  C   -0.132095
     6  C   -0.121691
     7  C   -0.322330
     8  C    0.104979
     9  H    0.079606
    10  H    0.078591
    11  H    0.084307
    12  H    0.083587
    13  H    0.096976
    14  H    0.099988
    15  H    0.081028
    16  H    0.080214
    17  H    0.105902
    18  H    0.104124
    19  H    0.107678
    20  H    0.100087
    21  H    0.100232
    22  H    0.082393
 Sum of Mulliken charges =  -0.00000
 Mulliken charges with hydrogens summed into heavy atoms:
               1
     1  O   -0.290951
     2  C    0.014082
     3  C   -0.009839
     4  C   -0.003812
     5  C    0.029146
     6  C    0.088335
     7  C   -0.014333
     8  C    0.187371
 Electronic spatial extent (au):  <R**2>=           2000.9897
 Charge=             -0.0000 electrons
 Dipole moment (field-independent basis, Debye):
    X=              0.8510    Y=              2.5995    Z=              0.0421  Tot=              2.7356
 Quadrupole moment (field-independent basis, Debye-Ang):
   XX=            -57.6271   YY=            -55.3508   ZZ=            -50.5846
   XY=             -8.8888   XZ=             -0.1852   YZ=             -0.0316
 Traceless Quadrupole moment (field-independent basis, Debye-Ang):
   XX=             -3.1063   YY=             -0.8300   ZZ=              3.9362
   XY=             -8.8888   XZ=             -0.1852   YZ=             -0.0316
 Octapole moment (field-independent basis, Debye-Ang**2):
  XXX=             -4.5747  YYY=             -0.3454  ZZZ=             -0.0646  XYY=              2.9251
  XXY=             34.2323  XXZ=              0.5620  XZZ=             -6.1001  YZZ=             -0.8946
  YYZ=              0.0012  XYZ=              0.3211
 Hexadecapole moment (field-independent basis, Debye-Ang**3):
 XXXX=          -2481.9138 YYYY=           -243.0152 ZZZZ=            -96.4901 XXXY=            -86.8927
 XXXZ=             -2.8519 YYYX=              1.7051 YYYZ=              0.6325 ZZZX=              0.5945
 ZZZY=             -0.1982 XXYY=           -474.5141 XXZZ=           -406.8085 YYZZ=            -50.7925
 XXYZ=             -0.6426 YYXZ=             -0.2636 ZZXY=              2.3264
 N-N= 3.622180458479D+02 E-N=-1.539109758725D+03  KE= 3.486167963629D+02
 No NMR shielding tensors so no spin-rotation constants.
 Leave Link  601 at Wed Feb  7 19:27:38 2024, MaxMem=  6710886400 cpu:               2.8 elap:               0.2
 (Enter /tmpu/scunam/7/gaussian-2016.03/g1/g16/l701.exe)
 ... and contract with generalized density number  0.
 Compute integral first derivatives.
   1 Symmetry operations used in ECPInt.
 ECPInt:  NShTT=   10440 NPrTT=   30108 LenC2=    9736 LenP2D=   22048.
 LDataN:  DoStor=T MaxTD1= 7 Len=  274
 Leave Link  701 at Wed Feb  7 19:27:38 2024, MaxMem=  6710886400 cpu:               5.0 elap:               0.4
 (Enter /tmpu/scunam/7/gaussian-2016.03/g1/g16/l702.exe)
 L702 exits ... SP integral derivatives will be done elsewhere.
 Leave Link  702 at Wed Feb  7 19:27:39 2024, MaxMem=  6710886400 cpu:               0.4 elap:               0.0
 (Enter /tmpu/scunam/7/gaussian-2016.03/g1/g16/l703.exe)
 Integral derivatives from FoFJK, PRISM(SPDF).
 Compute integral first derivatives, UseDBF=F ICtDFT=           0.
 Calling FoFJK, ICntrl=      2127 FMM=F ISym2X=0 I1Cent= 0 IOpClX= 0 NMat=1 NMatS=1 NMatT=0.
 FoFJK:  IHMeth= 1 ICntrl=    2127 DoSepK=F KAlg= 0 I1Cent=           0 FoldK=F
 IRaf=         0 NMat=       1 IRICut=       1 DoRegI=T DoRafI=F ISym2E= 0 IDoP0=0 IntGTp=1.
 FoFCou: FMM=F IPFlag=           0 FMFlag=      100000 FMFlg1=         800
         NFxFlg=           0 DoJE=F BraDBF=F KetDBF=F FulRan=T
         wScrn=  0.000000 ICntrl=      2127 IOpCl=  0 I1Cent=           0 NGrid=           0
         NMat0=    1 NMatS0=      1 NMatT0=    0 NMatD0=    1 NMtDS0=    0 NMtDT0=    0
 Symmetry not used in FoFCou.
 Leave Link  703 at Wed Feb  7 19:27:52 2024, MaxMem=  6710886400 cpu:             205.5 elap:              12.9
 (Enter /tmpu/scunam/7/gaussian-2016.03/g1/g16/l716.exe)
 Dipole        = 3.34792465D-01 1.02271746D+00 1.65707168D-02
 ***** Axes restored to original set *****
 -------------------------------------------------------------------
 Center     Atomic                   Forces (Hartrees/Bohr)
 Number     Number              X              Y              Z
 -------------------------------------------------------------------
      1        8           0.003036091   -0.033964286    0.001350282
      2        6           0.004784023    0.009341375   -0.000008183
      3        6          -0.000616365   -0.011960366   -0.000247377
      4        6          -0.005025035   -0.004881166   -0.001298742
      5        6          -0.000899455    0.006613664    0.000808393
      6        6           0.000009114    0.015072449    0.002354578
      7        6          -0.006281760   -0.001997023   -0.000460057
      8        6          -0.002689985    0.030682841   -0.002522474
      9        1          -0.000837993   -0.000206245   -0.001345593
     10        1          -0.000666575   -0.000274763    0.001234998
     11        1           0.000112645   -0.000283326    0.001517173
     12        1          -0.000176582   -0.000055394   -0.001468290
     13        1           0.001001645   -0.001204313   -0.003269592
     14        1           0.001006136   -0.001549245    0.003445418
     15        1           0.001274511   -0.000460487    0.001598224
     16        1           0.001334897   -0.000335707   -0.001610964
     17        1           0.001192818   -0.003784442    0.001365368
     18        1           0.001204637   -0.004118908   -0.001902242
     19        1          -0.000336595    0.003048807    0.000142720
     20        1          -0.000758319   -0.000185221    0.001640458
     21        1          -0.000650075   -0.000022885   -0.001623517
     22        1           0.003982222    0.000524641    0.000299419
 -------------------------------------------------------------------
 Cartesian Forces:  Max     0.033964286 RMS     0.006587163
 Leave Link  716 at Wed Feb  7 19:27:52 2024, MaxMem=  6710886400 cpu:               0.3 elap:               0.0
 (Enter /tmpu/scunam/7/gaussian-2016.03/g1/g16/l103.exe)

 GradGradGradGradGradGradGradGradGradGradGradGradGradGradGradGradGradGrad
 Berny optimization.
 Search for a local minimum.
 Step number   1 out of a maximum of  132
 All quantities printed in internal units (Hartrees-Bohrs-Radians)
 Second derivative matrix not updated -- first step.
 ITU=  0
     Eigenvalues ---    0.00054   0.00067   0.00176   0.00234   0.00252
     Eigenvalues ---    0.00531   0.00642   0.00887   0.01071   0.02047
     Eigenvalues ---    0.02404   0.03219   0.03440   0.03912   0.04558
     Eigenvalues ---    0.04712   0.05155   0.05259   0.05619   0.05778
     Eigenvalues ---    0.06090   0.06384   0.06879   0.07941   0.07960
     Eigenvalues ---    0.08525   0.09639   0.09886   0.11706   0.13027
     Eigenvalues ---    0.13062   0.13868   0.15034   0.15954   0.16415
     Eigenvalues ---    0.17851   0.18039   0.20601   0.21436   0.24892
     Eigenvalues ---    0.27386   0.39164   0.52170   0.58151   0.61980
     Eigenvalues ---    0.68999   0.69479   0.77766   0.87055   0.87798
     Eigenvalues ---    0.92777   0.92955   0.95629   0.98857   0.99604
     Eigenvalues ---    1.02428   1.04727   1.08359   1.12975   2.06530
 RFO step:  Lambda=-4.75326848D-03 EMin= 5.37182895D-04
 Linear search not attempted -- first point.
 Maximum step size (   0.300) exceeded in Quadratic search.
    -- Step size scaled by   0.847
 B after Tr=     0.008291   -0.001223    0.000947
         Rot=    1.000000   -0.000268    0.000101    0.000340 Ang=  -0.05 deg.
 Variable       Old X    -DE/DX   Delta X   Delta X   Delta X     New X
                                 (Linear)    (Quad)   (Total)
    X1        6.39994   0.00304   0.00000   0.15711   0.16677   6.56670
    Y1        2.04204  -0.03396   0.00000  -0.03803  -0.04369   1.99835
    Z1       -0.04441   0.00135   0.00000   0.01411   0.01745  -0.02696
    X2       -1.01176   0.00478   0.00000   0.00247   0.00993  -1.00183
    Y2       -1.23664   0.00934   0.00000   0.01206   0.01152  -1.22512
    Z2        0.01625  -0.00001   0.00000  -0.00638  -0.00629   0.00996
    X3       -3.21896  -0.00062   0.00000  -0.03515  -0.02646  -3.24542
    Y3        0.63098  -0.01196   0.00000  -0.03413  -0.03317   0.59781
    Z3        0.03439  -0.00025   0.00000   0.00097   0.00158   0.03597
    X4        1.53143  -0.00503   0.00000  -0.00001   0.00837   1.53980
    Y4        0.14456  -0.00488   0.00000   0.01241   0.01012   0.15468
    Z4        0.06368  -0.00130   0.00000  -0.00720  -0.00586   0.05782
    X5       -5.75800  -0.00090   0.00000  -0.05789  -0.05008  -5.80808
    Y5       -0.74210   0.00661   0.00000   0.00530   0.00806  -0.73403
    Z5       -0.07124   0.00081   0.00000   0.00716   0.00654  -0.06470
    X6        3.76849   0.00001   0.00000   0.03322   0.04040   3.80890
    Y6       -1.67241   0.01507   0.00000   0.05105   0.04725  -1.62516
    Z6       -0.01058   0.00235   0.00000   0.00570   0.00654  -0.00404
    X7       -7.95764  -0.00628   0.00000  -0.08389  -0.07485  -8.03249
    Y7        1.10454  -0.00200   0.00000  -0.00285   0.00138   1.10593
    Z7        0.00926  -0.00046   0.00000  -0.00129  -0.00137   0.00789
    X8        6.24611  -0.00269   0.00000   0.06661   0.07472   6.32083
    Y8       -0.27099   0.03068   0.00000  -0.00167  -0.00718  -0.27816
    Z8        0.00283  -0.00252   0.00000  -0.00797  -0.00590  -0.00306
    X9       -1.14744  -0.00084   0.00000   0.00499   0.01125  -1.13619
    Y9       -2.49633  -0.00021   0.00000   0.00101  -0.00031  -2.49664
    Z9        1.65634  -0.00135   0.00000  -0.01717  -0.01779   1.63855
   X10       -1.12023  -0.00067   0.00000   0.00209   0.00907  -1.11116
   Y10       -2.42395  -0.00027   0.00000   0.00531   0.00575  -2.41821
   Z10       -1.67902   0.00123   0.00000   0.00079   0.00022  -1.67880
   X11       -3.05947   0.00011   0.00000  -0.03748  -0.02759  -3.08706
   Y11        1.91505  -0.00028   0.00000  -0.02450  -0.02278   1.89227
   Z11       -1.58491   0.00152   0.00000   0.01220   0.01354  -1.57138
   X12       -3.12636  -0.00018   0.00000  -0.03277  -0.02363  -3.14999
   Y12        1.79411  -0.00006   0.00000  -0.02508  -0.02508   1.76902
   Z12        1.74743  -0.00147   0.00000  -0.00872  -0.00746   1.73997
   X13        1.64463   0.00100   0.00000   0.00124   0.01009   1.65472
   Y13        1.31997  -0.00120   0.00000   0.01943   0.01615   1.33613
   Z13        1.76859  -0.00327   0.00000  -0.02206  -0.02007   1.74853
   X14        1.63537   0.00101   0.00000   0.00701   0.01659   1.65196
   Y14        1.43846  -0.00155   0.00000   0.01169   0.01018   1.44864
   Z14       -1.55411   0.00345   0.00000   0.00425   0.00630  -1.54781
   X15       -5.87705   0.00127   0.00000  -0.04113  -0.03375  -5.91080
   Y15       -1.86932  -0.00046   0.00000  -0.00973  -0.00597  -1.87529
   Z15       -1.80526   0.00160   0.00000   0.01907   0.01782  -1.78744
   X16       -5.91579   0.00133   0.00000  -0.04185  -0.03526  -5.95105
   Y16       -2.05357  -0.00034   0.00000  -0.00245  -0.00044  -2.05401
   Z16        1.52482  -0.00161   0.00000  -0.00130  -0.00265   1.52217
   X17        3.70991   0.00119   0.00000   0.04217   0.04888   3.75879
   Y17       -2.83894  -0.00378   0.00000   0.01365   0.01078  -2.82815
   Z17       -1.71852   0.00137   0.00000   0.02751   0.02770  -1.69082
   X18        3.73996   0.00120   0.00000   0.04350   0.04949   3.78944
   Y18       -2.92360  -0.00412   0.00000   0.01632   0.01166  -2.91194
   Z18        1.63707  -0.00190   0.00000  -0.01713  -0.01698   1.62009
   X19       -9.75401  -0.00034   0.00000  -0.09425  -0.08587  -9.83988
   Y19        0.08258   0.00305   0.00000   0.02318   0.02868   0.11126
   Z19       -0.07011   0.00014   0.00000  -0.00052  -0.00149  -0.07160
   X20       -7.88942  -0.00076   0.00000  -0.08207  -0.07182  -7.96124
   Y20        2.40864  -0.00019   0.00000   0.00087   0.00591   2.41456
   Z20       -1.59512   0.00164   0.00000   0.00623   0.00686  -1.58826
   X21       -7.92853  -0.00065   0.00000  -0.08578  -0.07633  -8.00486
   Y21        2.21684  -0.00002   0.00000   0.00750   0.01079   2.22763
   Z21        1.75291  -0.00162   0.00000  -0.01184  -0.01131   1.74160
   X22        7.95556   0.00398   0.00000   0.05282   0.06009   8.01565
   Y22       -1.46378   0.00052   0.00000  -0.03295  -0.03963  -1.50341
   Z22        0.03553   0.00030   0.00000  -0.00913  -0.00738   0.02815
         Item               Value     Threshold  Converged?
 Maximum Force            0.033964     0.000450     NO 
 RMS     Force            0.006587     0.000300     NO 
 Maximum Displacement     0.166769     0.001800     NO 
 RMS     Displacement     0.036554     0.001200     NO 
 Predicted change in Energy=-2.535060D-03
 Lowest energy point so far.  Saving SCF results.
 GradGradGradGradGradGradGradGradGradGradGradGradGradGradGradGradGradGrad

 Leave Link  103 at Wed Feb  7 19:27:52 2024, MaxMem=  6710886400 cpu:               0.6 elap:               0.1
 (Enter /tmpu/scunam/7/gaussian-2016.03/g1/g16/l202.exe)
                          Input orientation:                          
 ---------------------------------------------------------------------
 Center     Atomic      Atomic             Coordinates (Angstroms)
 Number     Number       Type             X           Y           Z
 ---------------------------------------------------------------------
      1          8           0        3.474950    1.057482   -0.014266
      2          6           0       -0.530148   -0.648306    0.005269
      3          6           0       -1.717401    0.316350    0.019036
      4          6           0        0.814830    0.081854    0.030597
      5          6           0       -3.073503   -0.388434   -0.034237
      6          6           0        2.015581   -0.859995   -0.002139
      7          6           0       -4.250611    0.585233    0.004176
      8          6           0        3.344838   -0.147197   -0.001620
      9          1           0       -0.601245   -1.321164    0.867085
     10          1           0       -0.587999   -1.279659   -0.888385
     11          1           0       -1.633601    1.001347   -0.831536
     12          1           0       -1.666904    0.936127    0.920754
     13          1           0        0.875638    0.707048    0.925280
     14          1           0        0.874181    0.766586   -0.819064
     15          1           0       -3.127862   -0.992360   -0.945871
     16          1           0       -3.149161   -1.086934    0.805498
     17          1           0        1.989067   -1.496593   -0.894743
     18          1           0        2.005286   -1.540931    0.857315
     19          1           0       -5.207039    0.058878   -0.037890
     20          1           0       -4.212905    1.277730   -0.840469
     21          1           0       -4.235990    1.178809    0.921613
     22          1           0        4.241698   -0.795569    0.014897
 ---------------------------------------------------------------------
                    Distance matrix (angstroms):
                    1          2          3          4          5
     1  O    0.000000
     2  C    4.353263   0.000000
     3  C    5.245083   1.529810   0.000000
     4  C    2.833744   1.530601   2.543091   0.000000
     5  C    6.706215   2.556903   1.529239   3.917207   0.000000
     6  C    2.409694   2.554526   3.913999   1.526420   5.110986
     7  C    7.740004   3.919626   2.547484   5.090459   1.528099
     8  C    1.211751   3.907259   5.083460   2.540560   6.422956
     9  H    4.801052   1.095682   2.155560   2.161814   2.791849
    10  H    4.768005   1.095706   2.155506   2.160133   2.775172
    11  H    5.173816   2.153882   1.095316   2.753825   2.154182
    12  H    5.227586   2.154241   1.095340   2.771491   2.155224
    13  H    2.786032   2.158619   2.774486   1.093171   4.209094
    14  H    2.737941   2.157216   2.760692   1.092842   4.187390
    15  H    6.976165   2.787681   2.152480   4.201458   1.094878
    16  H    7.010662   2.773444   2.153524   4.204730   1.094888
    17  H    3.083243   2.806432   4.226069   2.174072   5.253390
    18  H    3.109874   2.819785   4.243890   2.175795   5.283675
    19  H    8.739263   4.730253   3.499587   6.022302   2.179926
    20  H    7.735259   4.241177   2.809010   5.240895   2.173557
    21  H    7.768474   4.232175   2.811010   5.244807   2.172850
    22  H    2.005630   4.774127   6.061950   3.537449   7.326687
                    6          7          8          9         10
     6  C    0.000000
     7  C    6.430699   0.000000
     8  C    1.508312   7.630684   0.000000
     9  H    2.795712   4.206760   4.207662   0.000000
    10  H    2.782118   4.205855   4.187605   1.756010   0.000000
    11  H    4.179597   2.778544   5.176174   3.056980   2.509882
    12  H    4.199820   2.763835   5.209792   2.496772   3.057242
    13  H    2.148302   5.209770   2.772333   2.509624   3.062453
    14  H    2.148471   5.193660   2.758145   3.062463   2.515928
    15  H    5.230981   2.156839   6.595587   3.127093   2.556707
    16  H    5.232431   2.156723   6.611094   2.559400   3.076675
    17  H    1.096678   6.638949   2.111079   3.137600   2.586189
    18  H    1.096559   6.662182   2.115340   2.615798   3.137015
    19  H    7.280924   1.092508   8.554437   4.892528   4.883703
    20  H    6.638275   1.092885   7.736508   4.765928   4.436493
    21  H    6.640195   1.092811   7.751104   4.411826   4.756890
    22  H    2.227114   8.603839   1.106804   4.945358   4.937229
                   11         12         13         14         15
    11  H    0.000000
    12  H    1.753820   0.000000
    13  H    3.077222   2.552845   0.000000
    14  H    2.518777   3.084287   1.745361   0.000000
    15  H    2.494145   3.055773   4.734682   4.373365   0.000000
    16  H    3.055769   2.510606   4.408143   4.718264   1.754050
    17  H    4.400844   4.751872   3.067287   2.524020   5.141968
    18  H    4.749411   4.429991   2.516771   3.068270   5.468238
    19  H    3.779892   3.771090   6.192478   6.171898   2.500502
    20  H    2.594084   3.114597   5.416347   5.112745   2.518280
    21  H    3.142842   2.580523   5.133353   5.414216   3.070736
    22  H    6.201975   6.223417   3.796975   3.804732   7.434529
                   16         17         18         19         20
    16  H    0.000000
    17  H    5.427710   0.000000
    18  H    5.174662   1.752695   0.000000
    19  H    2.501810   7.411993   7.441668   0.000000
    20  H    3.071220   6.794430   7.035142   1.765796   0.000000
    21  H    2.515606   7.014861   6.808426   1.765737   1.765006
    22  H    7.438732   2.528483   2.503351   9.487439   8.747029
                   21         22
    21  H    0.000000
    22  H    8.751657   0.000000
 Stoichiometry    C7H14O
 Framework group  C1[X(C7H14O)]
 Deg. of freedom    60
 Full point group                 C1      NOp   1
 RotChk:  IX=0 Diff= 3.71D-03
 Largest Abelian subgroup         C1      NOp   1
 Largest concise Abelian subgroup C1      NOp   1
                         Standard orientation:                         
 ---------------------------------------------------------------------
 Center     Atomic      Atomic             Coordinates (Angstroms)
 Number     Number       Type             X           Y           Z
 ---------------------------------------------------------------------
      1          8           0       -3.568937   -1.116273   -0.022756
      2          6           0        0.411304    0.646578    0.007888
      3          6           0        1.612250   -0.301032    0.016994
      4          6           0       -0.923084   -0.102899    0.028634
      5          6           0        2.958137    0.423382   -0.031829
      6          6           0       -2.137193    0.821818    0.000428
      7          6           0        4.149058   -0.533518    0.001870
      8          6           0       -3.456102    0.090060   -0.003532
      9          1           0        0.472417    1.315709    0.873363
     10          1           0        0.460455    1.283526   -0.882311
     11          1           0        1.538606   -0.982544   -0.837310
     12          1           0        1.570284   -0.926343    0.915322
     13          1           0       -0.975281   -0.733735    0.919894
     14          1           0       -0.972287   -0.783799   -0.824747
     15          1           0        3.004196    1.032953   -0.940157
     16          1           0        3.023450    1.118337    0.811707
     17          1           0       -2.119452    1.463555   -0.888707
     18          1           0       -2.136992    1.498167    0.863558
     19          1           0        5.097864    0.006703   -0.036900
     20          1           0        4.121608   -1.221900   -0.846526
     21          1           0        4.142583   -1.132202    0.916075
     22          1           0       -4.362165    0.725420    0.016070
 ---------------------------------------------------------------------
 Rotational constants (GHZ):           7.7140752           0.5746393           0.5455963
 Leave Link  202 at Wed Feb  7 19:27:52 2024, MaxMem=  6710886400 cpu:               0.2 elap:               0.0
 (Enter /tmpu/scunam/7/gaussian-2016.03/g1/g16/l301.exe)
 Standard basis: def2TZVP (5D, 7F)
 Ernie: Thresh=  0.10000D-02 Tol=  0.10000D-05 Strict=F.
 There are   372 symmetry adapted cartesian basis functions of A   symmetry.
 There are   332 symmetry adapted basis functions of A   symmetry.
   332 basis functions,   520 primitive gaussians,   372 cartesian basis functions
    32 alpha electrons       32 beta electrons
       nuclear repulsion energy       360.6599959673 Hartrees.
 IExCor=  402 DFT=T Ex+Corr=B3LYP ExCW=0 ScaHFX=  0.200000
 ScaDFX=  0.800000  0.720000  1.000000  0.810000 ScalE2=  1.000000  1.000000
 IRadAn=      5 IRanWt=     -1 IRanGd=            0 ICorTp=0 IEmpDi=  4
 NAtoms=   22 NActive=   22 NUniq=   22 SFac= 1.00D+00 NAtFMM=   60 NAOKFM=F Big=F
 Integral buffers will be    131072 words long.
 Raffenetti 2 integral format.
 Two-electron integral symmetry is turned on.
 Leave Link  301 at Wed Feb  7 19:27:52 2024, MaxMem=  6710886400 cpu:               0.7 elap:               0.1
 (Enter /tmpu/scunam/7/gaussian-2016.03/g1/g16/l302.exe)
 NPDir=0 NMtPBC=     1 NCelOv=     1 NCel=       1 NClECP=     1 NCelD=      1
         NCelK=      1 NCelE2=     1 NClLst=     1 CellRange=     0.0.
 One-electron integrals computed using PRISM.
 One-electron integral symmetry used in STVInt
   1 Symmetry operations used in ECPInt.
 ECPInt:  NShTT=   10440 NPrTT=   30108 LenC2=    9718 LenP2D=   21975.
 LDataN:  DoStor=T MaxTD1= 6 Len=  172
 NBasis=   332 RedAO= T EigKep=  8.29D-05  NBF=   332
 NBsUse=   332 1.00D-06 EigRej= -1.00D+00 NBFU=   332
 Precomputing XC quadrature grid using
 IXCGrd= 4 IRadAn=           5 IRanWt=          -1 IRanGd=           0 AccXCQ= 0.00D+00.
 Generated NRdTot=       0 NPtTot=           0 NUsed=           0 NTot=          32
 NSgBfM=   367   367   367   367   367 MxSgAt=    22 MxSgA2=    22.
 Leave Link  302 at Wed Feb  7 19:27:52 2024, MaxMem=  6710886400 cpu:               5.1 elap:               0.3
 (Enter /tmpu/scunam/7/gaussian-2016.03/g1/g16/l303.exe)
 DipDrv:  MaxL=1.
 Leave Link  303 at Wed Feb  7 19:27:52 2024, MaxMem=  6710886400 cpu:               0.7 elap:               0.1
 (Enter /tmpu/scunam/7/gaussian-2016.03/g1/g16/l401.exe)
 Initial guess from the checkpoint file:  "Heptanal.chk"
 B after Tr=    -0.000000   -0.000000    0.000000
         Rot=    1.000000   -0.000654   -0.000026    0.000751 Ang=  -0.11 deg.
 Guess basis will be translated and rotated to current coordinates.
 JPrj=2 DoOrth=T DoCkMO=T.
 Generating alternative initial guess.
 ExpMin= 9.52D-02 ExpMax= 2.70D+04 ExpMxC= 9.22D+02 IAcc=2 IRadAn=         4 AccDes= 0.00D+00
 Harris functional with IExCor=  402 and IRadAn=       4 diagonalized for initial guess.
 HarFok:  IExCor=  402 AccDes= 0.00D+00 IRadAn=         4 IDoV= 1 UseB2=F ITyADJ=14
 ICtDFT=  3500011 ScaDFX=  1.000000  1.000000  1.000000  1.000000
 FoFCou: FMM=F IPFlag=           0 FMFlag=      100000 FMFlg1=           0
         NFxFlg=           0 DoJE=T BraDBF=F KetDBF=T FulRan=T
         wScrn=  0.000000 ICntrl=       500 IOpCl=  0 I1Cent=   200000004 NGrid=           0
         NMat0=    1 NMatS0=      1 NMatT0=    0 NMatD0=    1 NMtDS0=    0 NMtDT0=    0
 Petite list used in FoFCou.
 Harris En= -350.631381327843    
 Leave Link  401 at Wed Feb  7 19:27:53 2024, MaxMem=  6710886400 cpu:              13.6 elap:               0.9
 (Enter /tmpu/scunam/7/gaussian-2016.03/g1/g16/l502.exe)
 Integral symmetry usage will be decided dynamically.
 Closed shell SCF:
 Using DIIS extrapolation, IDIIS=  1040.
 NGot=  6710886400 LenX=  6710600118 LenY=  6710461293
 Requested convergence on RMS density matrix=1.00D-08 within 128 cycles.
 Requested convergence on MAX density matrix=1.00D-06.
 Requested convergence on             energy=1.00D-06.
 No special actions if energy rises.
 Fock matrices will be formed incrementally for  20 cycles.
 Integral accuracy reduced to 1.0D-05 until final iterations.

 Cycle   1  Pass 0  IDiag  1:
 FoFJK:  IHMeth= 1 ICntrl=       0 DoSepK=F KAlg= 0 I1Cent=           0 FoldK=F
 IRaf= 890000000 NMat=       1 IRICut=       1 DoRegI=T DoRafI=F ISym2E= 0 IDoP0=0 IntGTp=1.
 FoFCou: FMM=F IPFlag=           0 FMFlag=      100000 FMFlg1=           0
         NFxFlg=           0 DoJE=F BraDBF=F KetDBF=F FulRan=T
         wScrn=  0.000000 ICntrl=         0 IOpCl=  0 I1Cent=           0 NGrid=           0
         NMat0=    1 NMatS0=      1 NMatT0=    0 NMatD0=    1 NMtDS0=    0 NMtDT0=    0
 Symmetry not used in FoFCou.
 E= -350.537946193486    
 DIIS: error= 1.57D-03 at cycle   1 NSaved=   1.
 NSaved= 1 IEnMin= 1 EnMin= -350.537946193486     IErMin= 1 ErrMin= 1.57D-03
 ErrMax= 1.57D-03  0.00D+00 EMaxC= 1.00D-01 BMatC= 1.41D-03 BMatP= 1.41D-03
 IDIUse=3 WtCom= 9.84D-01 WtEn= 1.57D-02
 Coeff-Com:  0.100D+01
 Coeff-En:   0.100D+01
 Coeff:      0.100D+01
 Gap=     0.652 Goal=   None    Shift=    0.000
 GapD=    0.652 DampG=2.000 DampE=1.000 DampFc=2.0000 IDamp=-1.
 RMSDP=2.07D-04 MaxDP=1.63D-02              OVMax= 9.87D-03

 Cycle   2  Pass 0  IDiag  1:
 RMSU=  2.07D-04    CP:  1.00D+00
 E= -350.539337983895     Delta-E=       -0.001391790409 Rises=F Damp=F
 DIIS: error= 2.76D-04 at cycle   2 NSaved=   2.
 NSaved= 2 IEnMin= 2 EnMin= -350.539337983895     IErMin= 2 ErrMin= 2.76D-04
 ErrMax= 2.76D-04  0.00D+00 EMaxC= 1.00D-01 BMatC= 3.76D-05 BMatP= 1.41D-03
 IDIUse=3 WtCom= 9.97D-01 WtEn= 2.76D-03
 Coeff-Com:  0.185D-02 0.998D+00
 Coeff-En:   0.000D+00 0.100D+01
 Coeff:      0.184D-02 0.998D+00
 Gap=     0.229 Goal=   None    Shift=    0.000
 RMSDP=3.79D-05 MaxDP=4.40D-03 DE=-1.39D-03 OVMax= 2.02D-03

 Cycle   3  Pass 0  IDiag  1:
 RMSU=  3.31D-05    CP:  1.00D+00  1.09D+00
 E= -350.539342943937     Delta-E=       -0.000004960042 Rises=F Damp=F
 DIIS: error= 1.98D-04 at cycle   3 NSaved=   3.
 NSaved= 3 IEnMin= 3 EnMin= -350.539342943937     IErMin= 3 ErrMin= 1.98D-04
 ErrMax= 1.98D-04  0.00D+00 EMaxC= 1.00D-01 BMatC= 3.06D-05 BMatP= 3.76D-05
 IDIUse=3 WtCom= 9.98D-01 WtEn= 1.98D-03
 Coeff-Com: -0.224D-01 0.483D+00 0.539D+00
 Coeff-En:   0.000D+00 0.452D+00 0.548D+00
 Coeff:     -0.224D-01 0.483D+00 0.539D+00
 Gap=     0.229 Goal=   None    Shift=    0.000
 RMSDP=1.95D-05 MaxDP=2.15D-03 DE=-4.96D-06 OVMax= 9.70D-04

 Cycle   4  Pass 0  IDiag  1:
 RMSU=  6.86D-06    CP:  1.00D+00  1.06D+00  4.77D-01
 E= -350.539369607657     Delta-E=       -0.000026663720 Rises=F Damp=F
 DIIS: error= 4.08D-05 at cycle   4 NSaved=   4.
 NSaved= 4 IEnMin= 4 EnMin= -350.539369607657     IErMin= 4 ErrMin= 4.08D-05
 ErrMax= 4.08D-05  0.00D+00 EMaxC= 1.00D-01 BMatC= 1.13D-06 BMatP= 3.06D-05
 IDIUse=1 WtCom= 1.00D+00 WtEn= 0.00D+00
 Coeff-Com: -0.766D-02 0.130D+00 0.222D+00 0.656D+00
 Coeff:     -0.766D-02 0.130D+00 0.222D+00 0.656D+00
 Gap=     0.229 Goal=   None    Shift=    0.000
 RMSDP=6.02D-06 MaxDP=7.60D-04 DE=-2.67D-05 OVMax= 3.17D-04

 Initial convergence to 1.0D-05 achieved.  Increase integral accuracy.
 Cycle   5  Pass 1  IDiag  1:
 E= -350.539342017394     Delta-E=        0.000027590263 Rises=F Damp=F
 DIIS: error= 1.29D-04 at cycle   1 NSaved=   1.
 NSaved= 1 IEnMin= 1 EnMin= -350.539342017394     IErMin= 1 ErrMin= 1.29D-04
 ErrMax= 1.29D-04  0.00D+00 EMaxC= 1.00D-01 BMatC= 1.60D-06 BMatP= 1.60D-06
 IDIUse=3 WtCom= 9.99D-01 WtEn= 1.29D-03
 Coeff-Com:  0.100D+01
 Coeff-En:   0.100D+01
 Coeff:      0.100D+01
 Gap=     0.229 Goal=   None    Shift=    0.000
 RMSDP=6.02D-06 MaxDP=7.60D-04 DE= 2.76D-05 OVMax= 5.36D-04

 Cycle   6  Pass 1  IDiag  1:
 RMSU=  7.01D-05    CP:  1.00D+00
 E= -350.539341653354     Delta-E=        0.000000364040 Rises=F Damp=F
 DIIS: error= 8.12D-05 at cycle   2 NSaved=   2.
 NSaved= 2 IEnMin= 1 EnMin= -350.539342017394     IErMin= 2 ErrMin= 8.12D-05
 ErrMax= 8.12D-05  0.00D+00 EMaxC= 1.00D-01 BMatC= 1.98D-06 BMatP= 1.60D-06
 IDIUse=1 WtCom= 1.00D+00 WtEn= 0.00D+00
 Coeff-Com:  0.535D+00 0.465D+00
 Coeff:      0.535D+00 0.465D+00
 Gap=     0.229 Goal=   None    Shift=    0.000
 RMSDP=6.74D-06 MaxDP=9.28D-04 DE= 3.64D-07 OVMax= 5.61D-04

 Cycle   7  Pass 1  IDiag  1:
 RMSU=  6.60D-06    CP:  1.00D+00  1.00D+00
 E= -350.539342705947     Delta-E=       -0.000001052594 Rises=F Damp=F
 DIIS: error= 4.27D-05 at cycle   3 NSaved=   3.
 NSaved= 3 IEnMin= 3 EnMin= -350.539342705947     IErMin= 3 ErrMin= 4.27D-05
 ErrMax= 4.27D-05  0.00D+00 EMaxC= 1.00D-01 BMatC= 5.61D-07 BMatP= 1.60D-06
 IDIUse=1 WtCom= 1.00D+00 WtEn= 0.00D+00
 Coeff-Com:  0.925D-02 0.346D+00 0.645D+00
 Coeff:      0.925D-02 0.346D+00 0.645D+00
 Gap=     0.229 Goal=   None    Shift=    0.000
 RMSDP=2.88D-06 MaxDP=4.06D-04 DE=-1.05D-06 OVMax= 1.94D-04

 Cycle   8  Pass 1  IDiag  1:
 RMSU=  5.74D-07    CP:  1.00D+00  1.01D+00  5.95D-01
 E= -350.539343102167     Delta-E=       -0.000000396219 Rises=F Damp=F
 DIIS: error= 3.62D-06 at cycle   4 NSaved=   4.
 NSaved= 4 IEnMin= 4 EnMin= -350.539343102167     IErMin= 4 ErrMin= 3.62D-06
 ErrMax= 3.62D-06  0.00D+00 EMaxC= 1.00D-01 BMatC= 8.34D-09 BMatP= 5.61D-07
 IDIUse=1 WtCom= 1.00D+00 WtEn= 0.00D+00
 Coeff-Com: -0.237D-02 0.183D+00 0.350D+00 0.469D+00
 Coeff:     -0.237D-02 0.183D+00 0.350D+00 0.469D+00
 Gap=     0.229 Goal=   None    Shift=    0.000
 RMSDP=4.01D-07 MaxDP=5.43D-05 DE=-3.96D-07 OVMax= 1.91D-05

 Cycle   9  Pass 1  IDiag  1:
 RMSU=  1.50D-07    CP:  1.00D+00  1.02D+00  6.41D-01  6.47D-01
 E= -350.539343109917     Delta-E=       -0.000000007750 Rises=F Damp=F
 DIIS: error= 3.34D-07 at cycle   5 NSaved=   5.
 NSaved= 5 IEnMin= 5 EnMin= -350.539343109917     IErMin= 5 ErrMin= 3.34D-07
 ErrMax= 3.34D-07  0.00D+00 EMaxC= 1.00D-01 BMatC= 5.78D-11 BMatP= 8.34D-09
 IDIUse=1 WtCom= 1.00D+00 WtEn= 0.00D+00
 Coeff-Com: -0.125D-02 0.875D-01 0.167D+00 0.232D+00 0.515D+00
 Coeff:     -0.125D-02 0.875D-01 0.167D+00 0.232D+00 0.515D+00
 Gap=     0.229 Goal=   None    Shift=    0.000
 RMSDP=2.28D-08 MaxDP=1.83D-06 DE=-7.75D-09 OVMax= 1.53D-06

 Cycle  10  Pass 1  IDiag  1:
 RMSU=  2.04D-08    CP:  1.00D+00  1.02D+00  6.42D-01  6.43D-01  1.00D+00
 E= -350.539343109971     Delta-E=       -0.000000000055 Rises=F Damp=F
 DIIS: error= 5.76D-08 at cycle   6 NSaved=   6.
 NSaved= 6 IEnMin= 6 EnMin= -350.539343109971     IErMin= 6 ErrMin= 5.76D-08
 ErrMax= 5.76D-08  0.00D+00 EMaxC= 1.00D-01 BMatC= 1.80D-12 BMatP= 5.78D-11
 IDIUse=1 WtCom= 1.00D+00 WtEn= 0.00D+00
 Coeff-Com: -0.153D-03 0.887D-02 0.170D-01 0.249D-01 0.154D+00 0.795D+00
 Coeff:     -0.153D-03 0.887D-02 0.170D-01 0.249D-01 0.154D+00 0.795D+00
 Gap=     0.229 Goal=   None    Shift=    0.000
 RMSDP=6.99D-09 MaxDP=2.32D-07 DE=-5.48D-11 OVMax= 1.03D-06

 SCF Done:  E(RB3LYP) =  -350.539343110     A.U. after   10 cycles
            NFock= 10  Conv=0.70D-08     -V/T= 2.0054
 KE= 3.486529851213D+02 PE=-1.535960719964D+03 EE= 4.761083957650D+02
 Leave Link  502 at Wed Feb  7 19:28:24 2024, MaxMem=  6710886400 cpu:             485.8 elap:              30.4
 (Enter /tmpu/scunam/7/gaussian-2016.03/g1/g16/l508.exe)
 QCSCF skips out because SCF is already converged.
 Leave Link  508 at Wed Feb  7 19:28:24 2024, MaxMem=  6710886400 cpu:               0.0 elap:               0.0
 (Enter /tmpu/scunam/7/gaussian-2016.03/g1/g16/l701.exe)
 ... and contract with generalized density number  0.
 Compute integral first derivatives.
   1 Symmetry operations used in ECPInt.
 ECPInt:  NShTT=   10440 NPrTT=   30108 LenC2=    9718 LenP2D=   21975.
 LDataN:  DoStor=T MaxTD1= 7 Len=  274
 Leave Link  701 at Wed Feb  7 19:28:24 2024, MaxMem=  6710886400 cpu:               3.4 elap:               0.2
 (Enter /tmpu/scunam/7/gaussian-2016.03/g1/g16/l702.exe)
 L702 exits ... SP integral derivatives will be done elsewhere.
 Leave Link  702 at Wed Feb  7 19:28:24 2024, MaxMem=  6710886400 cpu:               0.3 elap:               0.0
 (Enter /tmpu/scunam/7/gaussian-2016.03/g1/g16/l703.exe)
 Integral derivatives from FoFJK, PRISM(SPDF).
 Compute integral first derivatives, UseDBF=F ICtDFT=           0.
 Calling FoFJK, ICntrl=      2127 FMM=F ISym2X=0 I1Cent= 0 IOpClX= 0 NMat=1 NMatS=1 NMatT=0.
 FoFJK:  IHMeth= 1 ICntrl=    2127 DoSepK=F KAlg= 0 I1Cent=           0 FoldK=F
 IRaf=         0 NMat=       1 IRICut=       1 DoRegI=T DoRafI=F ISym2E= 0 IDoP0=0 IntGTp=1.
 FoFCou: FMM=F IPFlag=           0 FMFlag=      100000 FMFlg1=         800
         NFxFlg=           0 DoJE=F BraDBF=F KetDBF=F FulRan=T
         wScrn=  0.000000 ICntrl=      2127 IOpCl=  0 I1Cent=           0 NGrid=           0
         NMat0=    1 NMatS0=      1 NMatT0=    0 NMatD0=    1 NMtDS0=    0 NMtDT0=    0
 Symmetry not used in FoFCou.
 Leave Link  703 at Wed Feb  7 19:28:35 2024, MaxMem=  6710886400 cpu:             177.2 elap:              11.1
 (Enter /tmpu/scunam/7/gaussian-2016.03/g1/g16/l716.exe)
 Dipole        = 3.90869480D-01 9.93768377D-01 1.30548188D-02
 ***** Axes restored to original set *****
 -------------------------------------------------------------------
 Center     Atomic                   Forces (Hartrees/Bohr)
 Number     Number              X              Y              Z
 -------------------------------------------------------------------
      1        8          -0.000302906   -0.011276945    0.000023633
      2        6           0.001143408    0.003010904    0.000043951
      3        6          -0.000369591   -0.003054407   -0.000099742
      4        6          -0.001184125   -0.002400319   -0.000176405
      5        6          -0.000086757    0.001955006    0.000127640
      6        6          -0.000602224    0.005721091    0.000285723
      7        6          -0.000086219   -0.001064615   -0.000077904
      8        6          -0.001084114    0.012380736    0.000484568
      9        1           0.000035206   -0.000559055   -0.000200219
     10        1          -0.000016415   -0.000490697    0.000068506
     11        1          -0.000026288    0.000524748    0.000100206
     12        1          -0.000001898    0.000486479   -0.000028483
     13        1           0.000304383    0.000334056   -0.000319195
     14        1           0.000441948    0.000232686    0.000279172
     15        1          -0.000175440   -0.000487134    0.000211362
     16        1          -0.000171712   -0.000387479   -0.000182030
     17        1           0.000792355   -0.001889979    0.000387782
     18        1           0.000885770   -0.001640886   -0.000650752
     19        1           0.000308833    0.000392760    0.000018253
     20        1          -0.000326804    0.000158712    0.000198620
     21        1          -0.000359561    0.000232225   -0.000175410
     22        1           0.000882153   -0.002177889   -0.000319275
 -------------------------------------------------------------------
 Cartesian Forces:  Max     0.012380736 RMS     0.002348306
 Leave Link  716 at Wed Feb  7 19:28:35 2024, MaxMem=  6710886400 cpu:               0.3 elap:               0.0
 (Enter /tmpu/scunam/7/gaussian-2016.03/g1/g16/l103.exe)

 GradGradGradGradGradGradGradGradGradGradGradGradGradGradGradGradGradGrad
 Berny optimization.
 Search for a local minimum.
 Step number   2 out of a maximum of  132
 All quantities printed in internal units (Hartrees-Bohrs-Radians)
 Update second derivatives using D2CorN and points    1    2
 DE= -2.46D-03 DEPred=-2.54D-03 R= 9.71D-01
 TightC=F SS=  1.41D+00  RLast= 2.97D-01 DXNew= 5.0454D-01 8.9089D-01
 Trust test= 9.71D-01 RLast= 2.97D-01 DXMaxT set to 5.05D-01
 ITU=  1  0
     Eigenvalues ---    0.00054   0.00068   0.00183   0.00234   0.00252
     Eigenvalues ---    0.00531   0.00640   0.00885   0.01340   0.02050
     Eigenvalues ---    0.02408   0.03219   0.03441   0.03914   0.04560
     Eigenvalues ---    0.04708   0.05224   0.05261   0.05619   0.05779
     Eigenvalues ---    0.06132   0.06384   0.06877   0.07941   0.07962
     Eigenvalues ---    0.08534   0.09608   0.09883   0.11705   0.13028
     Eigenvalues ---    0.13064   0.13869   0.15032   0.15968   0.16435
     Eigenvalues ---    0.17841   0.18046   0.20597   0.21435   0.24878
     Eigenvalues ---    0.27377   0.39144   0.52172   0.58123   0.61983
     Eigenvalues ---    0.69003   0.69466   0.77874   0.87052   0.87802
     Eigenvalues ---    0.92801   0.92955   0.95632   0.98921   0.99659
     Eigenvalues ---    1.02415   1.04722   1.08371   1.12908   2.06325
 RFO step:  Lambda=-3.33552155D-04 EMin= 5.36973350D-04
 Quartic linear search produced a step of  0.32413.
 B after Tr=     0.002673   -0.000207    0.001067
         Rot=    1.000000   -0.000240    0.000150    0.000249 Ang=  -0.04 deg.
 Variable       Old X    -DE/DX   Delta X   Delta X   Delta X     New X
                                 (Linear)    (Quad)   (Total)
    X1        6.56670  -0.00030   0.05405   0.04129   0.09900   6.66570
    Y1        1.99835  -0.01128  -0.01416  -0.03055  -0.04824   1.95012
    Z1       -0.02696   0.00002   0.00566   0.00434   0.01400  -0.01296
    X2       -1.00183   0.00114   0.00322   0.00398   0.00928  -0.99255
    Y2       -1.22512   0.00301   0.00373   0.03258   0.03661  -1.18851
    Z2        0.00996   0.00004  -0.00204  -0.02738  -0.02922  -0.01926
    X3       -3.24542  -0.00037  -0.00858  -0.00832  -0.01393  -3.25935
    Y3        0.59781  -0.00305  -0.01075   0.01917   0.00983   0.60764
    Z3        0.03597  -0.00010   0.00051  -0.00495  -0.00406   0.03192
    X4        1.53980  -0.00118   0.00271   0.00234   0.00781   1.54762
    Y4        0.15468  -0.00240   0.00328   0.03265   0.03493   0.18961
    Z4        0.05782  -0.00018  -0.00190  -0.01760  -0.01788   0.03995
    X5       -5.80808  -0.00009  -0.01623   0.00441  -0.00950  -5.81758
    Y5       -0.73403   0.00196   0.00261  -0.00682  -0.00149  -0.73552
    Z5       -0.06470   0.00013   0.00212   0.00965   0.01074  -0.05396
    X6        3.80890  -0.00060   0.01310  -0.01270   0.00227   3.81116
    Y6       -1.62516   0.00572   0.01532   0.01663   0.02983  -1.59532
    Z6       -0.00404   0.00029   0.00212   0.00742   0.01098   0.00694
    X7       -8.03249  -0.00009  -0.02426  -0.00553  -0.02659  -8.05908
    Y7        1.10593  -0.00106   0.00045  -0.02685  -0.02260   1.08333
    Z7        0.00789  -0.00008  -0.00044   0.01089   0.00961   0.01750
    X8        6.32083  -0.00108   0.02422   0.00261   0.02934   6.35017
    Y8       -0.27816   0.01238  -0.00233  -0.02262  -0.02833  -0.30649
    Z8       -0.00306   0.00048  -0.00191   0.02543   0.02635   0.02329
    X9       -1.13619   0.00004   0.00365   0.01706   0.02166  -1.11453
    Y9       -2.49664  -0.00056  -0.00010   0.01152   0.01101  -2.48563
    Z9        1.63855  -0.00020  -0.00577  -0.04047  -0.04670   1.59185
   X10       -1.11116  -0.00002   0.00294   0.00934   0.01429  -1.09687
   Y10       -2.41821  -0.00049   0.00186   0.04248   0.04551  -2.37269
   Z10       -1.67880   0.00007   0.00007  -0.03677  -0.03710  -1.71590
   X11       -3.08706  -0.00003  -0.00894  -0.03283  -0.03767  -3.12473
   Y11        1.89227   0.00052  -0.00738   0.03118   0.02591   1.91818
   Z11       -1.57138   0.00010   0.00439  -0.00068   0.00476  -1.56662
   X12       -3.14999  -0.00000  -0.00766  -0.00635  -0.01097  -3.16096
   Y12        1.76902   0.00049  -0.00813   0.01639   0.00880   1.77783
   Z12        1.73997  -0.00003  -0.00242  -0.00053  -0.00198   1.73800
   X13        1.65472   0.00030   0.00327  -0.00349   0.00263   1.65734
   Y13        1.33613   0.00033   0.00524   0.04387   0.04725   1.38338
   Z13        1.74853  -0.00032  -0.00650  -0.02129  -0.02556   1.72296
   X14        1.65196   0.00044   0.00538   0.02161   0.03087   1.68284
   Y14        1.44864   0.00023   0.00330   0.02705   0.03006   1.47870
   Z14       -1.54781   0.00028   0.00204  -0.02509  -0.02077  -1.56857
   X15       -5.91080  -0.00018  -0.01094  -0.00399  -0.01267  -5.92348
   Y15       -1.87529  -0.00049  -0.00194  -0.01730  -0.01564  -1.89093
   Z15       -1.78744   0.00021   0.00578   0.01524   0.01939  -1.76804
   X16       -5.95105  -0.00017  -0.01143   0.01066   0.00042  -5.95063
   Y16       -2.05401  -0.00039  -0.00014  -0.00276  -0.00088  -2.05489
   Z16        1.52217  -0.00018  -0.00086   0.01564   0.01308   1.53525
   X17        3.75879   0.00079   0.01584   0.00181   0.01942   3.77821
   Y17       -2.82815  -0.00189   0.00350  -0.00332  -0.00111  -2.82927
   Z17       -1.69082   0.00039   0.00898   0.01822   0.02803  -1.66279
   X18        3.78944   0.00089   0.01604  -0.02556  -0.00878   3.78066
   Y18       -2.91194  -0.00164   0.00378   0.01607   0.01697  -2.89496
   Z18        1.62009  -0.00065  -0.00550   0.00785   0.00316   1.62325
   X19       -9.83988   0.00031  -0.02783   0.01057  -0.01454  -9.85442
   Y19        0.11126   0.00039   0.00930  -0.05486  -0.04083   0.07043
   Z19       -0.07160   0.00002  -0.00048   0.01985   0.01750  -0.05410
   X20       -7.96124  -0.00033  -0.02328  -0.03127  -0.05021  -8.01145
   Y20        2.41456   0.00016   0.00192  -0.03208  -0.02561   2.38895
   Z20       -1.58826   0.00020   0.00222   0.00408   0.00611  -1.58215
   X21       -8.00486  -0.00036  -0.02474  -0.01955  -0.04104  -8.04590
   Y21        2.22763   0.00023   0.00350  -0.01857  -0.01210   2.21552
   Z21        1.74160  -0.00018  -0.00367   0.00733   0.00338   1.74497
   X22        8.01565   0.00088   0.01948  -0.03243  -0.01109   8.00455
   Y22       -1.50341  -0.00218  -0.01284  -0.08283  -0.09989  -1.60330
   Z22        0.02815  -0.00032  -0.00239   0.01585   0.01616   0.04431
         Item               Value     Threshold  Converged?
 Maximum Force            0.012381     0.000450     NO 
 RMS     Force            0.002348     0.000300     NO 
 Maximum Displacement     0.099889     0.001800     NO 
 RMS     Displacement     0.028977     0.001200     NO 
 Predicted change in Energy=-2.720291D-04
 Lowest energy point so far.  Saving SCF results.
 GradGradGradGradGradGradGradGradGradGradGradGradGradGradGradGradGradGrad

 Leave Link  103 at Wed Feb  7 19:28:35 2024, MaxMem=  6710886400 cpu:               0.3 elap:               0.0
 (Enter /tmpu/scunam/7/gaussian-2016.03/g1/g16/l202.exe)
                          Input orientation:                          
 ---------------------------------------------------------------------
 Center     Atomic      Atomic             Coordinates (Angstroms)
 Number     Number       Type             X           Y           Z
 ---------------------------------------------------------------------
      1          8           0        3.527337    1.031957   -0.006857
      2          6           0       -0.525237   -0.628933   -0.010192
      3          6           0       -1.724773    0.321552    0.016889
      4          6           0        0.818965    0.100339    0.021138
      5          6           0       -3.078530   -0.389221   -0.028554
      6          6           0        2.016782   -0.844208    0.003671
      7          6           0       -4.264681    0.573274    0.009262
      8          6           0        3.360365   -0.162188    0.012322
      9          1           0       -0.589782   -1.315340    0.842373
     10          1           0       -0.580440   -1.255575   -0.908017
     11          1           0       -1.653537    1.015058   -0.829018
     12          1           0       -1.672707    0.940785    0.919708
     13          1           0        0.877028    0.732052    0.911754
     14          1           0        0.890519    0.782493   -0.830054
     15          1           0       -3.134569   -1.000637   -0.935608
     16          1           0       -3.148939   -1.087401    0.812418
     17          1           0        1.999344   -1.497183   -0.879908
     18          1           0        2.000641   -1.531949    0.858988
     19          1           0       -5.214733    0.037272   -0.028628
     20          1           0       -4.239475    1.264178   -0.837235
     21          1           0       -4.257706    1.172404    0.923400
     22          1           0        4.235827   -0.848428    0.023447
 ---------------------------------------------------------------------
                    Distance matrix (angstroms):
                    1          2          3          4          5
     1  O    0.000000
     2  C    4.379716   0.000000
     3  C    5.299990   1.530700   0.000000
     4  C    2.864258   1.529607   2.553342   0.000000
     5  C    6.757048   2.564587   1.529680   3.928436   0.000000
     6  C    2.408709   2.551155   3.918980   1.525529   5.115687
     7  C    7.805522   3.927992   2.552362   5.105611   1.527998
     8  C    1.205914   3.913599   5.108097   2.554939   6.443026
     9  H    4.814734   1.096443   2.156164   2.159431   2.794651
    10  H    4.787350   1.096274   2.156914   2.158742   2.786482
    11  H    5.245730   2.155514   1.096167   2.769971   2.154842
    12  H    5.282735   2.155322   1.096012   2.778885   2.155100
    13  H    2.820980   2.160696   2.781845   1.093448   4.217567
    14  H    2.773570   2.160709   2.787388   1.093152   4.215290
    15  H    7.026735   2.793416   2.154752   4.214017   1.095315
    16  H    7.052343   2.787596   2.155519   4.216765   1.095284
    17  H    3.081157   2.807806   4.240412   2.181114   5.266611
    18  H    3.107104   2.819747   4.245387   2.182365   5.281244
    19  H    8.798502   4.736617   3.501814   6.034232   2.178361
    20  H    7.814526   4.250110   2.818119   5.261096   2.176117
    21  H    7.841683   4.248262   2.821605   5.266496   2.176084
    22  H    2.009658   4.766240   6.074344   3.546141   7.328943
                    6          7          8          9         10
     6  C    0.000000
     7  C    6.439414   0.000000
     8  C    1.506799   7.660433   0.000000
     9  H    2.778410   4.214951   4.197905   0.000000
    10  H    2.783156   4.214229   4.191952   1.751435   0.000000
    11  H    4.197794   2.777761   5.218522   3.058737   2.512679
    12  H    4.199720   2.771697   5.231798   2.503758   3.059023
    13  H    2.146683   5.222726   2.788478   2.519555   3.063729
    14  H    2.147026   5.227266   2.775277   3.064181   2.514661
    15  H    5.238619   2.155720   6.617080   3.120287   2.566970
    16  H    5.234298   2.155871   6.623232   2.569462   3.096024
    17  H    1.098814   6.656983   2.104915   3.114947   2.591225
    18  H    1.097641   6.663952   2.107590   2.599517   3.140170
    19  H    7.285111   1.091482   8.577515   4.896771   4.890956
    20  H    6.655310   1.092951   7.779064   4.774437   4.443276
    21  H    6.654458   1.093001   7.787567   4.432730   4.771945
    22  H    2.219138   8.618589   1.112422   4.916824   4.922380
                   11         12         13         14         15
    11  H    0.000000
    12  H    1.750407   0.000000
    13  H    3.084499   2.558276   0.000000
    14  H    2.554664   3.107547   1.742590   0.000000
    15  H    2.503566   3.057508   4.744245   4.403638   0.000000
    16  H    3.057919   2.510838   4.419126   4.744622   1.750237
    17  H    4.433676   4.760910   3.072317   2.535528   5.158171
    18  H    4.763363   4.428497   2.528041   3.072763   5.465643
    19  H    3.778730   3.776456   6.202949   6.202559   2.495385
    20  H    2.597923   3.127256   5.433297   5.152563   2.521880
    21  H    3.142836   2.595358   5.153594   5.452600   3.072369
    22  H    6.235695   6.238216   3.816876   3.818305   7.434090
                   16         17         18         19         20
    16  H    0.000000
    17  H    5.434768   0.000000
    18  H    5.168942   1.739244   0.000000
    19  H    2.497950   7.424428   7.437199   0.000000
    20  H    3.072547   6.822741   7.045179   1.763596   0.000000
    21  H    2.519603   7.037704   6.817960   1.763740   1.763119
    22  H    7.430636   2.497758   2.482214   9.492116   8.776937
                   21         22
    21  H    0.000000
    22  H    8.776889   0.000000
 Stoichiometry    C7H14O
 Framework group  C1[X(C7H14O)]
 Deg. of freedom    60
 Full point group                 C1      NOp   1
 RotChk:  IX=0 Diff= 5.00D-03
 Largest Abelian subgroup         C1      NOp   1
 Largest concise Abelian subgroup C1      NOp   1
                         Standard orientation:                         
 ---------------------------------------------------------------------
 Center     Atomic      Atomic             Coordinates (Angstroms)
 Number     Number       Type             X           Y           Z
 ---------------------------------------------------------------------
      1          8           0       -3.615570   -1.093153   -0.022281
      2          6           0        0.412119    0.627133   -0.006339
      3          6           0        1.625488   -0.305807    0.013665
      4          6           0       -0.921234   -0.122082    0.017015
      5          6           0        2.968681    0.425178   -0.023955
      6          6           0       -2.132806    0.804861    0.006573
      7          6           0        4.168832   -0.520063    0.006663
      8          6           0       -3.466213    0.103101    0.007669
      9          1           0        0.465707    1.306819    0.852348
     10          1           0        0.458984    1.262467   -0.898512
     11          1           0        1.565308   -0.992748   -0.838435
     12          1           0        1.581645   -0.933730    0.910901
     13          1           0       -0.970877   -0.762463    0.901930
     14          1           0       -0.981893   -0.797631   -0.840269
     15          1           0        3.016616    1.045382   -0.925490
     16          1           0        3.027969    1.116824    0.823251
     17          1           0       -2.124103    1.465841   -0.871164
     18          1           0       -2.127640    1.485144    0.867970
     19          1           0        5.110928    0.030172   -0.025407
     20          1           0        4.154639   -1.203720   -0.845953
     21          1           0        4.169768   -1.127323    0.915446
     22          1           0       -4.351692    0.776263    0.023892
 ---------------------------------------------------------------------
 Rotational constants (GHZ):           7.8962371           0.5682864           0.5406616
 Leave Link  202 at Wed Feb  7 19:28:35 2024, MaxMem=  6710886400 cpu:               0.2 elap:               0.0
 (Enter /tmpu/scunam/7/gaussian-2016.03/g1/g16/l301.exe)
 Standard basis: def2TZVP (5D, 7F)
 Ernie: Thresh=  0.10000D-02 Tol=  0.10000D-05 Strict=F.
 There are   372 symmetry adapted cartesian basis functions of A   symmetry.
 There are   332 symmetry adapted basis functions of A   symmetry.
   332 basis functions,   520 primitive gaussians,   372 cartesian basis functions
    32 alpha electrons       32 beta electrons
       nuclear repulsion energy       360.1022998474 Hartrees.
 IExCor=  402 DFT=T Ex+Corr=B3LYP ExCW=0 ScaHFX=  0.200000
 ScaDFX=  0.800000  0.720000  1.000000  0.810000 ScalE2=  1.000000  1.000000
 IRadAn=      5 IRanWt=     -1 IRanGd=            0 ICorTp=0 IEmpDi=  4
 NAtoms=   22 NActive=   22 NUniq=   22 SFac= 1.00D+00 NAtFMM=   60 NAOKFM=F Big=F
 Integral buffers will be    131072 words long.
 Raffenetti 2 integral format.
 Two-electron integral symmetry is turned on.
 Leave Link  301 at Wed Feb  7 19:28:35 2024, MaxMem=  6710886400 cpu:               0.7 elap:               0.1
 (Enter /tmpu/scunam/7/gaussian-2016.03/g1/g16/l302.exe)
 NPDir=0 NMtPBC=     1 NCelOv=     1 NCel=       1 NClECP=     1 NCelD=      1
         NCelK=      1 NCelE2=     1 NClLst=     1 CellRange=     0.0.
 One-electron integrals computed using PRISM.
 One-electron integral symmetry used in STVInt
   1 Symmetry operations used in ECPInt.
 ECPInt:  NShTT=   10440 NPrTT=   30108 LenC2=    9713 LenP2D=   21944.
 LDataN:  DoStor=T MaxTD1= 6 Len=  172
 NBasis=   332 RedAO= T EigKep=  8.41D-05  NBF=   332
 NBsUse=   332 1.00D-06 EigRej= -1.00D+00 NBFU=   332
 Precomputing XC quadrature grid using
 IXCGrd= 4 IRadAn=           5 IRanWt=          -1 IRanGd=           0 AccXCQ= 0.00D+00.
 Generated NRdTot=       0 NPtTot=           0 NUsed=           0 NTot=          32
 NSgBfM=   367   367   367   367   367 MxSgAt=    22 MxSgA2=    22.
 Leave Link  302 at Wed Feb  7 19:28:36 2024, MaxMem=  6710886400 cpu:               5.1 elap:               0.3
 (Enter /tmpu/scunam/7/gaussian-2016.03/g1/g16/l303.exe)
 DipDrv:  MaxL=1.
 Leave Link  303 at Wed Feb  7 19:28:36 2024, MaxMem=  6710886400 cpu:               0.7 elap:               0.1
 (Enter /tmpu/scunam/7/gaussian-2016.03/g1/g16/l401.exe)
 Initial guess from the checkpoint file:  "Heptanal.chk"
 B after Tr=     0.000000    0.000000   -0.000000
         Rot=    0.999999   -0.001018   -0.000010    0.000544 Ang=  -0.13 deg.
 Guess basis will be translated and rotated to current coordinates.
 JPrj=2 DoOrth=T DoCkMO=T.
 Generating alternative initial guess.
 ExpMin= 9.52D-02 ExpMax= 2.70D+04 ExpMxC= 9.22D+02 IAcc=2 IRadAn=         4 AccDes= 0.00D+00
 Harris functional with IExCor=  402 and IRadAn=       4 diagonalized for initial guess.
 HarFok:  IExCor=  402 AccDes= 0.00D+00 IRadAn=         4 IDoV= 1 UseB2=F ITyADJ=14
 ICtDFT=  3500011 ScaDFX=  1.000000  1.000000  1.000000  1.000000
 FoFCou: FMM=F IPFlag=           0 FMFlag=      100000 FMFlg1=           0
         NFxFlg=           0 DoJE=T BraDBF=F KetDBF=T FulRan=T
         wScrn=  0.000000 ICntrl=       500 IOpCl=  0 I1Cent=   200000004 NGrid=           0
         NMat0=    1 NMatS0=      1 NMatT0=    0 NMatD0=    1 NMtDS0=    0 NMtDT0=    0
 Petite list used in FoFCou.
 Harris En= -350.631218587071    
 Leave Link  401 at Wed Feb  7 19:28:37 2024, MaxMem=  6710886400 cpu:              13.6 elap:               0.9
 (Enter /tmpu/scunam/7/gaussian-2016.03/g1/g16/l502.exe)
 Integral symmetry usage will be decided dynamically.
 Closed shell SCF:
 Using DIIS extrapolation, IDIIS=  1040.
 NGot=  6710886400 LenX=  6710600118 LenY=  6710461293
 Requested convergence on RMS density matrix=1.00D-08 within 128 cycles.
 Requested convergence on MAX density matrix=1.00D-06.
 Requested convergence on             energy=1.00D-06.
 No special actions if energy rises.
 Fock matrices will be formed incrementally for  20 cycles.
 Integral accuracy reduced to 1.0D-05 until final iterations.

 Cycle   1  Pass 0  IDiag  1:
 FoFJK:  IHMeth= 1 ICntrl=       0 DoSepK=F KAlg= 0 I1Cent=           0 FoldK=F
 IRaf= 890000000 NMat=       1 IRICut=       1 DoRegI=T DoRafI=F ISym2E= 0 IDoP0=0 IntGTp=1.
 FoFCou: FMM=F IPFlag=           0 FMFlag=      100000 FMFlg1=           0
         NFxFlg=           0 DoJE=F BraDBF=F KetDBF=F FulRan=T
         wScrn=  0.000000 ICntrl=         0 IOpCl=  0 I1Cent=           0 NGrid=           0
         NMat0=    1 NMatS0=      1 NMatT0=    0 NMatD0=    1 NMtDS0=    0 NMtDT0=    0
 Symmetry not used in FoFCou.
 E= -350.538767860491    
 DIIS: error= 1.19D-03 at cycle   1 NSaved=   1.
 NSaved= 1 IEnMin= 1 EnMin= -350.538767860491     IErMin= 1 ErrMin= 1.19D-03
 ErrMax= 1.19D-03  0.00D+00 EMaxC= 1.00D-01 BMatC= 8.55D-04 BMatP= 8.55D-04
 IDIUse=3 WtCom= 9.88D-01 WtEn= 1.19D-02
 Coeff-Com:  0.100D+01
 Coeff-En:   0.100D+01
 Coeff:      0.100D+01
 Gap=     0.649 Goal=   None    Shift=    0.000
 GapD=    0.649 DampG=2.000 DampE=1.000 DampFc=2.0000 IDamp=-1.
 RMSDP=1.27D-04 MaxDP=4.61D-03              OVMax= 8.15D-03

 Cycle   2  Pass 0  IDiag  1:
 RMSU=  1.27D-04    CP:  1.00D+00
 E= -350.539696427493     Delta-E=       -0.000928567002 Rises=F Damp=F
 DIIS: error= 1.43D-04 at cycle   2 NSaved=   2.
 NSaved= 2 IEnMin= 2 EnMin= -350.539696427493     IErMin= 2 ErrMin= 1.43D-04
 ErrMax= 1.43D-04  0.00D+00 EMaxC= 1.00D-01 BMatC= 1.06D-05 BMatP= 8.55D-04
 IDIUse=3 WtCom= 9.99D-01 WtEn= 1.43D-03
 Coeff-Com: -0.435D-01 0.104D+01
 Coeff-En:   0.000D+00 0.100D+01
 Coeff:     -0.435D-01 0.104D+01
 Gap=     0.231 Goal=   None    Shift=    0.000
 RMSDP=2.02D-05 MaxDP=2.22D-03 DE=-9.29D-04 OVMax= 1.27D-03

 Cycle   3  Pass 0  IDiag  1:
 RMSU=  1.80D-05    CP:  1.00D+00  1.07D+00
 E= -350.539700071529     Delta-E=       -0.000003644036 Rises=F Damp=F
 DIIS: error= 1.20D-04 at cycle   3 NSaved=   3.
 NSaved= 3 IEnMin= 3 EnMin= -350.539700071529     IErMin= 3 ErrMin= 1.20D-04
 ErrMax= 1.20D-04  0.00D+00 EMaxC= 1.00D-01 BMatC= 8.77D-06 BMatP= 1.06D-05
 IDIUse=3 WtCom= 9.99D-01 WtEn= 1.20D-03
 Coeff-Com: -0.291D-01 0.520D+00 0.509D+00
 Coeff-En:   0.000D+00 0.337D+00 0.663D+00
 Coeff:     -0.291D-01 0.520D+00 0.509D+00
 Gap=     0.231 Goal=   None    Shift=    0.000
 RMSDP=1.62D-05 MaxDP=2.27D-03 DE=-3.64D-06 OVMax= 8.76D-04

 Cycle   4  Pass 0  IDiag  1:
 RMSU=  7.92D-06    CP:  1.00D+00  1.04D+00  2.52D-01
 E= -350.539705999613     Delta-E=       -0.000005928084 Rises=F Damp=F
 DIIS: error= 6.62D-05 at cycle   4 NSaved=   4.
 NSaved= 4 IEnMin= 4 EnMin= -350.539705999613     IErMin= 4 ErrMin= 6.62D-05
 ErrMax= 6.62D-05  0.00D+00 EMaxC= 1.00D-01 BMatC= 1.68D-06 BMatP= 8.77D-06
 IDIUse=1 WtCom= 1.00D+00 WtEn= 0.00D+00
 Coeff-Com: -0.124D-01 0.203D+00 0.325D+00 0.484D+00
 Coeff:     -0.124D-01 0.203D+00 0.325D+00 0.484D+00
 Gap=     0.231 Goal=   None    Shift=    0.000
 RMSDP=5.80D-06 MaxDP=8.14D-04 DE=-5.93D-06 OVMax= 4.17D-04

 Initial convergence to 1.0D-05 achieved.  Increase integral accuracy.
 Cycle   5  Pass 1  IDiag  1:
 E= -350.539679026219     Delta-E=        0.000026973394 Rises=F Damp=F
 DIIS: error= 1.35D-04 at cycle   1 NSaved=   1.
 NSaved= 1 IEnMin= 1 EnMin= -350.539679026219     IErMin= 1 ErrMin= 1.35D-04
 ErrMax= 1.35D-04  0.00D+00 EMaxC= 1.00D-01 BMatC= 1.44D-06 BMatP= 1.44D-06
 IDIUse=3 WtCom= 9.99D-01 WtEn= 1.35D-03
 Coeff-Com:  0.100D+01
 Coeff-En:   0.100D+01
 Coeff:      0.100D+01
 Gap=     0.231 Goal=   None    Shift=    0.000
 RMSDP=5.80D-06 MaxDP=8.14D-04 DE= 2.70D-05 OVMax= 3.35D-04

 Cycle   6  Pass 1  IDiag  1:
 RMSU=  6.64D-05    CP:  1.00D+00
 E= -350.539679427004     Delta-E=       -0.000000400785 Rises=F Damp=F
 DIIS: error= 5.48D-05 at cycle   2 NSaved=   2.
 NSaved= 2 IEnMin= 2 EnMin= -350.539679427004     IErMin= 2 ErrMin= 5.48D-05
 ErrMax= 5.48D-05  0.00D+00 EMaxC= 1.00D-01 BMatC= 7.91D-07 BMatP= 1.44D-06
 IDIUse=1 WtCom= 1.00D+00 WtEn= 0.00D+00
 Coeff-Com:  0.391D+00 0.609D+00
 Coeff:      0.391D+00 0.609D+00
 Gap=     0.231 Goal=   None    Shift=    0.000
 RMSDP=4.99D-06 MaxDP=6.78D-04 DE=-4.01D-07 OVMax= 4.38D-04

 Cycle   7  Pass 1  IDiag  1:
 RMSU=  4.85D-06    CP:  1.00D+00  1.01D+00
 E= -350.539679514960     Delta-E=       -0.000000087956 Rises=F Damp=F
 DIIS: error= 4.91D-05 at cycle   3 NSaved=   3.
 NSaved= 3 IEnMin= 3 EnMin= -350.539679514960     IErMin= 3 ErrMin= 4.91D-05
 ErrMax= 4.91D-05  0.00D+00 EMaxC= 1.00D-01 BMatC= 6.97D-07 BMatP= 7.91D-07
 IDIUse=1 WtCom= 1.00D+00 WtEn= 0.00D+00
 Coeff-Com:  0.188D-01 0.479D+00 0.502D+00
 Coeff:      0.188D-01 0.479D+00 0.502D+00
 Gap=     0.231 Goal=   None    Shift=    0.000
 RMSDP=3.07D-06 MaxDP=4.36D-04 DE=-8.80D-08 OVMax= 2.27D-04

 Cycle   8  Pass 1  IDiag  1:
 RMSU=  6.33D-07    CP:  1.00D+00  1.02D+00  3.99D-01
 E= -350.539680002772     Delta-E=       -0.000000487812 Rises=F Damp=F
 DIIS: error= 4.51D-06 at cycle   4 NSaved=   4.
 NSaved= 4 IEnMin= 4 EnMin= -350.539680002772     IErMin= 4 ErrMin= 4.51D-06
 ErrMax= 4.51D-06  0.00D+00 EMaxC= 1.00D-01 BMatC= 1.72D-08 BMatP= 6.97D-07
 IDIUse=1 WtCom= 1.00D+00 WtEn= 0.00D+00
 Coeff-Com: -0.256D-02 0.255D+00 0.289D+00 0.458D+00
 Coeff:     -0.256D-02 0.255D+00 0.289D+00 0.458D+00
 Gap=     0.231 Goal=   None    Shift=    0.000
 RMSDP=5.32D-07 MaxDP=6.93D-05 DE=-4.88D-07 OVMax= 2.59D-05

 Cycle   9  Pass 1  IDiag  1:
 RMSU=  1.60D-07    CP:  1.00D+00  1.02D+00  4.82D-01  5.41D-01
 E= -350.539680017831     Delta-E=       -0.000000015059 Rises=F Damp=F
 DIIS: error= 1.84D-07 at cycle   5 NSaved=   5.
 NSaved= 5 IEnMin= 5 EnMin= -350.539680017831     IErMin= 5 ErrMin= 1.84D-07
 ErrMax= 1.84D-07  0.00D+00 EMaxC= 1.00D-01 BMatC= 2.63D-11 BMatP= 1.72D-08
 IDIUse=1 WtCom= 1.00D+00 WtEn= 0.00D+00
 Coeff-Com: -0.126D-02 0.120D+00 0.136D+00 0.219D+00 0.526D+00
 Coeff:     -0.126D-02 0.120D+00 0.136D+00 0.219D+00 0.526D+00
 Gap=     0.231 Goal=   None    Shift=    0.000
 RMSDP=2.15D-08 MaxDP=2.71D-06 DE=-1.51D-08 OVMax= 8.81D-07

 Cycle  10  Pass 1  IDiag  1:
 RMSU=  1.43D-08    CP:  1.00D+00  1.02D+00  4.85D-01  5.34D-01  1.02D+00
 E= -350.539680017856     Delta-E=       -0.000000000024 Rises=F Damp=F
 DIIS: error= 3.63D-08 at cycle   6 NSaved=   6.
 NSaved= 6 IEnMin= 6 EnMin= -350.539680017856     IErMin= 6 ErrMin= 3.63D-08
 ErrMax= 3.63D-08  0.00D+00 EMaxC= 1.00D-01 BMatC= 8.47D-13 BMatP= 2.63D-11
 IDIUse=1 WtCom= 1.00D+00 WtEn= 0.00D+00
 Coeff-Com: -0.658D-04 0.490D-02 0.571D-02 0.933D-02 0.148D+00 0.832D+00
 Coeff:     -0.658D-04 0.490D-02 0.571D-02 0.933D-02 0.148D+00 0.832D+00
 Gap=     0.231 Goal=   None    Shift=    0.000
 RMSDP=6.62D-09 MaxDP=4.93D-07 DE=-2.43D-11 OVMax= 1.95D-07

 SCF Done:  E(RB3LYP) =  -350.539680018     A.U. after   10 cycles
            NFock= 10  Conv=0.66D-08     -V/T= 2.0054
 KE= 3.486544200714D+02 PE=-1.534819061099D+03 EE= 4.755226611627D+02
 Leave Link  502 at Wed Feb  7 19:29:07 2024, MaxMem=  6710886400 cpu:             481.8 elap:              30.1
 (Enter /tmpu/scunam/7/gaussian-2016.03/g1/g16/l508.exe)
 QCSCF skips out because SCF is already converged.
 Leave Link  508 at Wed Feb  7 19:29:07 2024, MaxMem=  6710886400 cpu:               0.0 elap:               0.0
 (Enter /tmpu/scunam/7/gaussian-2016.03/g1/g16/l701.exe)
 ... and contract with generalized density number  0.
 Compute integral first derivatives.
   1 Symmetry operations used in ECPInt.
 ECPInt:  NShTT=   10440 NPrTT=   30108 LenC2=    9713 LenP2D=   21944.
 LDataN:  DoStor=T MaxTD1= 7 Len=  274
 Leave Link  701 at Wed Feb  7 19:29:07 2024, MaxMem=  6710886400 cpu:               3.4 elap:               0.2
 (Enter /tmpu/scunam/7/gaussian-2016.03/g1/g16/l702.exe)
 L702 exits ... SP integral derivatives will be done elsewhere.
 Leave Link  702 at Wed Feb  7 19:29:07 2024, MaxMem=  6710886400 cpu:               0.3 elap:               0.0
 (Enter /tmpu/scunam/7/gaussian-2016.03/g1/g16/l703.exe)
 Integral derivatives from FoFJK, PRISM(SPDF).
 Compute integral first derivatives, UseDBF=F ICtDFT=           0.
 Calling FoFJK, ICntrl=      2127 FMM=F ISym2X=0 I1Cent= 0 IOpClX= 0 NMat=1 NMatS=1 NMatT=0.
 FoFJK:  IHMeth= 1 ICntrl=    2127 DoSepK=F KAlg= 0 I1Cent=           0 FoldK=F
 IRaf=         0 NMat=       1 IRICut=       1 DoRegI=T DoRafI=F ISym2E= 0 IDoP0=0 IntGTp=1.
 FoFCou: FMM=F IPFlag=           0 FMFlag=      100000 FMFlg1=         800
         NFxFlg=           0 DoJE=F BraDBF=F KetDBF=F FulRan=T
         wScrn=  0.000000 ICntrl=      2127 IOpCl=  0 I1Cent=           0 NGrid=           0
         NMat0=    1 NMatS0=      1 NMatT0=    0 NMatD0=    1 NMtDS0=    0 NMtDT0=    0
 Symmetry not used in FoFCou.
 Leave Link  703 at Wed Feb  7 19:29:18 2024, MaxMem=  6710886400 cpu:             176.3 elap:              11.0
 (Enter /tmpu/scunam/7/gaussian-2016.03/g1/g16/l716.exe)
 Dipole        = 4.32212535D-01 9.80645363D-01 1.70638472D-02
 ***** Axes restored to original set *****
 -------------------------------------------------------------------
 Center     Atomic                   Forces (Hartrees/Bohr)
 Number     Number              X              Y              Z
 -------------------------------------------------------------------
      1        8           0.000209576   -0.003182779    0.000687090
      2        6          -0.000301185    0.000605880    0.000209032
      3        6           0.000350253   -0.000682558   -0.000145095
      4        6           0.000077572   -0.000787094   -0.000021531
      5        6           0.000236137    0.000328701   -0.000051556
      6        6          -0.000022335    0.001237139    0.000223150
      7        6           0.000289637   -0.000038820    0.000029266
      8        6          -0.000240760    0.003096899   -0.001637430
      9        1           0.000005112    0.000036338   -0.000075696
     10        1          -0.000017575    0.000035961   -0.000039229
     11        1          -0.000042577   -0.000047577    0.000092068
     12        1          -0.000002998    0.000004197   -0.000014466
     13        1           0.000027649    0.000024438   -0.000053206
     14        1           0.000063903   -0.000016613    0.000033323
     15        1           0.000064798   -0.000021806    0.000055323
     16        1           0.000075651    0.000014353    0.000002534
     17        1           0.000151207   -0.000111888    0.000197561
     18        1          -0.000122408   -0.000375214    0.000136251
     19        1          -0.000178109   -0.000093431    0.000011198
     20        1          -0.000001558   -0.000029285    0.000032805
     21        1          -0.000008962   -0.000030561   -0.000076290
     22        1          -0.000613029    0.000033720    0.000404896
 -------------------------------------------------------------------
 Cartesian Forces:  Max     0.003182779 RMS     0.000644698
 Leave Link  716 at Wed Feb  7 19:29:18 2024, MaxMem=  6710886400 cpu:               0.3 elap:               0.0
 (Enter /tmpu/scunam/7/gaussian-2016.03/g1/g16/l103.exe)

 GradGradGradGradGradGradGradGradGradGradGradGradGradGradGradGradGradGrad
 Berny optimization.
 Search for a local minimum.
 Step number   3 out of a maximum of  132
 All quantities printed in internal units (Hartrees-Bohrs-Radians)
 Update second derivatives using D2CorN and points    1    2    3
 DE= -3.37D-04 DEPred=-2.72D-04 R= 1.24D+00
 TightC=F SS=  1.41D+00  RLast= 2.35D-01 DXNew= 8.4853D-01 7.0622D-01
 Trust test= 1.24D+00 RLast= 2.35D-01 DXMaxT set to 7.06D-01
 ITU=  1  1  0
     Eigenvalues ---    0.00057   0.00068   0.00160   0.00237   0.00254
     Eigenvalues ---    0.00532   0.00631   0.00866   0.01386   0.02044
     Eigenvalues ---    0.02408   0.03219   0.03444   0.03918   0.04565
     Eigenvalues ---    0.04707   0.05233   0.05262   0.05617   0.05779
     Eigenvalues ---    0.06133   0.06386   0.06879   0.07943   0.07962
     Eigenvalues ---    0.08536   0.09576   0.09883   0.11706   0.13026
     Eigenvalues ---    0.13066   0.13866   0.15032   0.15972   0.16455
     Eigenvalues ---    0.17832   0.18049   0.20594   0.21433   0.24845
     Eigenvalues ---    0.27357   0.39127   0.52179   0.58113   0.61989
     Eigenvalues ---    0.69000   0.69477   0.78017   0.87064   0.87801
     Eigenvalues ---    0.92812   0.92956   0.95633   0.98925   0.99666
     Eigenvalues ---    1.02398   1.04718   1.08376   1.12857   2.06158
 RFO step:  Lambda=-9.29415477D-05 EMin= 5.71861862D-04
 Quartic linear search produced a step of  0.17314.
 B after Tr=     0.001959   -0.000621    0.004565
         Rot=    0.999999   -0.001612    0.000566    0.000213 Ang=  -0.20 deg.
 Variable       Old X    -DE/DX   Delta X   Delta X   Delta X     New X
                                 (Linear)    (Quad)   (Total)
    X1        6.66570   0.00021   0.01714   0.03202   0.05187   6.71757
    Y1        1.95012  -0.00318  -0.00835  -0.02092  -0.03295   1.91717
    Z1       -0.01296   0.00069   0.00242   0.06246   0.08324   0.07028
    X2       -0.99255  -0.00030   0.00161  -0.00043   0.00268  -0.98987
    Y2       -1.18851   0.00061   0.00634   0.02221   0.02847  -1.16004
    Z2       -0.01926   0.00021  -0.00506  -0.01048  -0.01584  -0.03510
    X3       -3.25935   0.00035  -0.00241  -0.00063  -0.00084  -3.26019
    Y3        0.60764  -0.00068   0.00170   0.01524   0.01766   0.62531
    Z3        0.03192  -0.00015  -0.00070  -0.01468  -0.01249   0.01942
    X4        1.54762   0.00008   0.00135  -0.00097   0.00241   1.55003
    Y4        0.18961  -0.00079   0.00605   0.01951   0.02421   0.21382
    Z4        0.03995  -0.00002  -0.00309  -0.01601  -0.01210   0.02785
    X5       -5.81758   0.00024  -0.00164   0.01045   0.01049  -5.80709
    Y5       -0.73552   0.00033  -0.00026  -0.00315  -0.00142  -0.73694
    Z5       -0.05396  -0.00005   0.00186   0.01675   0.01422  -0.03974
    X6        3.81116  -0.00002   0.00039  -0.01431  -0.01262   3.79854
    Y6       -1.59532   0.00124   0.00517   0.00926   0.01221  -1.58311
    Z6        0.00694   0.00022   0.00190  -0.01606  -0.01040  -0.00346
    X7       -8.05908   0.00029  -0.00460  -0.00393  -0.00614  -8.06522
    Y7        1.08333  -0.00004  -0.00391  -0.02139  -0.02255   1.06079
    Z7        0.01750   0.00003   0.00166   0.00517   0.00569   0.02319
    X8        6.35017  -0.00024   0.00508  -0.00231   0.00456   6.35473
    Y8       -0.30649   0.00310  -0.00490  -0.01681  -0.02513  -0.33162
    Z8        0.02329  -0.00164   0.00456  -0.00629   0.00897   0.03225
    X9       -1.11453   0.00001   0.00375   0.00193   0.00481  -1.10972
    Y9       -2.48563   0.00004   0.00191   0.02674   0.02343  -2.46220
    Z9        1.59185  -0.00008  -0.00809  -0.00735  -0.02006   1.57179
   X10       -1.09687  -0.00002   0.00247  -0.00147   0.00393  -1.09295
   Y10       -2.37269   0.00004   0.00788   0.01848   0.03180  -2.34089
   Z10       -1.71590  -0.00004  -0.00642  -0.00782  -0.01847  -1.73437
   X11       -3.12473  -0.00004  -0.00652  -0.01797  -0.01991  -3.14464
   Y11        1.91818  -0.00005   0.00449  -0.00071   0.00964   1.92782
   Z11       -1.56662   0.00009   0.00082  -0.02845  -0.02042  -1.58704
   X12       -3.16096  -0.00000  -0.00190   0.00470   0.00359  -3.15737
   Y12        1.77783   0.00000   0.00152   0.03113   0.02785   1.80568
   Z12        1.73800  -0.00001  -0.00034  -0.02584  -0.01936   1.71864
   X13        1.65734   0.00003   0.00045   0.00454   0.00562   1.66296
   Y13        1.38338   0.00002   0.00818   0.02140   0.02275   1.40613
   Z13        1.72296  -0.00005  -0.00443  -0.01766  -0.01109   1.71187
   X14        1.68284   0.00006   0.00535   0.00227   0.01201   1.69484
   Y14        1.47870  -0.00002   0.00520   0.01579   0.02477   1.50346
   Z14       -1.56857   0.00003  -0.00360  -0.01884  -0.01111  -1.57969
   X15       -5.92348   0.00006  -0.00219   0.01065   0.01157  -5.91191
   Y15       -1.89093  -0.00002  -0.00271  -0.02775  -0.02295  -1.91388
   Z15       -1.76804   0.00006   0.00336   0.03292   0.02797  -1.74008
   X16       -5.95063   0.00008   0.00007   0.03146   0.03085  -5.91978
   Y16       -2.05489   0.00001  -0.00015   0.01749   0.01419  -2.04069
   Z16        1.53525   0.00000   0.00226   0.03573   0.02929   1.56453
   X17        3.77821   0.00015   0.00336  -0.01854  -0.01252   3.76569
   Y17       -2.82927  -0.00011  -0.00019   0.01625   0.01924  -2.81002
   Z17       -1.66279   0.00020   0.00485  -0.01983  -0.01522  -1.67800
   X18        3.78066  -0.00012  -0.00152  -0.03179  -0.03440   3.74627
   Y18       -2.89496  -0.00038   0.00294   0.00051  -0.00393  -2.89889
   Z18        1.62325   0.00014   0.00055  -0.02150  -0.02149   1.60177
   X19       -9.85442  -0.00018  -0.00252   0.00375   0.00323  -9.85118
   Y19        0.07043  -0.00009  -0.00707  -0.03920  -0.04261   0.02782
   Z19       -0.05410   0.00001   0.00303   0.03369   0.03022  -0.02388
   X20       -8.01145  -0.00000  -0.00869  -0.02674  -0.03067  -8.04212
   Y20        2.38895  -0.00003  -0.00443  -0.04520  -0.04167   2.34728
   Z20       -1.58215   0.00003   0.00106  -0.01498  -0.01091  -1.59305
   X21       -8.04590  -0.00001  -0.00711  -0.00088  -0.00704  -8.05294
   Y21        2.21552  -0.00003  -0.00210   0.00450  -0.00036   2.21516
   Z21        1.74497  -0.00008   0.00058  -0.01172  -0.00854   1.73643
   X22        8.00455  -0.00061  -0.00192  -0.02276  -0.02348   7.98107
   Y22       -1.60330   0.00003  -0.01730  -0.04120  -0.06267  -1.66597
   Z22        0.04431   0.00040   0.00280  -0.00313   0.00790   0.05221
         Item               Value     Threshold  Converged?
 Maximum Force            0.003183     0.000450     NO 
 RMS     Force            0.000645     0.000300     NO 
 Maximum Displacement     0.083240     0.001800     NO 
 RMS     Displacement     0.023696     0.001200     NO 
 Predicted change in Energy=-5.031297D-05
 Lowest energy point so far.  Saving SCF results.
 GradGradGradGradGradGradGradGradGradGradGradGradGradGradGradGradGradGrad

 Leave Link  103 at Wed Feb  7 19:29:18 2024, MaxMem=  6710886400 cpu:               0.3 elap:               0.0
 (Enter /tmpu/scunam/7/gaussian-2016.03/g1/g16/l202.exe)
                          Input orientation:                          
 ---------------------------------------------------------------------
 Center     Atomic      Atomic             Coordinates (Angstroms)
 Number     Number       Type             X           Y           Z
 ---------------------------------------------------------------------
      1          8           0        3.554786    1.014522    0.037192
      2          6           0       -0.523819   -0.613865   -0.018572
      3          6           0       -1.725216    0.330898    0.010279
      4          6           0        0.820240    0.113148    0.014736
      5          6           0       -3.072978   -0.389971   -0.021030
      6          6           0        2.010103   -0.837747   -0.001830
      7          6           0       -4.267931    0.561343    0.012272
      8          6           0        3.362780   -0.175487    0.017068
      9          1           0       -0.587238   -1.302939    0.831757
     10          1           0       -0.578362   -1.238745   -0.917792
     11          1           0       -1.664072    1.020157   -0.839824
     12          1           0       -1.670807    0.955524    0.909464
     13          1           0        0.880003    0.744091    0.905884
     14          1           0        0.896873    0.795599   -0.835934
     15          1           0       -3.128449   -1.012783   -0.920809
     16          1           0       -3.132614   -1.079889    0.827916
     17          1           0        1.992718   -1.486999   -0.887961
     18          1           0        1.982440   -1.534028    0.847618
     19          1           0       -5.213022    0.014724   -0.012637
     20          1           0       -4.255704    1.242126   -0.843008
     21          1           0       -4.261434    1.172213    0.918881
     22          1           0        4.223400   -0.881592    0.027629
 ---------------------------------------------------------------------
                    Distance matrix (angstroms):
                    1          2          3          4          5
     1  O    0.000000
     2  C    4.392012   0.000000
     3  C    5.324142   1.528648   0.000000
     4  C    2.879361   1.528448   2.554757   0.000000
     5  C    6.775193   2.558974   1.528756   3.925756   0.000000
     6  C    2.412150   2.543848   3.913884   1.523237   5.102802
     7  C    7.835872   3.924339   2.553137   5.107874   1.527750
     8  C    1.205567   3.911406   5.113138   2.558872   6.439444
     9  H    4.812310   1.096314   2.153890   2.157272   2.782025
    10  H    4.803345   1.096379   2.154152   2.157154   2.783470
    11  H    5.292038   2.155147   1.096126   2.779342   2.154971
    12  H    5.298223   2.154023   1.096199   2.777670   2.154591
    13  H    2.825283   2.160875   2.785678   1.093529   4.215605
    14  H    2.806203   2.161720   2.794168   1.093275   4.222483
    15  H    7.049351   2.785187   2.154406   4.211308   1.095706
    16  H    7.052171   2.782001   2.153977   4.208284   1.095561
    17  H    3.090886   2.801992   4.234928   2.179458   5.255123
    18  H    3.102284   2.806834   4.233887   2.181190   5.255537
    19  H    8.824769   4.731151   3.502183   6.034127   2.177989
    20  H    7.863226   4.248690   2.821668   5.270250   2.176748
    21  H    7.867371   4.247194   2.822369   5.269014   2.176299
    22  H    2.010568   4.754987   6.070952   3.545584   7.313083
                    6          7          8          9         10
     6  C    0.000000
     7  C    6.432057   0.000000
     8  C    1.506214   7.666205   0.000000
     9  H    2.767210   4.206496   4.187781   0.000000
    10  H    2.774876   4.209306   4.187730   1.750749   0.000000
    11  H    4.201619   2.777888   5.237659   3.057864   2.507486
    12  H    4.194684   2.775857   5.235700   2.506156   3.057306
    13  H    2.145526   5.228113   2.792812   2.519648   3.063374
    14  H    2.145420   5.239230   2.784118   3.063926   2.514274
    15  H    5.223014   2.155674   6.611863   3.100553   2.560080
    16  H    5.214849   2.155891   6.607992   2.555133   3.097892
    17  H    1.098662   6.648447   2.101479   3.106040   2.583210
    18  H    1.098697   6.644962   2.107317   2.580097   3.124351
    19  H    7.273263   1.092067   8.577963   4.883351   4.885751
    20  H    6.655359   1.093215   7.796837   4.768631   4.436571
    21  H    6.649798   1.093226   7.794754   4.430991   4.769812
    22  H    2.213927   8.613071   1.113267   4.895548   4.906964
                   11         12         13         14         15
    11  H    0.000000
    12  H    1.750494   0.000000
    13  H    3.097745   2.559560   0.000000
    14  H    2.570774   3.108854   1.742661   0.000000
    15  H    2.506751   3.057589   4.742478   4.413691   0.000000
    16  H    3.057477   2.507277   4.408410   4.745800   1.750017
    17  H    4.433990   4.755846   3.071446   2.532556   5.143181
    18  H    4.761131   4.421302   2.531519   3.072452   5.433251
    19  H    3.780236   3.779241   6.204886   6.214371   2.495193
    20  H    2.601123   3.136080   5.448133   5.171895   2.522176
    21  H    3.140454   2.599690   5.159247   5.461625   3.072835
    22  H    6.247515   6.236530   3.820011   3.824198   7.413934
                   16         17         18         19         20
    16  H    0.000000
    17  H    5.420240   0.000000
    18  H    5.135213   1.736247   0.000000
    19  H    2.496559   7.412426   7.410354   0.000000
    20  H    3.073284   6.818573   7.034181   1.764225   0.000000
    21  H    2.520808   7.032105   6.805496   1.764377   1.763285
    22  H    7.402075   2.486114   2.473854   9.478980   8.784270
                   21         22
    21  H    0.000000
    22  H    8.775240   0.000000
 Stoichiometry    C7H14O
 Framework group  C1[X(C7H14O)]
 Deg. of freedom    60
 Full point group                 C1      NOp   1
 RotChk:  IX=0 Diff= 2.29D-02
 Largest Abelian subgroup         C1      NOp   1
 Largest concise Abelian subgroup C1      NOp   1
                         Standard orientation:                         
 ---------------------------------------------------------------------
 Center     Atomic      Atomic             Coordinates (Angstroms)
 Number     Number       Type             X           Y           Z
 ---------------------------------------------------------------------
      1          8           0       -3.640039   -1.077903   -0.007069
      2          6           0        0.413852    0.611989   -0.008066
      3          6           0        1.629180   -0.315184    0.001473
      4          6           0       -0.919256   -0.135584    0.002454
      5          6           0        2.966076    0.426253   -0.007188
      6          6           0       -2.123181    0.797585    0.005388
      7          6           0        4.175045   -0.507677    0.006615
      8          6           0       -3.465831    0.114968    0.003083
      9          1           0        0.464281    1.280526    0.859356
     10          1           0        0.461828    1.259830   -0.891269
     11          1           0        1.581028   -0.983878   -0.865719
     12          1           0        1.581335   -0.962768    0.884648
     13          1           0       -0.972335   -0.789362    0.877418
     14          1           0       -0.982995   -0.797689   -0.865190
     15          1           0        3.015012    1.072053   -0.890998
     16          1           0        3.012714    1.095611    0.858859
     17          1           0       -2.112765    1.468907   -0.864253
     18          1           0       -2.108610    1.472814    0.871984
     19          1           0        5.111910    0.053423   -0.001389
     20          1           0        4.175694   -1.167039   -0.865371
     21          1           0        4.174876   -1.140980    0.897721
     22          1           0       -4.336968    0.807682    0.028198
 ---------------------------------------------------------------------
 Rotational constants (GHZ):           8.0135649           0.5665370           0.5395836
 Leave Link  202 at Wed Feb  7 19:29:18 2024, MaxMem=  6710886400 cpu:               0.1 elap:               0.0
 (Enter /tmpu/scunam/7/gaussian-2016.03/g1/g16/l301.exe)
 Standard basis: def2TZVP (5D, 7F)
 Ernie: Thresh=  0.10000D-02 Tol=  0.10000D-05 Strict=F.
 There are   372 symmetry adapted cartesian basis functions of A   symmetry.
 There are   332 symmetry adapted basis functions of A   symmetry.
   332 basis functions,   520 primitive gaussians,   372 cartesian basis functions
    32 alpha electrons       32 beta electrons
       nuclear repulsion energy       360.0924023797 Hartrees.
 IExCor=  402 DFT=T Ex+Corr=B3LYP ExCW=0 ScaHFX=  0.200000
 ScaDFX=  0.800000  0.720000  1.000000  0.810000 ScalE2=  1.000000  1.000000
 IRadAn=      5 IRanWt=     -1 IRanGd=            0 ICorTp=0 IEmpDi=  4
 NAtoms=   22 NActive=   22 NUniq=   22 SFac= 1.00D+00 NAtFMM=   60 NAOKFM=F Big=F
 Integral buffers will be    131072 words long.
 Raffenetti 2 integral format.
 Two-electron integral symmetry is turned on.
 Leave Link  301 at Wed Feb  7 19:29:18 2024, MaxMem=  6710886400 cpu:               0.7 elap:               0.1
 (Enter /tmpu/scunam/7/gaussian-2016.03/g1/g16/l302.exe)
 NPDir=0 NMtPBC=     1 NCelOv=     1 NCel=       1 NClECP=     1 NCelD=      1
         NCelK=      1 NCelE2=     1 NClLst=     1 CellRange=     0.0.
 One-electron integrals computed using PRISM.
 One-electron integral symmetry used in STVInt
   1 Symmetry operations used in ECPInt.
 ECPInt:  NShTT=   10440 NPrTT=   30108 LenC2=    9710 LenP2D=   21945.
 LDataN:  DoStor=T MaxTD1= 6 Len=  172
 NBasis=   332 RedAO= T EigKep=  8.34D-05  NBF=   332
 NBsUse=   332 1.00D-06 EigRej= -1.00D+00 NBFU=   332
 Precomputing XC quadrature grid using
 IXCGrd= 4 IRadAn=           5 IRanWt=          -1 IRanGd=           0 AccXCQ= 0.00D+00.
 Generated NRdTot=       0 NPtTot=           0 NUsed=           0 NTot=          32
 NSgBfM=   367   367   367   367   367 MxSgAt=    22 MxSgA2=    22.
 Leave Link  302 at Wed Feb  7 19:29:19 2024, MaxMem=  6710886400 cpu:               5.1 elap:               0.3
 (Enter /tmpu/scunam/7/gaussian-2016.03/g1/g16/l303.exe)
 DipDrv:  MaxL=1.
 Leave Link  303 at Wed Feb  7 19:29:19 2024, MaxMem=  6710886400 cpu:               0.7 elap:               0.1
 (Enter /tmpu/scunam/7/gaussian-2016.03/g1/g16/l401.exe)
 Initial guess from the checkpoint file:  "Heptanal.chk"
 B after Tr=    -0.000000   -0.000000    0.000000
         Rot=    0.999992   -0.003998    0.000062    0.000425 Ang=  -0.46 deg.
 Guess basis will be translated and rotated to current coordinates.
 JPrj=2 DoOrth=T DoCkMO=T.
 Generating alternative initial guess.
 ExpMin= 9.52D-02 ExpMax= 2.70D+04 ExpMxC= 9.22D+02 IAcc=2 IRadAn=         4 AccDes= 0.00D+00
 Harris functional with IExCor=  402 and IRadAn=       4 diagonalized for initial guess.
 HarFok:  IExCor=  402 AccDes= 0.00D+00 IRadAn=         4 IDoV= 1 UseB2=F ITyADJ=14
 ICtDFT=  3500011 ScaDFX=  1.000000  1.000000  1.000000  1.000000
 FoFCou: FMM=F IPFlag=           0 FMFlag=      100000 FMFlg1=           0
         NFxFlg=           0 DoJE=T BraDBF=F KetDBF=T FulRan=T
         wScrn=  0.000000 ICntrl=       500 IOpCl=  0 I1Cent=   200000004 NGrid=           0
         NMat0=    1 NMatS0=      1 NMatT0=    0 NMatD0=    1 NMtDS0=    0 NMtDT0=    0
 Petite list used in FoFCou.
 Harris En= -350.631285965449    
 Leave Link  401 at Wed Feb  7 19:29:20 2024, MaxMem=  6710886400 cpu:              13.5 elap:               0.9
 (Enter /tmpu/scunam/7/gaussian-2016.03/g1/g16/l502.exe)
 Integral symmetry usage will be decided dynamically.
 Closed shell SCF:
 Using DIIS extrapolation, IDIIS=  1040.
 NGot=  6710886400 LenX=  6710600118 LenY=  6710461293
 Requested convergence on RMS density matrix=1.00D-08 within 128 cycles.
 Requested convergence on MAX density matrix=1.00D-06.
 Requested convergence on             energy=1.00D-06.
 No special actions if energy rises.
 Fock matrices will be formed incrementally for  20 cycles.
 Integral accuracy reduced to 1.0D-05 until final iterations.

 Cycle   1  Pass 0  IDiag  1:
 FoFJK:  IHMeth= 1 ICntrl=       0 DoSepK=F KAlg= 0 I1Cent=           0 FoldK=F
 IRaf= 890000000 NMat=       1 IRICut=       1 DoRegI=T DoRafI=F ISym2E= 0 IDoP0=0 IntGTp=1.
 FoFCou: FMM=F IPFlag=           0 FMFlag=      100000 FMFlg1=           0
         NFxFlg=           0 DoJE=F BraDBF=F KetDBF=F FulRan=T
         wScrn=  0.000000 ICntrl=         0 IOpCl=  0 I1Cent=           0 NGrid=           0
         NMat0=    1 NMatS0=      1 NMatT0=    0 NMatD0=    1 NMtDS0=    0 NMtDT0=    0
 Symmetry not used in FoFCou.
 E= -350.538699621691    
 DIIS: error= 1.12D-03 at cycle   1 NSaved=   1.
 NSaved= 1 IEnMin= 1 EnMin= -350.538699621691     IErMin= 1 ErrMin= 1.12D-03
 ErrMax= 1.12D-03  0.00D+00 EMaxC= 1.00D-01 BMatC= 8.00D-04 BMatP= 8.00D-04
 IDIUse=3 WtCom= 9.89D-01 WtEn= 1.12D-02
 Coeff-Com:  0.100D+01
 Coeff-En:   0.100D+01
 Coeff:      0.100D+01
 Gap=     0.648 Goal=   None    Shift=    0.000
 GapD=    0.648 DampG=2.000 DampE=1.000 DampFc=2.0000 IDamp=-1.
 RMSDP=1.17D-04 MaxDP=4.21D-03              OVMax= 9.69D-03

 Cycle   2  Pass 0  IDiag  1:
 RMSU=  1.17D-04    CP:  1.00D+00
 E= -350.539719184724     Delta-E=       -0.001019563033 Rises=F Damp=F
 DIIS: error= 1.97D-04 at cycle   2 NSaved=   2.
 NSaved= 2 IEnMin= 2 EnMin= -350.539719184724     IErMin= 2 ErrMin= 1.97D-04
 ErrMax= 1.97D-04  0.00D+00 EMaxC= 1.00D-01 BMatC= 1.12D-05 BMatP= 8.00D-04
 IDIUse=3 WtCom= 9.98D-01 WtEn= 1.97D-03
 Coeff-Com: -0.572D-01 0.106D+01
 Coeff-En:   0.000D+00 0.100D+01
 Coeff:     -0.571D-01 0.106D+01
 Gap=     0.231 Goal=   None    Shift=    0.000
 RMSDP=1.96D-05 MaxDP=1.91D-03 DE=-1.02D-03 OVMax= 1.11D-03

 Cycle   3  Pass 0  IDiag  1:
 RMSU=  1.93D-05    CP:  1.00D+00  1.02D+00
 E= -350.539726327959     Delta-E=       -0.000007143235 Rises=F Damp=F
 DIIS: error= 1.55D-04 at cycle   3 NSaved=   3.
 NSaved= 3 IEnMin= 3 EnMin= -350.539726327959     IErMin= 3 ErrMin= 1.55D-04
 ErrMax= 1.55D-04  0.00D+00 EMaxC= 1.00D-01 BMatC= 8.83D-06 BMatP= 1.12D-05
 IDIUse=3 WtCom= 9.98D-01 WtEn= 1.55D-03
 Coeff-Com: -0.341D-01 0.532D+00 0.502D+00
 Coeff-En:   0.000D+00 0.918D-01 0.908D+00
 Coeff:     -0.341D-01 0.531D+00 0.503D+00
 Gap=     0.231 Goal=   None    Shift=    0.000
 RMSDP=1.52D-05 MaxDP=2.14D-03 DE=-7.14D-06 OVMax= 1.12D-03

 Cycle   4  Pass 0  IDiag  1:
 RMSU=  8.91D-06    CP:  1.00D+00  1.05D+00  4.03D-01
 E= -350.539730835303     Delta-E=       -0.000004507344 Rises=F Damp=F
 DIIS: error= 1.03D-04 at cycle   4 NSaved=   4.
 NSaved= 4 IEnMin= 4 EnMin= -350.539730835303     IErMin= 4 ErrMin= 1.03D-04
 ErrMax= 1.03D-04  0.00D+00 EMaxC= 1.00D-01 BMatC= 2.86D-06 BMatP= 8.83D-06
 IDIUse=3 WtCom= 9.99D-01 WtEn= 1.03D-03
 Coeff-Com: -0.113D-01 0.166D+00 0.356D+00 0.488D+00
 Coeff-En:   0.000D+00 0.000D+00 0.274D+00 0.726D+00
 Coeff:     -0.113D-01 0.166D+00 0.356D+00 0.489D+00
 Gap=     0.231 Goal=   None    Shift=    0.000
 RMSDP=6.43D-06 MaxDP=9.09D-04 DE=-4.51D-06 OVMax= 4.70D-04

 Initial convergence to 1.0D-05 achieved.  Increase integral accuracy.
 Cycle   5  Pass 1  IDiag  1:
 E= -350.539704675982     Delta-E=        0.000026159322 Rises=F Damp=F
 DIIS: error= 1.27D-04 at cycle   1 NSaved=   1.
 NSaved= 1 IEnMin= 1 EnMin= -350.539704675982     IErMin= 1 ErrMin= 1.27D-04
 ErrMax= 1.27D-04  0.00D+00 EMaxC= 1.00D-01 BMatC= 1.35D-06 BMatP= 1.35D-06
 IDIUse=3 WtCom= 9.99D-01 WtEn= 1.27D-03
 Coeff-Com:  0.100D+01
 Coeff-En:   0.100D+01
 Coeff:      0.100D+01
 Gap=     0.231 Goal=   None    Shift=    0.000
 RMSDP=6.43D-06 MaxDP=9.09D-04 DE= 2.62D-05 OVMax= 3.08D-04

 Cycle   6  Pass 1  IDiag  1:
 RMSU=  6.83D-05    CP:  1.00D+00
 E= -350.539705415639     Delta-E=       -0.000000739657 Rises=F Damp=F
 DIIS: error= 2.18D-05 at cycle   2 NSaved=   2.
 NSaved= 2 IEnMin= 2 EnMin= -350.539705415639     IErMin= 2 ErrMin= 2.18D-05
 ErrMax= 2.18D-05  0.00D+00 EMaxC= 1.00D-01 BMatC= 2.34D-07 BMatP= 1.35D-06
 IDIUse=1 WtCom= 1.00D+00 WtEn= 0.00D+00
 Coeff-Com:  0.196D+00 0.804D+00
 Coeff:      0.196D+00 0.804D+00
 Gap=     0.231 Goal=   None    Shift=    0.000
 RMSDP=3.71D-06 MaxDP=4.87D-04 DE=-7.40D-07 OVMax= 2.64D-04

 Cycle   7  Pass 1  IDiag  1:
 RMSU=  3.61D-06    CP:  1.00D+00  1.01D+00
 E= -350.539705254324     Delta-E=        0.000000161315 Rises=F Damp=F
 DIIS: error= 3.69D-05 at cycle   3 NSaved=   3.
 NSaved= 3 IEnMin= 2 EnMin= -350.539705415639     IErMin= 2 ErrMin= 2.18D-05
 ErrMax= 3.69D-05  0.00D+00 EMaxC= 1.00D-01 BMatC= 4.66D-07 BMatP= 2.34D-07
 IDIUse=1 WtCom= 1.00D+00 WtEn= 0.00D+00
 Coeff-Com:  0.936D-02 0.584D+00 0.407D+00
 Coeff:      0.936D-02 0.584D+00 0.407D+00
 Gap=     0.231 Goal=   None    Shift=    0.000
 RMSDP=2.57D-06 MaxDP=3.58D-04 DE= 1.61D-07 OVMax= 1.84D-04

 Cycle   8  Pass 1  IDiag  1:
 RMSU=  5.39D-07    CP:  1.00D+00  1.01D+00  3.30D-01
 E= -350.539705594814     Delta-E=       -0.000000340490 Rises=F Damp=F
 DIIS: error= 5.39D-06 at cycle   4 NSaved=   4.
 NSaved= 4 IEnMin= 4 EnMin= -350.539705594814     IErMin= 4 ErrMin= 5.39D-06
 ErrMax= 5.39D-06  0.00D+00 EMaxC= 1.00D-01 BMatC= 1.44D-08 BMatP= 2.34D-07
 IDIUse=1 WtCom= 1.00D+00 WtEn= 0.00D+00
 Coeff-Com: -0.245D-02 0.331D+00 0.253D+00 0.419D+00
 Coeff:     -0.245D-02 0.331D+00 0.253D+00 0.419D+00
 Gap=     0.231 Goal=   None    Shift=    0.000
 RMSDP=3.25D-07 MaxDP=3.95D-05 DE=-3.40D-07 OVMax= 2.45D-05

 Cycle   9  Pass 1  IDiag  1:
 RMSU=  1.51D-07    CP:  1.00D+00  1.01D+00  3.83D-01  6.17D-01
 E= -350.539705606741     Delta-E=       -0.000000011927 Rises=F Damp=F
 DIIS: error= 4.29D-07 at cycle   5 NSaved=   5.
 NSaved= 5 IEnMin= 5 EnMin= -350.539705606741     IErMin= 5 ErrMin= 4.29D-07
 ErrMax= 4.29D-07  0.00D+00 EMaxC= 1.00D-01 BMatC= 4.11D-11 BMatP= 1.44D-08
 IDIUse=1 WtCom= 1.00D+00 WtEn= 0.00D+00
 Coeff-Com: -0.117D-02 0.135D+00 0.103D+00 0.178D+00 0.586D+00
 Coeff:     -0.117D-02 0.135D+00 0.103D+00 0.178D+00 0.586D+00
 Gap=     0.231 Goal=   None    Shift=    0.000
 RMSDP=2.69D-08 MaxDP=2.31D-06 DE=-1.19D-08 OVMax= 1.24D-06

 Cycle  10  Pass 1  IDiag  1:
 RMSU=  2.25D-08    CP:  1.00D+00  1.01D+00  3.80D-01  6.26D-01  9.77D-01
 E= -350.539705606777     Delta-E=       -0.000000000036 Rises=F Damp=F
 DIIS: error= 6.94D-08 at cycle   6 NSaved=   6.
 NSaved= 6 IEnMin= 6 EnMin= -350.539705606777     IErMin= 6 ErrMin= 6.94D-08
 ErrMax= 6.94D-08  0.00D+00 EMaxC= 1.00D-01 BMatC= 2.80D-12 BMatP= 4.11D-11
 IDIUse=1 WtCom= 1.00D+00 WtEn= 0.00D+00
 Coeff-Com: -0.287D-03 0.287D-01 0.220D-01 0.390D-01 0.219D+00 0.691D+00
 Coeff:     -0.287D-03 0.287D-01 0.220D-01 0.390D-01 0.219D+00 0.691D+00
 Gap=     0.231 Goal=   None    Shift=    0.000
 RMSDP=6.52D-09 MaxDP=2.37D-07 DE=-3.59D-11 OVMax= 3.65D-07

 SCF Done:  E(RB3LYP) =  -350.539705607     A.U. after   10 cycles
            NFock= 10  Conv=0.65D-08     -V/T= 2.0054
 KE= 3.486613646483D+02 PE=-1.534793326743D+03 EE= 4.754998541080D+02
 Leave Link  502 at Wed Feb  7 19:29:50 2024, MaxMem=  6710886400 cpu:             481.9 elap:              30.1
 (Enter /tmpu/scunam/7/gaussian-2016.03/g1/g16/l508.exe)
 QCSCF skips out because SCF is already converged.
 Leave Link  508 at Wed Feb  7 19:29:50 2024, MaxMem=  6710886400 cpu:               0.0 elap:               0.0
 (Enter /tmpu/scunam/7/gaussian-2016.03/g1/g16/l701.exe)
 ... and contract with generalized density number  0.
 Compute integral first derivatives.
   1 Symmetry operations used in ECPInt.
 ECPInt:  NShTT=   10440 NPrTT=   30108 LenC2=    9710 LenP2D=   21945.
 LDataN:  DoStor=T MaxTD1= 7 Len=  274
 Leave Link  701 at Wed Feb  7 19:29:50 2024, MaxMem=  6710886400 cpu:               3.4 elap:               0.2
 (Enter /tmpu/scunam/7/gaussian-2016.03/g1/g16/l702.exe)
 L702 exits ... SP integral derivatives will be done elsewhere.
 Leave Link  702 at Wed Feb  7 19:29:50 2024, MaxMem=  6710886400 cpu:               0.3 elap:               0.0
 (Enter /tmpu/scunam/7/gaussian-2016.03/g1/g16/l703.exe)
 Integral derivatives from FoFJK, PRISM(SPDF).
 Compute integral first derivatives, UseDBF=F ICtDFT=           0.
 Calling FoFJK, ICntrl=      2127 FMM=F ISym2X=0 I1Cent= 0 IOpClX= 0 NMat=1 NMatS=1 NMatT=0.
 FoFJK:  IHMeth= 1 ICntrl=    2127 DoSepK=F KAlg= 0 I1Cent=           0 FoldK=F
 IRaf=         0 NMat=       1 IRICut=       1 DoRegI=T DoRafI=F ISym2E= 0 IDoP0=0 IntGTp=1.
 FoFCou: FMM=F IPFlag=           0 FMFlag=      100000 FMFlg1=         800
         NFxFlg=           0 DoJE=F BraDBF=F KetDBF=F FulRan=T
         wScrn=  0.000000 ICntrl=      2127 IOpCl=  0 I1Cent=           0 NGrid=           0
         NMat0=    1 NMatS0=      1 NMatT0=    0 NMatD0=    1 NMtDS0=    0 NMtDT0=    0
 Symmetry not used in FoFCou.
 Leave Link  703 at Wed Feb  7 19:30:01 2024, MaxMem=  6710886400 cpu:             176.6 elap:              11.1
 (Enter /tmpu/scunam/7/gaussian-2016.03/g1/g16/l716.exe)
 Dipole        = 4.57490466D-01 9.76745680D-01 7.91443466D-03
 ***** Axes restored to original set *****
 -------------------------------------------------------------------
 Center     Atomic                   Forces (Hartrees/Bohr)
 Number     Number              X              Y              Z
 -------------------------------------------------------------------
      1        8          -0.000511901   -0.002904645   -0.000731684
      2        6          -0.000185540    0.000025654   -0.000149826
      3        6           0.000070001    0.000023644    0.000137902
      4        6           0.000148426    0.000020850    0.000148095
      5        6          -0.000229187   -0.000085197   -0.000156084
      6        6           0.000713891    0.000236443   -0.000893655
      7        6          -0.000095365    0.000014289    0.000052893
      8        6           0.000538706    0.001940812    0.002430921
      9        1           0.000009836   -0.000001161    0.000064864
     10        1           0.000036886   -0.000020082   -0.000000402
     11        1          -0.000002742   -0.000058711    0.000041669
     12        1          -0.000059921   -0.000008798   -0.000089369
     13        1          -0.000022753   -0.000025894   -0.000046659
     14        1          -0.000113673   -0.000001387   -0.000011737
     15        1           0.000081193    0.000158409    0.000176684
     16        1           0.000013780    0.000136064   -0.000093724
     17        1          -0.000225374   -0.000149871   -0.000093280
     18        1           0.000234316    0.000324429    0.000002559
     19        1           0.000111642    0.000143110    0.000021024
     20        1           0.000043091   -0.000169857    0.000140155
     21        1          -0.000006345   -0.000132334   -0.000170878
     22        1          -0.000548967    0.000534234   -0.000779468
 -------------------------------------------------------------------
 Cartesian Forces:  Max     0.002904645 RMS     0.000583669
 Leave Link  716 at Wed Feb  7 19:30:01 2024, MaxMem=  6710886400 cpu:               0.3 elap:               0.0
 (Enter /tmpu/scunam/7/gaussian-2016.03/g1/g16/l103.exe)

 GradGradGradGradGradGradGradGradGradGradGradGradGradGradGradGradGradGrad
 Berny optimization.
 Search for a local minimum.
 Step number   4 out of a maximum of  132
 All quantities printed in internal units (Hartrees-Bohrs-Radians)
 Update second derivatives using D2CorN and points    1    2    3    4
 DE= -2.56D-05 DEPred=-5.03D-05 R= 5.09D-01
 TightC=F SS=  1.41D+00  RLast= 1.93D-01 DXNew= 1.1877D+00 5.7753D-01
 Trust test= 5.09D-01 RLast= 1.93D-01 DXMaxT set to 7.06D-01
 ITU=  1  1  1  0
     Eigenvalues ---    0.00052   0.00068   0.00163   0.00238   0.00254
     Eigenvalues ---    0.00532   0.00630   0.00871   0.01415   0.02046
     Eigenvalues ---    0.02409   0.03220   0.03445   0.03921   0.04571
     Eigenvalues ---    0.04706   0.05236   0.05269   0.05617   0.05780
     Eigenvalues ---    0.06137   0.06389   0.06879   0.07943   0.07964
     Eigenvalues ---    0.08537   0.09584   0.09881   0.11709   0.13025
     Eigenvalues ---    0.13066   0.13864   0.15032   0.15977   0.16572
     Eigenvalues ---    0.17835   0.18049   0.20596   0.21432   0.24835
     Eigenvalues ---    0.27339   0.39128   0.52185   0.58112   0.61994
     Eigenvalues ---    0.69001   0.69481   0.78090   0.87069   0.87798
     Eigenvalues ---    0.92822   0.92959   0.95635   0.98909   0.99661
     Eigenvalues ---    1.02390   1.04716   1.08378   1.12848   2.06061
 RFO step:  Lambda=-3.93405473D-05 EMin= 5.20155823D-04
 Quartic linear search produced a step of -0.33530.
 B after Tr=     0.001252   -0.000731    0.003927
         Rot=    0.999999   -0.001102    0.000499    0.000174 Ang=  -0.14 deg.
 Variable       Old X    -DE/DX   Delta X   Delta X   Delta X     New X
                                 (Linear)    (Quad)   (Total)
    X1        6.71757  -0.00051  -0.01739   0.01823   0.00267   6.72025
    Y1        1.91717  -0.00290   0.01105  -0.01820  -0.01041   1.90676
    Z1        0.07028  -0.00073  -0.02791   0.03648   0.02341   0.09369
    X2       -0.98987  -0.00019  -0.00090   0.00063   0.00063  -0.98925
    Y2       -1.16004   0.00003  -0.00955   0.01544   0.00562  -1.15441
    Z2       -0.03510  -0.00015   0.00531  -0.01928  -0.01358  -0.04867
    X3       -3.26019   0.00007   0.00028  -0.00232  -0.00058  -3.26076
    Y3        0.62531   0.00002  -0.00592   0.00993   0.00441   0.62971
    Z3        0.01942   0.00014   0.00419  -0.01709  -0.01084   0.00858
    X4        1.55003   0.00015  -0.00081   0.00205   0.00256   1.55259
    Y4        0.21382   0.00002  -0.00812   0.01219   0.00276   0.21658
    Z4        0.02785   0.00015   0.00406  -0.01620  -0.00619   0.02166
    X5       -5.80709  -0.00023  -0.00352   0.00274   0.00025  -5.80684
    Y5       -0.73694  -0.00009   0.00048  -0.00094   0.00090  -0.73604
    Z5       -0.03974  -0.00016  -0.00477   0.01476   0.00650  -0.03324
    X6        3.79854   0.00071   0.00423  -0.00341   0.00153   3.80008
    Y6       -1.58311   0.00024  -0.00409   0.00652   0.00040  -1.58271
    Z6       -0.00346  -0.00089   0.00349  -0.01122  -0.00350  -0.00696
    X7       -8.06522  -0.00010   0.00206  -0.00698  -0.00333  -8.06855
    Y7        1.06079   0.00001   0.00756  -0.01369  -0.00411   1.05668
    Z7        0.02319   0.00005  -0.00191   0.01074   0.00704   0.03023
    X8        6.35473   0.00054  -0.00153   0.00208   0.00163   6.35636
    Y8       -0.33162   0.00194   0.00843  -0.01113  -0.00578  -0.33740
    Z8        0.03225   0.00243  -0.00301   0.02575   0.03227   0.06452
    X9       -1.10972   0.00001  -0.00161   0.00188  -0.00089  -1.11061
    Y9       -2.46220  -0.00000  -0.00786   0.01403   0.00240  -2.45980
    Z9        1.57179   0.00006   0.00673  -0.02034  -0.01621   1.55558
   X10       -1.09295   0.00004  -0.00132   0.00166   0.00253  -1.09042
   Y10       -2.34089  -0.00002  -0.01066   0.01587   0.00872  -2.33217
   Z10       -1.73437  -0.00000   0.00619  -0.01981  -0.01592  -1.75029
   X11       -3.14464  -0.00000   0.00667  -0.01938  -0.00917  -3.15381
   Y11        1.92782  -0.00006  -0.00323  -0.00251  -0.00183   1.92599
   Z11       -1.58704   0.00004   0.00685  -0.02831  -0.01645  -1.60348
   X12       -3.15737  -0.00006  -0.00120   0.00596   0.00494  -3.15242
   Y12        1.80568  -0.00001  -0.00934   0.02430   0.01159   1.81727
   Z12        1.71864  -0.00009   0.00649  -0.02745  -0.01617   1.70247
   X13        1.66296  -0.00002  -0.00189   0.00133  -0.00051   1.66245
   Y13        1.40613  -0.00003  -0.00763   0.01209  -0.00059   1.40553
   Z13        1.71187  -0.00005   0.00372  -0.01616  -0.00375   1.70812
   X14        1.69484  -0.00011  -0.00403   0.00705   0.00639   1.70123
   Y14        1.50346  -0.00000  -0.00830   0.01245   0.00632   1.50978
   Z14       -1.57969  -0.00001   0.00373  -0.01582  -0.00314  -1.58283
   X15       -5.91191   0.00008  -0.00388  -0.00291  -0.00448  -5.91640
   Y15       -1.91388   0.00016   0.00770  -0.02127  -0.00844  -1.92232
   Z15       -1.74008   0.00018  -0.00938   0.02919   0.01360  -1.72648
   X16       -5.91978   0.00001  -0.01034   0.02116   0.00978  -5.91000
   Y16       -2.04069   0.00014  -0.00476   0.01655   0.00964  -2.03105
   Z16        1.56453  -0.00009  -0.00982   0.03045   0.01418   1.57872
   X17        3.76569  -0.00023   0.00420   0.00469   0.01085   3.77655
   Y17       -2.81002  -0.00015  -0.00645   0.01348   0.00870  -2.80132
   Z17       -1.67800  -0.00009   0.00510  -0.01695  -0.01033  -1.68833
   X18        3.74627   0.00023   0.01153  -0.02026  -0.01008   3.73619
   Y18       -2.89889   0.00032   0.00132  -0.00292  -0.00714  -2.90603
   Z18        1.60177   0.00000   0.00720  -0.01883  -0.01036   1.59140
   X19       -9.85118   0.00011  -0.00108  -0.00174  -0.00157  -9.85275
   Y19        0.02782   0.00014   0.01429  -0.02491  -0.00792   0.01990
   Z19       -0.02388   0.00002  -0.01013   0.04046   0.02447   0.00058
   X20       -8.04212   0.00004   0.01028  -0.02918  -0.01524  -8.05735
   Y20        2.34728  -0.00017   0.01397  -0.03506  -0.01549   2.33179
   Z20       -1.59305   0.00014   0.00366  -0.00669  -0.00202  -1.59507
   X21       -8.05294  -0.00001   0.00236   0.00133   0.00399  -8.04895
   Y21        2.21516  -0.00013   0.00012   0.00907   0.00745   2.22261
   Z21        1.73643  -0.00017   0.00286  -0.00473  -0.00107   1.73536
   X22        7.98107  -0.00055   0.00787  -0.01039  -0.00190   7.97917
   Y22       -1.66597   0.00053   0.02101  -0.02458  -0.00720  -1.67317
   Z22        0.05221  -0.00078  -0.00265   0.00251   0.00806   0.06027
         Item               Value     Threshold  Converged?
 Maximum Force            0.002905     0.000450     NO 
 RMS     Force            0.000584     0.000300     NO 
 Maximum Displacement     0.032269     0.001800     NO 
 RMS     Displacement     0.009793     0.001200     NO 
 Predicted change in Energy=-3.803971D-05
 Lowest energy point so far.  Saving SCF results.
 GradGradGradGradGradGradGradGradGradGradGradGradGradGradGradGradGradGrad

 Leave Link  103 at Wed Feb  7 19:30:01 2024, MaxMem=  6710886400 cpu:               0.3 elap:               0.0
 (Enter /tmpu/scunam/7/gaussian-2016.03/g1/g16/l202.exe)
                          Input orientation:                          
 ---------------------------------------------------------------------
 Center     Atomic      Atomic             Coordinates (Angstroms)
 Number     Number       Type             X           Y           Z
 ---------------------------------------------------------------------
      1          8           0        3.556201    1.009015    0.049580
      2          6           0       -0.523487   -0.610889   -0.025755
      3          6           0       -1.725522    0.333229    0.004541
      4          6           0        0.821594    0.114609    0.011459
      5          6           0       -3.072845   -0.389495   -0.017589
      6          6           0        2.010915   -0.837536   -0.003681
      7          6           0       -4.269695    0.559170    0.015997
      8          6           0        3.363642   -0.178547    0.034144
      9          1           0       -0.587707   -1.301669    0.823179
     10          1           0       -0.577026   -1.234133   -0.926216
     11          1           0       -1.668927    1.019190   -0.848527
     12          1           0       -1.668191    0.961659    0.900909
     13          1           0        0.879733    0.743776    0.903900
     14          1           0        0.900252    0.798944   -0.837598
     15          1           0       -3.130822   -1.017250   -0.913614
     16          1           0       -3.127439   -1.074787    0.835421
     17          1           0        1.998462   -1.482394   -0.893426
     18          1           0        1.977108   -1.537805    0.842135
     19          1           0       -5.213852    0.010533    0.000309
     20          1           0       -4.263767    1.233929   -0.844077
     21          1           0       -4.259323    1.176153    0.918315
     22          1           0        4.222395   -0.885403    0.031895
 ---------------------------------------------------------------------
                    Distance matrix (angstroms):
                    1          2          3          4          5
     1  O    0.000000
     2  C    4.390173   0.000000
     3  C    5.324971   1.528779   0.000000
     4  C    2.877411   1.528716   2.556490   0.000000
     5  C    6.775293   2.558967   1.529085   3.927037   0.000000
     6  C    2.408422   2.544611   3.915573   1.523579   5.103484
     7  C    7.838886   3.924902   2.554211   5.110662   1.527593
     8  C    1.203170   3.911557   5.114918   2.558997   6.440151
     9  H    4.807254   1.096353   2.153528   2.156586   2.777565
    10  H    4.802859   1.096416   2.154525   2.157424   2.787137
    11  H    5.301760   2.155492   1.096115   2.785773   2.155421
    12  H    5.293513   2.154521   1.096215   2.776264   2.154601
    13  H    2.822003   2.160648   2.786529   1.093472   4.213824
    14  H    2.808074   2.161885   2.796565   1.093343   4.227328
    15  H    7.053351   2.784173   2.154453   4.214078   1.095581
    16  H    7.044914   2.781617   2.153658   4.205762   1.095551
    17  H    3.085924   2.805815   4.239208   2.180426   5.261148
    18  H    3.099672   2.804528   4.232234   2.180759   5.249740
    19  H    8.826847   4.731424   3.503227   6.036353   2.178131
    20  H    7.874079   4.250024   2.823845   5.276904   2.176438
    21  H    7.865434   4.247501   2.822349   5.269248   2.175982
    22  H    2.008219   4.754164   6.071534   3.544840   7.312244
                    6          7          8          9         10
     6  C    0.000000
     7  C    6.434067   0.000000
     8  C    1.505181   7.668923   0.000000
     9  H    2.766216   4.203724   4.182959   0.000000
    10  H    2.775931   4.211829   4.191112   1.750730   0.000000
    11  H    4.207425   2.779031   5.247898   3.057781   2.505145
    12  H    4.194187   2.777208   5.231701   2.509211   3.057864
    13  H    2.145652   5.228676   2.788721   2.518678   3.063265
    14  H    2.146404   5.245423   2.789931   3.063458   2.514678
    15  H    5.224723   2.155529   6.616625   3.092698   2.563020
    16  H    5.211819   2.155463   6.601472   2.549875   3.103766
    17  H    1.098928   6.654684   2.103360   3.109287   2.587633
    18  H    1.098601   6.640960   2.103072   2.575732   3.121358
    19  H    7.274372   1.092100   8.579645   4.878546   4.889561
    20  H    6.660995   1.093189   7.806647   4.766804   4.437358
    21  H    6.649879   1.093140   7.792725   4.430510   4.771906
    22  H    2.212285   8.614095   1.112253   4.892493   4.906529
                   11         12         13         14         15
    11  H    0.000000
    12  H    1.750382   0.000000
    13  H    3.105240   2.557224   0.000000
    14  H    2.578625   3.105766   1.742492   0.000000
    15  H    2.507680   3.057427   4.742269   4.421979   0.000000
    16  H    3.057397   2.506153   4.401055   4.746805   1.749985
    17  H    4.439558   4.757875   3.072095   2.532525   5.150371
    18  H    4.763416   4.420292   2.532521   3.072705   5.426286
    19  H    3.782117   3.779872   6.203700   6.221411   2.496119
    20  H    2.603715   3.139446   5.454472   5.182311   2.521152
    21  H    3.139510   2.600053   5.157233   5.463216   3.072539
    22  H    6.253822   6.234246   3.819425   3.824876   7.414929
                   16         17         18         19         20
    16  H    0.000000
    17  H    5.424934   0.000000
    18  H    5.125508   1.736576   0.000000
    19  H    2.495687   7.419236   7.403778   0.000000
    20  H    3.072804   6.826152   7.033800   1.764185   0.000000
    21  H    2.520866   7.036345   6.801797   1.764237   1.763344
    22  H    7.396052   2.481632   2.474557   9.478737   8.790554
                   21         22
    21  H    0.000000
    22  H    8.773557   0.000000
 Stoichiometry    C7H14O
 Framework group  C1[X(C7H14O)]
 Deg. of freedom    60
 Full point group                 C1      NOp   1
 RotChk:  IX=2 Diff= 7.18D-03
 Largest Abelian subgroup         C1      NOp   1
 Largest concise Abelian subgroup C1      NOp   1
                         Standard orientation:                         
 ---------------------------------------------------------------------
 Center     Atomic      Atomic             Coordinates (Angstroms)
 Number     Number       Type             X           Y           Z
 ---------------------------------------------------------------------
      1          8           0       -3.640893   -1.074469   -0.005638
      2          6           0        0.413653    0.609042   -0.013714
      3          6           0        1.629943   -0.317104   -0.005978
      4          6           0       -0.920243   -0.137690   -0.004384
      5          6           0        2.966061    0.426439   -0.000302
      6          6           0       -2.124007    0.796219    0.003328
      7          6           0        4.177222   -0.504427    0.010562
      8          6           0       -3.466577    0.115824    0.015214
      9          1           0        0.463674    1.275059    0.855717
     10          1           0        0.461362    1.259645   -0.894944
     11          1           0        1.587488   -0.978065   -0.879361
     12          1           0        1.578539   -0.972825    0.870990
     13          1           0       -0.972427   -0.794044    0.868633
     14          1           0       -0.984800   -0.797483   -0.873812
     15          1           0        3.018120    1.081485   -0.876945
     16          1           0        3.006524    1.086703    0.872994
     17          1           0       -2.117757    1.467477   -0.866739
     18          1           0       -2.104529    1.471350    0.869783
     19          1           0        5.112879    0.058780    0.015616
     20          1           0        4.185286   -1.153211   -0.869255
     21          1           0        4.172570   -1.148170    0.894037
     22          1           0       -4.336092    0.809243    0.030039
 ---------------------------------------------------------------------
 Rotational constants (GHZ):           8.0409367           0.5661967           0.5394040
 Leave Link  202 at Wed Feb  7 19:30:01 2024, MaxMem=  6710886400 cpu:               0.2 elap:               0.0
 (Enter /tmpu/scunam/7/gaussian-2016.03/g1/g16/l301.exe)
 Standard basis: def2TZVP (5D, 7F)
 Ernie: Thresh=  0.10000D-02 Tol=  0.10000D-05 Strict=F.
 There are   372 symmetry adapted cartesian basis functions of A   symmetry.
 There are   332 symmetry adapted basis functions of A   symmetry.
   332 basis functions,   520 primitive gaussians,   372 cartesian basis functions
    32 alpha electrons       32 beta electrons
       nuclear repulsion energy       360.1355597511 Hartrees.
 IExCor=  402 DFT=T Ex+Corr=B3LYP ExCW=0 ScaHFX=  0.200000
 ScaDFX=  0.800000  0.720000  1.000000  0.810000 ScalE2=  1.000000  1.000000
 IRadAn=      5 IRanWt=     -1 IRanGd=            0 ICorTp=0 IEmpDi=  4
 NAtoms=   22 NActive=   22 NUniq=   22 SFac= 1.00D+00 NAtFMM=   60 NAOKFM=F Big=F
 Integral buffers will be    131072 words long.
 Raffenetti 2 integral format.
 Two-electron integral symmetry is turned on.
 Leave Link  301 at Wed Feb  7 19:30:01 2024, MaxMem=  6710886400 cpu:               0.7 elap:               0.1
 (Enter /tmpu/scunam/7/gaussian-2016.03/g1/g16/l302.exe)
 NPDir=0 NMtPBC=     1 NCelOv=     1 NCel=       1 NClECP=     1 NCelD=      1
         NCelK=      1 NCelE2=     1 NClLst=     1 CellRange=     0.0.
 One-electron integrals computed using PRISM.
 One-electron integral symmetry used in STVInt
   1 Symmetry operations used in ECPInt.
 ECPInt:  NShTT=   10440 NPrTT=   30108 LenC2=    9710 LenP2D=   21946.
 LDataN:  DoStor=T MaxTD1= 6 Len=  172
 NBasis=   332 RedAO= T EigKep=  8.36D-05  NBF=   332
 NBsUse=   332 1.00D-06 EigRej= -1.00D+00 NBFU=   332
 Precomputing XC quadrature grid using
 IXCGrd= 4 IRadAn=           5 IRanWt=          -1 IRanGd=           0 AccXCQ= 0.00D+00.
 Generated NRdTot=       0 NPtTot=           0 NUsed=           0 NTot=          32
 NSgBfM=   367   367   367   367   367 MxSgAt=    22 MxSgA2=    22.
 Leave Link  302 at Wed Feb  7 19:30:02 2024, MaxMem=  6710886400 cpu:               5.1 elap:               0.3
 (Enter /tmpu/scunam/7/gaussian-2016.03/g1/g16/l303.exe)
 DipDrv:  MaxL=1.
 Leave Link  303 at Wed Feb  7 19:30:02 2024, MaxMem=  6710886400 cpu:               0.7 elap:               0.1
 (Enter /tmpu/scunam/7/gaussian-2016.03/g1/g16/l401.exe)
 Initial guess from the checkpoint file:  "Heptanal.chk"
 B after Tr=     0.000000   -0.000000   -0.000000
         Rot=    0.999999   -0.001285    0.000034   -0.000039 Ang=  -0.15 deg.
 Guess basis will be translated and rotated to current coordinates.
 JPrj=2 DoOrth=T DoCkMO=T.
 Generating alternative initial guess.
 ExpMin= 9.52D-02 ExpMax= 2.70D+04 ExpMxC= 9.22D+02 IAcc=2 IRadAn=         4 AccDes= 0.00D+00
 Harris functional with IExCor=  402 and IRadAn=       4 diagonalized for initial guess.
 HarFok:  IExCor=  402 AccDes= 0.00D+00 IRadAn=         4 IDoV= 1 UseB2=F ITyADJ=14
 ICtDFT=  3500011 ScaDFX=  1.000000  1.000000  1.000000  1.000000
 FoFCou: FMM=F IPFlag=           0 FMFlag=      100000 FMFlg1=           0
         NFxFlg=           0 DoJE=T BraDBF=F KetDBF=T FulRan=T
         wScrn=  0.000000 ICntrl=       500 IOpCl=  0 I1Cent=   200000004 NGrid=           0
         NMat0=    1 NMatS0=      1 NMatT0=    0 NMatD0=    1 NMtDS0=    0 NMtDT0=    0
 Petite list used in FoFCou.
 Harris En= -350.631454242731    
 Leave Link  401 at Wed Feb  7 19:30:03 2024, MaxMem=  6710886400 cpu:              13.6 elap:               0.9
 (Enter /tmpu/scunam/7/gaussian-2016.03/g1/g16/l502.exe)
 Integral symmetry usage will be decided dynamically.
 Closed shell SCF:
 Using DIIS extrapolation, IDIIS=  1040.
 NGot=  6710886400 LenX=  6710600118 LenY=  6710461293
 Requested convergence on RMS density matrix=1.00D-08 within 128 cycles.
 Requested convergence on MAX density matrix=1.00D-06.
 Requested convergence on             energy=1.00D-06.
 No special actions if energy rises.
 Fock matrices will be formed incrementally for  20 cycles.
 Integral accuracy reduced to 1.0D-05 until final iterations.

 Cycle   1  Pass 0  IDiag  1:
 FoFJK:  IHMeth= 1 ICntrl=       0 DoSepK=F KAlg= 0 I1Cent=           0 FoldK=F
 IRaf= 890000000 NMat=       1 IRICut=       1 DoRegI=T DoRafI=F ISym2E= 0 IDoP0=0 IntGTp=1.
 FoFCou: FMM=F IPFlag=           0 FMFlag=      100000 FMFlg1=           0
         NFxFlg=           0 DoJE=F BraDBF=F KetDBF=F FulRan=T
         wScrn=  0.000000 ICntrl=         0 IOpCl=  0 I1Cent=           0 NGrid=           0
         NMat0=    1 NMatS0=      1 NMatT0=    0 NMatD0=    1 NMtDS0=    0 NMtDT0=    0
 Symmetry not used in FoFCou.
 E= -350.539617674948    
 DIIS: error= 4.91D-04 at cycle   1 NSaved=   1.
 NSaved= 1 IEnMin= 1 EnMin= -350.539617674948     IErMin= 1 ErrMin= 4.91D-04
 ErrMax= 4.91D-04  0.00D+00 EMaxC= 1.00D-01 BMatC= 9.37D-05 BMatP= 9.37D-05
 IDIUse=3 WtCom= 9.95D-01 WtEn= 4.91D-03
 Coeff-Com:  0.100D+01
 Coeff-En:   0.100D+01
 Coeff:      0.100D+01
 Gap=     0.648 Goal=   None    Shift=    0.000
 RMSDP=7.86D-05 MaxDP=2.56D-03              OVMax= 2.46D-03

 Cycle   2  Pass 0  IDiag  1:
 RMSU=  7.86D-05    CP:  1.00D+00
 E= -350.539738591920     Delta-E=       -0.000120916971 Rises=F Damp=F
 DIIS: error= 4.37D-05 at cycle   2 NSaved=   2.
 NSaved= 2 IEnMin= 2 EnMin= -350.539738591920     IErMin= 2 ErrMin= 4.37D-05
 ErrMax= 4.37D-05  0.00D+00 EMaxC= 1.00D-01 BMatC= 1.53D-06 BMatP= 9.37D-05
 IDIUse=1 WtCom= 1.00D+00 WtEn= 0.00D+00
 Coeff-Com: -0.349D-01 0.103D+01
 Coeff:     -0.349D-01 0.103D+01
 Gap=     0.231 Goal=   None    Shift=    0.000
 RMSDP=9.53D-06 MaxDP=9.09D-04 DE=-1.21D-04 OVMax= 5.27D-04

 Initial convergence to 1.0D-05 achieved.  Increase integral accuracy.
 Cycle   3  Pass 1  IDiag  1:
 E= -350.539712342032     Delta-E=        0.000026249888 Rises=F Damp=F
 DIIS: error= 1.26D-04 at cycle   1 NSaved=   1.
 NSaved= 1 IEnMin= 1 EnMin= -350.539712342032     IErMin= 1 ErrMin= 1.26D-04
 ErrMax= 1.26D-04  0.00D+00 EMaxC= 1.00D-01 BMatC= 2.36D-06 BMatP= 2.36D-06
 IDIUse=3 WtCom= 9.99D-01 WtEn= 1.26D-03
 Coeff-Com:  0.100D+01
 Coeff-En:   0.100D+01
 Coeff:      0.100D+01
 Gap=     0.231 Goal=   None    Shift=    0.000
 RMSDP=9.53D-06 MaxDP=9.09D-04 DE= 2.62D-05 OVMax= 6.75D-04

 Cycle   4  Pass 1  IDiag  1:
 RMSU=  6.83D-05    CP:  1.00D+00
 E= -350.539712488044     Delta-E=       -0.000000146012 Rises=F Damp=F
 DIIS: error= 7.75D-05 at cycle   2 NSaved=   2.
 NSaved= 2 IEnMin= 2 EnMin= -350.539712488044     IErMin= 2 ErrMin= 7.75D-05
 ErrMax= 7.75D-05  0.00D+00 EMaxC= 1.00D-01 BMatC= 2.04D-06 BMatP= 2.36D-06
 IDIUse=1 WtCom= 1.00D+00 WtEn= 0.00D+00
 Coeff-Com:  0.478D+00 0.522D+00
 Coeff:      0.478D+00 0.522D+00
 Gap=     0.231 Goal=   None    Shift=    0.000
 RMSDP=1.04D-05 MaxDP=1.51D-03 DE=-1.46D-07 OVMax= 4.80D-04

 Cycle   5  Pass 1  IDiag  1:
 RMSU=  1.01D-05    CP:  1.00D+00  9.92D-01
 E= -350.539713763454     Delta-E=       -0.000001275410 Rises=F Damp=F
 DIIS: error= 3.77D-05 at cycle   3 NSaved=   3.
 NSaved= 3 IEnMin= 3 EnMin= -350.539713763454     IErMin= 3 ErrMin= 3.77D-05
 ErrMax= 3.77D-05  0.00D+00 EMaxC= 1.00D-01 BMatC= 4.88D-07 BMatP= 2.04D-06
 IDIUse=1 WtCom= 1.00D+00 WtEn= 0.00D+00
 Coeff-Com:  0.119D+00 0.328D+00 0.552D+00
 Coeff:      0.119D+00 0.328D+00 0.552D+00
 Gap=     0.231 Goal=   None    Shift=    0.000
 RMSDP=2.96D-06 MaxDP=4.09D-04 DE=-1.28D-06 OVMax= 2.47D-04

 Cycle   6  Pass 1  IDiag  1:
 RMSU=  1.13D-06    CP:  1.00D+00  1.00D+00  7.44D-01
 E= -350.539714043663     Delta-E=       -0.000000280209 Rises=F Damp=F
 DIIS: error= 2.07D-05 at cycle   4 NSaved=   4.
 NSaved= 4 IEnMin= 4 EnMin= -350.539714043663     IErMin= 4 ErrMin= 2.07D-05
 ErrMax= 2.07D-05  0.00D+00 EMaxC= 1.00D-01 BMatC= 9.46D-08 BMatP= 4.88D-07
 IDIUse=1 WtCom= 1.00D+00 WtEn= 0.00D+00
 Coeff-Com:  0.133D-02 0.129D+00 0.369D+00 0.501D+00
 Coeff:      0.133D-02 0.129D+00 0.369D+00 0.501D+00
 Gap=     0.231 Goal=   None    Shift=    0.000
 RMSDP=5.55D-07 MaxDP=3.26D-05 DE=-2.80D-07 OVMax= 7.63D-05

 Cycle   7  Pass 1  IDiag  1:
 RMSU=  2.20D-07    CP:  1.00D+00  1.00D+00  7.56D-01  5.84D-01
 E= -350.539714120201     Delta-E=       -0.000000076538 Rises=F Damp=F
 DIIS: error= 1.18D-06 at cycle   5 NSaved=   5.
 NSaved= 5 IEnMin= 5 EnMin= -350.539714120201     IErMin= 5 ErrMin= 1.18D-06
 ErrMax= 1.18D-06  0.00D+00 EMaxC= 1.00D-01 BMatC= 8.07D-10 BMatP= 9.46D-08
 IDIUse=1 WtCom= 1.00D+00 WtEn= 0.00D+00
 Coeff-Com: -0.108D-02 0.589D-01 0.177D+00 0.248D+00 0.517D+00
 Coeff:     -0.108D-02 0.589D-01 0.177D+00 0.248D+00 0.517D+00
 Gap=     0.231 Goal=   None    Shift=    0.000
 RMSDP=8.25D-08 MaxDP=2.51D-06 DE=-7.65D-08 OVMax= 5.27D-06

 Cycle   8  Pass 1  IDiag  1:
 RMSU=  6.17D-08    CP:  1.00D+00  1.00D+00  7.56D-01  5.69D-01  7.69D-01
 E= -350.539714120971     Delta-E=       -0.000000000770 Rises=F Damp=F
 DIIS: error= 2.29D-07 at cycle   6 NSaved=   6.
 NSaved= 6 IEnMin= 6 EnMin= -350.539714120971     IErMin= 6 ErrMin= 2.29D-07
 ErrMax= 2.29D-07  0.00D+00 EMaxC= 1.00D-01 BMatC= 2.43D-11 BMatP= 8.07D-10
 IDIUse=1 WtCom= 1.00D+00 WtEn= 0.00D+00
 Coeff-Com: -0.530D-03 0.226D-01 0.692D-01 0.977D-01 0.246D+00 0.565D+00
 Coeff:     -0.530D-03 0.226D-01 0.692D-01 0.977D-01 0.246D+00 0.565D+00
 Gap=     0.231 Goal=   None    Shift=    0.000
 RMSDP=2.42D-08 MaxDP=2.58D-06 DE=-7.70D-10 OVMax= 8.61D-07

 Cycle   9  Pass 1  IDiag  1:
 RMSU=  1.69D-08    CP:  1.00D+00  1.00D+00  7.57D-01  5.69D-01  7.75D-01
                    CP:  9.78D-01
 E= -350.539714120992     Delta-E=       -0.000000000022 Rises=F Damp=F
 DIIS: error= 2.88D-08 at cycle   7 NSaved=   7.
 NSaved= 7 IEnMin= 7 EnMin= -350.539714120992     IErMin= 7 ErrMin= 2.88D-08
 ErrMax= 2.88D-08  0.00D+00 EMaxC= 1.00D-01 BMatC= 4.22D-13 BMatP= 2.43D-11
 IDIUse=1 WtCom= 1.00D+00 WtEn= 0.00D+00
 Coeff-Com: -0.761D-04 0.253D-02 0.809D-02 0.116D-01 0.378D-01 0.152D+00
 Coeff-Com:  0.788D+00
 Coeff:     -0.761D-04 0.253D-02 0.809D-02 0.116D-01 0.378D-01 0.152D+00
 Coeff:      0.788D+00
 Gap=     0.231 Goal=   None    Shift=    0.000
 RMSDP=3.50D-09 MaxDP=2.23D-07 DE=-2.16D-11 OVMax= 2.03D-07

 SCF Done:  E(RB3LYP) =  -350.539714121     A.U. after    9 cycles
            NFock=  9  Conv=0.35D-08     -V/T= 2.0054
 KE= 3.486722442159D+02 PE=-1.534887257102D+03 EE= 4.755397390143D+02
 Leave Link  502 at Wed Feb  7 19:30:33 2024, MaxMem=  6710886400 cpu:             482.1 elap:              30.2
 (Enter /tmpu/scunam/7/gaussian-2016.03/g1/g16/l508.exe)
 QCSCF skips out because SCF is already converged.
 Leave Link  508 at Wed Feb  7 19:30:33 2024, MaxMem=  6710886400 cpu:               0.0 elap:               0.0
 (Enter /tmpu/scunam/7/gaussian-2016.03/g1/g16/l701.exe)
 ... and contract with generalized density number  0.
 Compute integral first derivatives.
   1 Symmetry operations used in ECPInt.
 ECPInt:  NShTT=   10440 NPrTT=   30108 LenC2=    9710 LenP2D=   21946.
 LDataN:  DoStor=T MaxTD1= 7 Len=  274
 Leave Link  701 at Wed Feb  7 19:30:33 2024, MaxMem=  6710886400 cpu:               3.4 elap:               0.2
 (Enter /tmpu/scunam/7/gaussian-2016.03/g1/g16/l702.exe)
 L702 exits ... SP integral derivatives will be done elsewhere.
 Leave Link  702 at Wed Feb  7 19:30:33 2024, MaxMem=  6710886400 cpu:               0.3 elap:               0.0
 (Enter /tmpu/scunam/7/gaussian-2016.03/g1/g16/l703.exe)
 Integral derivatives from FoFJK, PRISM(SPDF).
 Compute integral first derivatives, UseDBF=F ICtDFT=           0.
 Calling FoFJK, ICntrl=      2127 FMM=F ISym2X=0 I1Cent= 0 IOpClX= 0 NMat=1 NMatS=1 NMatT=0.
 FoFJK:  IHMeth= 1 ICntrl=    2127 DoSepK=F KAlg= 0 I1Cent=           0 FoldK=F
 IRaf=         0 NMat=       1 IRICut=       1 DoRegI=T DoRafI=F ISym2E= 0 IDoP0=0 IntGTp=1.
 FoFCou: FMM=F IPFlag=           0 FMFlag=      100000 FMFlg1=         800
         NFxFlg=           0 DoJE=F BraDBF=F KetDBF=F FulRan=T
         wScrn=  0.000000 ICntrl=      2127 IOpCl=  0 I1Cent=           0 NGrid=           0
         NMat0=    1 NMatS0=      1 NMatT0=    0 NMatD0=    1 NMtDS0=    0 NMtDT0=    0
 Symmetry not used in FoFCou.
 Leave Link  703 at Wed Feb  7 19:30:44 2024, MaxMem=  6710886400 cpu:             176.5 elap:              11.1
 (Enter /tmpu/scunam/7/gaussian-2016.03/g1/g16/l716.exe)
 Dipole        = 4.56095633D-01 9.72356012D-01 9.34451996D-03
 ***** Axes restored to original set *****
 -------------------------------------------------------------------
 Center     Atomic                   Forces (Hartrees/Bohr)
 Number     Number              X              Y              Z
 -------------------------------------------------------------------
      1        8           0.000359079    0.001014087    0.000694734
      2        6          -0.000068819   -0.000140952   -0.000009332
      3        6           0.000013669    0.000103533    0.000072516
      4        6           0.000049148    0.000116763    0.000046808
      5        6          -0.000056505   -0.000180804   -0.000078450
      6        6           0.000043113   -0.000306113    0.000595420
      7        6          -0.000056270    0.000100569   -0.000012948
      8        6          -0.000293290   -0.000787915   -0.001962542
      9        1          -0.000014036   -0.000019310    0.000042234
     10        1          -0.000004108    0.000001291    0.000022349
     11        1           0.000005211   -0.000050479    0.000031804
     12        1          -0.000016834   -0.000049595   -0.000074116
     13        1          -0.000006518   -0.000018694   -0.000005951
     14        1          -0.000028522   -0.000041213   -0.000004723
     15        1           0.000058216    0.000105249    0.000118723
     16        1           0.000013931    0.000097980   -0.000109218
     17        1           0.000111886    0.000131027    0.000064719
     18        1          -0.000248784   -0.000013256    0.000003770
     19        1           0.000158402    0.000115095    0.000005431
     20        1           0.000024355   -0.000124529    0.000147743
     21        1          -0.000015233   -0.000082049   -0.000132820
     22        1          -0.000028091    0.000029313    0.000543850
 -------------------------------------------------------------------
 Cartesian Forces:  Max     0.001962542 RMS     0.000333150
 Leave Link  716 at Wed Feb  7 19:30:44 2024, MaxMem=  6710886400 cpu:               0.3 elap:               0.0
 (Enter /tmpu/scunam/7/gaussian-2016.03/g1/g16/l103.exe)

 GradGradGradGradGradGradGradGradGradGradGradGradGradGradGradGradGradGrad
 Berny optimization.
 Search for a local minimum.
 Step number   5 out of a maximum of  132
 All quantities printed in internal units (Hartrees-Bohrs-Radians)
 Update second derivatives using D2CorN and points    2    3    4    5
 DE= -8.51D-06 DEPred=-3.80D-05 R= 2.24D-01
 Trust test= 2.24D-01 RLast= 7.96D-02 DXMaxT set to 7.06D-01
 ITU=  0  1  1  1  0
     Eigenvalues ---   -0.00071   0.00067   0.00164   0.00242   0.00264
     Eigenvalues ---    0.00533   0.00639   0.00873   0.01428   0.02048
     Eigenvalues ---    0.02409   0.03220   0.03451   0.03952   0.04618
     Eigenvalues ---    0.04708   0.05238   0.05286   0.05623   0.05785
     Eigenvalues ---    0.06137   0.06394   0.06880   0.07944   0.07976
     Eigenvalues ---    0.08537   0.09594   0.09896   0.11724   0.13034
     Eigenvalues ---    0.13067   0.13866   0.15032   0.15978   0.17115
     Eigenvalues ---    0.17835   0.18053   0.20596   0.21432   0.24834
     Eigenvalues ---    0.27335   0.39129   0.52187   0.58111   0.61993
     Eigenvalues ---    0.69013   0.69484   0.78126   0.87070   0.87800
     Eigenvalues ---    0.92827   0.92960   0.95635   0.98902   0.99664
     Eigenvalues ---    1.02389   1.04716   1.08378   1.12852   2.06101
 Eigenvalue     1 is  -7.07D-04 should be greater than     0.000000 Eigenvector:
                          Z1        Z19       Z11       Z12       Z16
   1                    0.40107   0.32730  -0.26240  -0.25061   0.23919
                          Z15       Y20       Y15       Y12       Z18
   1                    0.22373  -0.21261  -0.16966   0.16932  -0.15605
 RFO step:  Lambda=-7.07017625D-04 EMin=-7.06996763D-04
 I=     1 Eig=   -7.07D-04 Dot1= -2.41D-06
 I=     1 Stepn= -6.00D-01 RXN=   6.00D-01 EDone=F
 Mixed    1 eigenvectors in step.  Raw Step.Grad=  2.41D-06.
 RFO eigenvector is Hessian eigenvector with negative curvature.
 Taking step of  6.00D-01 in eigenvector direction(s).  Step.Grad=  9.18D-05.
 Quartic linear search produced a step of -0.42725.
 B after Tr=    -0.003069    0.000550   -0.018721
         Rot=    0.999976    0.006500   -0.002438   -0.000257 Ang=   0.80 deg.
 Variable       Old X    -DE/DX   Delta X   Delta X   Delta X     New X
                                 (Linear)    (Quad)   (Total)
    X1        6.72025   0.00036  -0.00114  -0.04978  -0.05590   6.66435
    Y1        1.90676   0.00101   0.00445   0.02621   0.03223   1.93899
    Z1        0.09369   0.00069  -0.01000  -0.24064  -0.32707  -0.23338
    X2       -0.98925  -0.00007  -0.00027   0.00022  -0.00231  -0.99156
    Y2       -1.15441  -0.00014  -0.00240  -0.02774  -0.02956  -1.18397
    Z2       -0.04867  -0.00001   0.00580   0.07413   0.08143   0.03276
    X3       -3.26076   0.00001   0.00025   0.00360   0.00099  -3.25978
    Y3        0.62971   0.00010  -0.00188  -0.01924  -0.02084   0.60887
    Z3        0.00858   0.00007   0.00463   0.09101   0.08489   0.09347
    X4        1.55259   0.00005  -0.00109   0.00087  -0.00293   1.54966
    Y4        0.21658   0.00012  -0.00118  -0.02691  -0.02551   0.19107
    Z4        0.02166   0.00005   0.00265   0.07580   0.04969   0.07135
    X5       -5.80684  -0.00006  -0.00011  -0.00633  -0.00954  -5.81637
    Y5       -0.73604  -0.00018  -0.00038   0.00766   0.00374  -0.73230
    Z5       -0.03324  -0.00008  -0.00278  -0.06751  -0.05117  -0.08441
    X6        3.80008   0.00004  -0.00066   0.01480   0.01217   3.81225
    Y6       -1.58271  -0.00031  -0.00017  -0.01323  -0.01015  -1.59287
    Z6       -0.00696   0.00060   0.00149   0.06115   0.04605   0.03910
    X7       -8.06855  -0.00006   0.00142   0.00641   0.00415  -8.06441
    Y7        1.05668   0.00010   0.00176   0.02634   0.02434   1.08102
    Z7        0.03023  -0.00001  -0.00301  -0.05179  -0.04829  -0.01806
    X8        6.35636  -0.00029  -0.00070  -0.00015  -0.00372   6.35265
    Y8       -0.33740  -0.00079   0.00247   0.02265   0.02905  -0.30835
    Z8        0.06452  -0.00196  -0.01379  -0.02836  -0.08782  -0.02330
    X9       -1.11061  -0.00001   0.00038  -0.00116   0.00546  -1.10515
    Y9       -2.45980  -0.00002  -0.00103  -0.04230  -0.02197  -2.48176
    Z9        1.55558   0.00004   0.00693   0.06320   0.08920   1.64479
   X10       -1.09042  -0.00000  -0.00108  -0.00297  -0.01400  -1.10442
   Y10       -2.33217   0.00000  -0.00372  -0.01153  -0.03688  -2.36906
   Z10       -1.75029   0.00002   0.00680   0.06314   0.08723  -1.66306
   X11       -3.15381   0.00001   0.00392   0.06678   0.05957  -3.09425
   Y11        1.92599  -0.00005   0.00078   0.05737   0.03834   1.96433
   Z11       -1.60348   0.00003   0.00703   0.15744   0.13513  -1.46835
   X12       -3.15242  -0.00002  -0.00211  -0.04518  -0.04220  -3.19462
   Y12        1.81727  -0.00005  -0.00495  -0.10159  -0.08351   1.73376
   Z12        1.70247  -0.00007   0.00691   0.15037   0.13175   1.83422
   X13        1.66245  -0.00001   0.00022   0.00315   0.00824   1.67070
   Y13        1.40553  -0.00002   0.00025  -0.03065  -0.00592   1.39962
   Z13        1.70812  -0.00001   0.00160   0.07804   0.03475   1.74287
   X14        1.70123  -0.00003  -0.00273  -0.00854  -0.02249   1.67874
   Y14        1.50978  -0.00004  -0.00270  -0.02121  -0.04220   1.46759
   Z14       -1.58283  -0.00000   0.00134   0.07961   0.03482  -1.54801
   X15       -5.91640   0.00006   0.00192   0.04271   0.03352  -5.88287
   Y15       -1.92232   0.00011   0.00361   0.10180   0.07900  -1.84332
   Z15       -1.72648   0.00012  -0.00581  -0.13424  -0.10633  -1.83281
   X16       -5.91000   0.00001  -0.00418  -0.07748  -0.07654  -5.98654
   Y16       -2.03105   0.00010  -0.00412  -0.07854  -0.06625  -2.09730
   Z16        1.57872  -0.00011  -0.00606  -0.14352  -0.11173   1.46699
   X17        3.77655   0.00011  -0.00464  -0.01905  -0.03301   3.74353
   Y17       -2.80132   0.00013  -0.00372  -0.05196  -0.07382  -2.87513
   Z17       -1.68833   0.00006   0.00441   0.08864   0.09331  -1.59502
   X18        3.73619  -0.00025   0.00431   0.07693   0.08793   3.82412
   Y18       -2.90603  -0.00001   0.00305   0.02691   0.05456  -2.85147
   Z18        1.59140   0.00000   0.00443   0.09363   0.09793   1.68934
   X19       -9.85275   0.00016   0.00067  -0.00228  -0.00560  -9.85836
   Y19        0.01990   0.00012   0.00338   0.04895   0.04543   0.06534
   Z19        0.00058   0.00001  -0.01045  -0.19638  -0.17840  -0.17781
   X20       -8.05735   0.00002   0.00651   0.09092   0.08550  -7.97186
   Y20        2.33179  -0.00012   0.00662   0.12757   0.11036   2.44215
   Z20       -1.59507   0.00015   0.00086   0.03098   0.02005  -1.57502
   X21       -8.04895  -0.00002  -0.00170  -0.05904  -0.05633  -8.10529
   Y21        2.22261  -0.00008  -0.00318  -0.08128  -0.06519   2.15742
   Z21        1.73536  -0.00013   0.00046   0.02001   0.01335   1.74871
   X22        7.97917  -0.00003   0.00081   0.02849   0.02706   8.00623
   Y22       -1.67317   0.00003   0.00308   0.05699   0.06473  -1.60844
   Z22        0.06027   0.00054  -0.00344  -0.04852  -0.08878  -0.02851
         Item               Value     Threshold  Converged?
 Maximum Force            0.001963     0.000450     NO 
 RMS     Force            0.000333     0.000300     NO 
 Maximum Displacement     0.327068     0.001800     NO 
 RMS     Displacement     0.074775     0.001200     NO 
 Predicted change in Energy=-6.915830D-05
 Lowest energy point so far.  Saving SCF results.
 GradGradGradGradGradGradGradGradGradGradGradGradGradGradGradGradGradGrad

 Leave Link  103 at Wed Feb  7 19:30:44 2024, MaxMem=  6710886400 cpu:               0.3 elap:               0.0
 (Enter /tmpu/scunam/7/gaussian-2016.03/g1/g16/l202.exe)
                          Input orientation:                          
 ---------------------------------------------------------------------
 Center     Atomic      Atomic             Coordinates (Angstroms)
 Number     Number       Type             X           Y           Z
 ---------------------------------------------------------------------
      1          8           0        3.526621    1.026069   -0.123497
      2          6           0       -0.524708   -0.626532    0.017336
      3          6           0       -1.724999    0.322199    0.049460
      4          6           0        0.820043    0.101111    0.037756
      5          6           0       -3.077893   -0.387517   -0.044668
      6          6           0        2.017355   -0.842909    0.020689
      7          6           0       -4.267500    0.572049   -0.009558
      8          6           0        3.361676   -0.163171   -0.012328
      9          1           0       -0.584820   -1.313293    0.870383
     10          1           0       -0.584436   -1.253650   -0.880055
     11          1           0       -1.637404    1.039479   -0.777017
     12          1           0       -1.690522    0.917468    0.970628
     13          1           0        0.884094    0.740645    0.922286
     14          1           0        0.888352    0.776614   -0.819172
     15          1           0       -3.113083   -0.975442   -0.969879
     16          1           0       -3.167943   -1.109845    0.776295
     17          1           0        1.980993   -1.521455   -0.844048
     18          1           0        2.023636   -1.508931    0.893959
     19          1           0       -5.216818    0.034574   -0.094095
     20          1           0       -4.218524    1.292328   -0.833466
     21          1           0       -4.289133    1.141657    0.925378
     22          1           0        4.236714   -0.851148   -0.015088
 ---------------------------------------------------------------------
                    Distance matrix (angstroms):
                    1          2          3          4          5
     1  O    0.000000
     2  C    4.377693   0.000000
     3  C    5.301402   1.530301   0.000000
     4  C    2.864806   1.529130   2.554654   0.000000
     5  C    6.754557   2.565097   1.530646   3.929307   0.000000
     6  C    2.406605   2.551258   3.919633   1.524802   5.115975
     7  C    7.808165   3.930116   2.555429   5.109512   1.528779
     8  C    1.205760   3.914022   5.110153   2.555827   6.443556
     9  H    4.833670   1.096788   2.156098   2.160428   2.812435
    10  H    4.761333   1.096428   2.155965   2.156459   2.768643
    11  H    5.205231   2.155153   1.097829   2.753804   2.155843
    12  H    5.331744   2.156809   1.097307   2.799933   2.158381
    13  H    2.856236   2.161674   2.782856   1.093390   4.231440
    14  H    2.739828   2.159932   2.791168   1.093296   4.205491
    15  H    6.986278   2.792134   2.156317   4.200449   1.096773
    16  H    7.084415   2.792185   2.158964   4.232716   1.097199
    17  H    3.065622   2.796678   4.234596   2.181308   5.245679
    18  H    3.117756   2.835693   4.256581   2.184938   5.306994
    19  H    8.799526   4.739765   3.506584   6.038667   2.180735
    20  H    7.782174   4.248548   2.817512   5.250256   2.178330
    21  H    7.886667   4.256986   2.830817   5.289073   2.178638
    22  H    2.009957   4.766828   6.076425   3.547285   7.329345
                    6          7          8          9         10
     6  C    0.000000
     7  C    6.442238   0.000000
     8  C    1.506761   7.664521   0.000000
     9  H    2.777509   4.229769   4.204377   0.000000
    10  H    2.783769   4.201892   4.184961   1.751454   0.000000
    11  H    4.187718   2.779368   5.198261   3.058987   2.525431
    12  H    4.213035   2.778650   5.259153   2.491771   3.059772
    13  H    2.145880   5.237908   2.797999   2.525681   3.063043
    14  H    2.145430   5.223038   2.766139   3.064726   2.508941
    15  H    5.226871   2.156299   6.595391   3.145286   2.545490
    16  H    5.246858   2.157628   6.644850   2.592830   3.072244
    17  H    1.099781   6.642500   2.107837   3.092895   2.579621
    18  H    1.098282   6.687691   2.103039   2.615889   3.164543
    19  H    7.288101   1.094180   8.581162   4.919590   4.871982
    20  H    6.646428   1.095456   7.762227   4.784994   4.437428
    21  H    6.672987   1.095001   7.817720   4.444293   4.766745
    22  H    2.219662   8.622481   1.113109   4.923904   4.914638
                   11         12         13         14         15
    11  H    0.000000
    12  H    1.752703   0.000000
    13  H    3.055304   2.581134   0.000000
    14  H    2.539748   3.142263   1.741835   0.000000
    15  H    2.504941   3.061430   4.743698   4.370800   0.000000
    16  H    3.061849   2.516055   4.456975   4.749502   1.752199
    17  H    4.433472   4.766699   3.072495   2.544721   5.124799
    18  H    4.763378   4.437145   2.521894   3.073663   5.490390
    19  H    3.780002   3.787862   6.225166   6.192694   2.492556
    20  H    2.594089   3.128269   5.424365   5.132869   2.526537
    21  H    3.152817   2.608656   5.188747   5.475679   3.075257
    22  H    6.217738   6.263527   3.827863   3.808896   7.412596
                   16         17         18         19         20
    16  H    0.000000
    17  H    5.413546   0.000000
    18  H    5.208225   1.738575   0.000000
    19  H    2.503031   7.402171   7.468790   0.000000
    20  H    3.076603   6.808194   7.056600   1.767825   0.000000
    21  H    2.519633   7.038289   6.846726   1.767925   1.766697
    22  H    7.451319   2.494948   2.481281   9.495263   8.761009
                   21         22
    21  H    0.000000
    22  H    8.806010   0.000000
 Stoichiometry    C7H14O
 Framework group  C1[X(C7H14O)]
 Deg. of freedom    60
 Full point group                 C1      NOp   1
 RotChk:  IX=0 Diff= 9.31D-02
 Largest Abelian subgroup         C1      NOp   1
 Largest concise Abelian subgroup C1      NOp   1
                         Standard orientation:                         
 ---------------------------------------------------------------------
 Center     Atomic      Atomic             Coordinates (Angstroms)
 Number     Number       Type             X           Y           Z
 ---------------------------------------------------------------------
      1          8           0       -3.614986   -1.092075   -0.058945
      2          6           0        0.411466    0.624976    0.001168
      3          6           0        1.626153   -0.303941    0.060084
      4          6           0       -0.921976   -0.121555    0.054652
      5          6           0        2.967640    0.422195   -0.066473
      6          6           0       -2.133539    0.803230    0.010933
      7          6           0        4.171824   -0.517603   -0.004133
      8          6           0       -3.467543    0.102688    0.009323
      9          1           0        0.465412    1.342269    0.829132
     10          1           0        0.457196    1.220823   -0.918087
     11          1           0        1.545322   -1.051203   -0.740099
     12          1           0        1.605306   -0.866744    1.001838
     13          1           0       -0.971905   -0.730329    0.961516
     14          1           0       -0.984309   -0.827858   -0.777542
     15          1           0        2.989291    0.977528   -1.012014
     16          1           0        3.050822    1.174343    0.728008
     17          1           0       -2.111788    1.451271   -0.877372
     18          1           0       -2.145561    1.499518    0.860205
     19          1           0        5.112448    0.030711   -0.112806
     20          1           0        4.129666   -1.267192   -0.801857
     21          1           0        4.206760   -1.053437    0.950166
     22          1           0       -4.352918    0.776951   -0.012852
 ---------------------------------------------------------------------
 Rotational constants (GHZ):           7.8940982           0.5678384           0.5404915
 Leave Link  202 at Wed Feb  7 19:30:44 2024, MaxMem=  6710886400 cpu:               0.1 elap:               0.0
 (Enter /tmpu/scunam/7/gaussian-2016.03/g1/g16/l301.exe)
 Standard basis: def2TZVP (5D, 7F)
 Ernie: Thresh=  0.10000D-02 Tol=  0.10000D-05 Strict=F.
 There are   372 symmetry adapted cartesian basis functions of A   symmetry.
 There are   332 symmetry adapted basis functions of A   symmetry.
   332 basis functions,   520 primitive gaussians,   372 cartesian basis functions
    32 alpha electrons       32 beta electrons
       nuclear repulsion energy       359.9940671980 Hartrees.
 IExCor=  402 DFT=T Ex+Corr=B3LYP ExCW=0 ScaHFX=  0.200000
 ScaDFX=  0.800000  0.720000  1.000000  0.810000 ScalE2=  1.000000  1.000000
 IRadAn=      5 IRanWt=     -1 IRanGd=            0 ICorTp=0 IEmpDi=  4
 NAtoms=   22 NActive=   22 NUniq=   22 SFac= 1.00D+00 NAtFMM=   60 NAOKFM=F Big=F
 Integral buffers will be    131072 words long.
 Raffenetti 2 integral format.
 Two-electron integral symmetry is turned on.
 Leave Link  301 at Wed Feb  7 19:30:44 2024, MaxMem=  6710886400 cpu:               0.7 elap:               0.1
 (Enter /tmpu/scunam/7/gaussian-2016.03/g1/g16/l302.exe)
 NPDir=0 NMtPBC=     1 NCelOv=     1 NCel=       1 NClECP=     1 NCelD=      1
         NCelK=      1 NCelE2=     1 NClLst=     1 CellRange=     0.0.
 One-electron integrals computed using PRISM.
 One-electron integral symmetry used in STVInt
   1 Symmetry operations used in ECPInt.
 ECPInt:  NShTT=   10440 NPrTT=   30108 LenC2=    9712 LenP2D=   21939.
 LDataN:  DoStor=T MaxTD1= 6 Len=  172
 NBasis=   332 RedAO= T EigKep=  8.46D-05  NBF=   332
 NBsUse=   332 1.00D-06 EigRej= -1.00D+00 NBFU=   332
 Precomputing XC quadrature grid using
 IXCGrd= 4 IRadAn=           5 IRanWt=          -1 IRanGd=           0 AccXCQ= 0.00D+00.
 Generated NRdTot=       0 NPtTot=           0 NUsed=           0 NTot=          32
 NSgBfM=   367   367   367   367   367 MxSgAt=    22 MxSgA2=    22.
 Leave Link  302 at Wed Feb  7 19:30:45 2024, MaxMem=  6710886400 cpu:               5.1 elap:               0.3
 (Enter /tmpu/scunam/7/gaussian-2016.03/g1/g16/l303.exe)
 DipDrv:  MaxL=1.
 Leave Link  303 at Wed Feb  7 19:30:45 2024, MaxMem=  6710886400 cpu:               0.7 elap:               0.1
 (Enter /tmpu/scunam/7/gaussian-2016.03/g1/g16/l401.exe)
 Initial guess from the checkpoint file:  "Heptanal.chk"
 B after Tr=    -0.000000    0.000000   -0.000000
         Rot=    0.999864    0.016503   -0.000308   -0.000470 Ang=   1.89 deg.
 Guess basis will be translated and rotated to current coordinates.
 JPrj=2 DoOrth=T DoCkMO=T.
 Generating alternative initial guess.
 ExpMin= 9.52D-02 ExpMax= 2.70D+04 ExpMxC= 9.22D+02 IAcc=2 IRadAn=         4 AccDes= 0.00D+00
 Harris functional with IExCor=  402 and IRadAn=       4 diagonalized for initial guess.
 HarFok:  IExCor=  402 AccDes= 0.00D+00 IRadAn=         4 IDoV= 1 UseB2=F ITyADJ=14
 ICtDFT=  3500011 ScaDFX=  1.000000  1.000000  1.000000  1.000000
 FoFCou: FMM=F IPFlag=           0 FMFlag=      100000 FMFlg1=           0
         NFxFlg=           0 DoJE=T BraDBF=F KetDBF=T FulRan=T
         wScrn=  0.000000 ICntrl=       500 IOpCl=  0 I1Cent=   200000004 NGrid=           0
         NMat0=    1 NMatS0=      1 NMatT0=    0 NMatD0=    1 NMtDS0=    0 NMtDT0=    0
 Petite list used in FoFCou.
 Harris En= -350.629649513275    
 Leave Link  401 at Wed Feb  7 19:30:46 2024, MaxMem=  6710886400 cpu:              13.5 elap:               0.9
 (Enter /tmpu/scunam/7/gaussian-2016.03/g1/g16/l502.exe)
 Integral symmetry usage will be decided dynamically.
 Closed shell SCF:
 Using DIIS extrapolation, IDIIS=  1040.
 NGot=  6710886400 LenX=  6710600118 LenY=  6710461293
 Requested convergence on RMS density matrix=1.00D-08 within 128 cycles.
 Requested convergence on MAX density matrix=1.00D-06.
 Requested convergence on             energy=1.00D-06.
 No special actions if energy rises.
 Fock matrices will be formed incrementally for  20 cycles.
 Integral accuracy reduced to 1.0D-05 until final iterations.

 Cycle   1  Pass 0  IDiag  1:
 FoFJK:  IHMeth= 1 ICntrl=       0 DoSepK=F KAlg= 0 I1Cent=           0 FoldK=F
 IRaf= 890000000 NMat=       1 IRICut=       1 DoRegI=T DoRafI=F ISym2E= 0 IDoP0=0 IntGTp=1.
 FoFCou: FMM=F IPFlag=           0 FMFlag=      100000 FMFlg1=           0
         NFxFlg=           0 DoJE=F BraDBF=F KetDBF=F FulRan=T
         wScrn=  0.000000 ICntrl=         0 IOpCl=  0 I1Cent=           0 NGrid=           0
         NMat0=    1 NMatS0=      1 NMatT0=    0 NMatD0=    1 NMtDS0=    0 NMtDT0=    0
 Symmetry not used in FoFCou.
 E= -350.529795460157    
 DIIS: error= 4.67D-03 at cycle   1 NSaved=   1.
 NSaved= 1 IEnMin= 1 EnMin= -350.529795460157     IErMin= 1 ErrMin= 4.67D-03
 ErrMax= 4.67D-03  0.00D+00 EMaxC= 1.00D-01 BMatC= 6.65D-03 BMatP= 6.65D-03
 IDIUse=3 WtCom= 9.53D-01 WtEn= 4.67D-02
 Coeff-Com:  0.100D+01
 Coeff-En:   0.100D+01
 Coeff:      0.100D+01
 Gap=     0.648 Goal=   None    Shift=    0.000
 GapD=    0.648 DampG=2.000 DampE=1.000 DampFc=2.0000 IDamp=-1.
 RMSDP=2.69D-04 MaxDP=1.21D-02              OVMax= 2.73D-02

 Cycle   2  Pass 0  IDiag  1:
 RMSU=  2.69D-04    CP:  9.98D-01
 E= -350.539209825408     Delta-E=       -0.009414365251 Rises=F Damp=F
 DIIS: error= 5.33D-04 at cycle   2 NSaved=   2.
 NSaved= 2 IEnMin= 2 EnMin= -350.539209825408     IErMin= 2 ErrMin= 5.33D-04
 ErrMax= 5.33D-04  0.00D+00 EMaxC= 1.00D-01 BMatC= 8.56D-05 BMatP= 6.65D-03
 IDIUse=3 WtCom= 9.95D-01 WtEn= 5.33D-03
 Coeff-Com: -0.644D-01 0.106D+01
 Coeff-En:   0.000D+00 0.100D+01
 Coeff:     -0.640D-01 0.106D+01
 Gap=     0.231 Goal=   None    Shift=    0.000
 RMSDP=4.76D-05 MaxDP=3.53D-03 DE=-9.41D-03 OVMax= 3.28D-03

 Cycle   3  Pass 0  IDiag  1:
 RMSU=  4.36D-05    CP:  9.97D-01  1.07D+00
 E= -350.539311858636     Delta-E=       -0.000102033229 Rises=F Damp=F
 DIIS: error= 2.55D-04 at cycle   3 NSaved=   3.
 NSaved= 3 IEnMin= 3 EnMin= -350.539311858636     IErMin= 3 ErrMin= 2.55D-04
 ErrMax= 2.55D-04  0.00D+00 EMaxC= 1.00D-01 BMatC= 3.03D-05 BMatP= 8.56D-05
 IDIUse=3 WtCom= 9.97D-01 WtEn= 2.55D-03
 Coeff-Com: -0.291D-01 0.420D+00 0.609D+00
 Coeff-En:   0.000D+00 0.000D+00 0.100D+01
 Coeff:     -0.290D-01 0.419D+00 0.610D+00
 Gap=     0.230 Goal=   None    Shift=    0.000
 RMSDP=3.30D-05 MaxDP=4.45D-03 DE=-1.02D-04 OVMax= 2.21D-03

 Cycle   4  Pass 0  IDiag  1:
 RMSU=  2.46D-05    CP:  9.98D-01  1.07D+00  5.16D-01
 E= -350.539321094894     Delta-E=       -0.000009236257 Rises=F Damp=F
 DIIS: error= 2.37D-04 at cycle   4 NSaved=   4.
 NSaved= 4 IEnMin= 4 EnMin= -350.539321094894     IErMin= 4 ErrMin= 2.37D-04
 ErrMax= 2.37D-04  0.00D+00 EMaxC= 1.00D-01 BMatC= 2.07D-05 BMatP= 3.03D-05
 IDIUse=3 WtCom= 9.98D-01 WtEn= 2.37D-03
 Coeff-Com: -0.108D-01 0.147D+00 0.441D+00 0.423D+00
 Coeff-En:   0.000D+00 0.000D+00 0.398D+00 0.602D+00
 Coeff:     -0.108D-01 0.146D+00 0.441D+00 0.423D+00
 Gap=     0.230 Goal=   None    Shift=    0.000
 RMSDP=1.74D-05 MaxDP=2.47D-03 DE=-9.24D-06 OVMax= 1.27D-03

 Cycle   5  Pass 0  IDiag  1:
 RMSU=  5.55D-06    CP:  9.97D-01  1.08D+00  6.94D-01  4.38D-01
 E= -350.539335739087     Delta-E=       -0.000014644193 Rises=F Damp=F
 DIIS: error= 2.93D-05 at cycle   5 NSaved=   5.
 NSaved= 5 IEnMin= 5 EnMin= -350.539335739087     IErMin= 5 ErrMin= 2.93D-05
 ErrMax= 2.93D-05  0.00D+00 EMaxC= 1.00D-01 BMatC= 4.37D-07 BMatP= 2.07D-05
 IDIUse=1 WtCom= 1.00D+00 WtEn= 0.00D+00
 Coeff-Com: -0.653D-03 0.408D-03 0.107D+00 0.172D+00 0.721D+00
 Coeff:     -0.653D-03 0.408D-03 0.107D+00 0.172D+00 0.721D+00
 Gap=     0.230 Goal=   None    Shift=    0.000
 RMSDP=2.32D-06 MaxDP=1.60D-04 DE=-1.46D-05 OVMax= 1.47D-04

 Initial convergence to 1.0D-05 achieved.  Increase integral accuracy.
 Cycle   6  Pass 1  IDiag  1:
 E= -350.539317302423     Delta-E=        0.000018436664 Rises=F Damp=F
 DIIS: error= 1.29D-04 at cycle   1 NSaved=   1.
 NSaved= 1 IEnMin= 1 EnMin= -350.539317302423     IErMin= 1 ErrMin= 1.29D-04
 ErrMax= 1.29D-04  0.00D+00 EMaxC= 1.00D-01 BMatC= 1.30D-06 BMatP= 1.30D-06
 IDIUse=3 WtCom= 9.99D-01 WtEn= 1.29D-03
 Coeff-Com:  0.100D+01
 Coeff-En:   0.100D+01
 Coeff:      0.100D+01
 Gap=     0.230 Goal=   None    Shift=    0.000
 RMSDP=2.32D-06 MaxDP=1.60D-04 DE= 1.84D-05 OVMax= 3.01D-04

 Cycle   7  Pass 1  IDiag  1:
 RMSU=  6.51D-05    CP:  1.00D+00
 E= -350.539318093710     Delta-E=       -0.000000791287 Rises=F Damp=F
 DIIS: error= 1.62D-05 at cycle   2 NSaved=   2.
 NSaved= 2 IEnMin= 2 EnMin= -350.539318093710     IErMin= 2 ErrMin= 1.62D-05
 ErrMax= 1.62D-05  0.00D+00 EMaxC= 1.00D-01 BMatC= 9.91D-08 BMatP= 1.30D-06
 IDIUse=1 WtCom= 1.00D+00 WtEn= 0.00D+00
 Coeff-Com:  0.109D+00 0.891D+00
 Coeff:      0.109D+00 0.891D+00
 Gap=     0.230 Goal=   None    Shift=    0.000
 RMSDP=1.87D-06 MaxDP=1.13D-04 DE=-7.91D-07 OVMax= 1.06D-04

 Cycle   8  Pass 1  IDiag  1:
 RMSU=  1.62D-06    CP:  1.00D+00  1.01D+00
 E= -350.539318068098     Delta-E=        0.000000025612 Rises=F Damp=F
 DIIS: error= 1.69D-05 at cycle   3 NSaved=   3.
 NSaved= 3 IEnMin= 2 EnMin= -350.539318093710     IErMin= 2 ErrMin= 1.62D-05
 ErrMax= 1.69D-05  0.00D+00 EMaxC= 1.00D-01 BMatC= 1.33D-07 BMatP= 9.91D-08
 IDIUse=1 WtCom= 1.00D+00 WtEn= 0.00D+00
 Coeff-Com:  0.536D-03 0.538D+00 0.462D+00
 Coeff:      0.536D-03 0.538D+00 0.462D+00
 Gap=     0.230 Goal=   None    Shift=    0.000
 RMSDP=1.06D-06 MaxDP=1.20D-04 DE= 2.56D-08 OVMax= 7.93D-05

 Cycle   9  Pass 1  IDiag  1:
 RMSU=  4.85D-07    CP:  1.00D+00  1.02D+00  4.32D-01
 E= -350.539318184956     Delta-E=       -0.000000116858 Rises=F Damp=F
 DIIS: error= 4.39D-06 at cycle   4 NSaved=   4.
 NSaved= 4 IEnMin= 4 EnMin= -350.539318184956     IErMin= 4 ErrMin= 4.39D-06
 ErrMax= 4.39D-06  0.00D+00 EMaxC= 1.00D-01 BMatC= 7.96D-09 BMatP= 9.91D-08
 IDIUse=1 WtCom= 1.00D+00 WtEn= 0.00D+00
 Coeff-Com: -0.242D-02 0.345D+00 0.315D+00 0.342D+00
 Coeff:     -0.242D-02 0.345D+00 0.315D+00 0.342D+00
 Gap=     0.230 Goal=   None    Shift=    0.000
 RMSDP=3.36D-07 MaxDP=4.70D-05 DE=-1.17D-07 OVMax= 2.23D-05

 Cycle  10  Pass 1  IDiag  1:
 RMSU=  1.57D-07    CP:  1.00D+00  1.02D+00  5.01D-01  4.52D-01
 E= -350.539318190814     Delta-E=       -0.000000005858 Rises=F Damp=F
 DIIS: error= 3.14D-07 at cycle   5 NSaved=   5.
 NSaved= 5 IEnMin= 5 EnMin= -350.539318190814     IErMin= 5 ErrMin= 3.14D-07
 ErrMax= 3.14D-07  0.00D+00 EMaxC= 1.00D-01 BMatC= 4.70D-11 BMatP= 7.96D-09
 IDIUse=1 WtCom= 1.00D+00 WtEn= 0.00D+00
 Coeff-Com: -0.111D-02 0.135D+00 0.125D+00 0.152D+00 0.589D+00
 Coeff:     -0.111D-02 0.135D+00 0.125D+00 0.152D+00 0.589D+00
 Gap=     0.230 Goal=   None    Shift=    0.000
 RMSDP=2.52D-08 MaxDP=9.65D-07 DE=-5.86D-09 OVMax= 1.97D-06

 Cycle  11  Pass 1  IDiag  1:
 RMSU=  2.43D-08    CP:  1.00D+00  1.02D+00  5.01D-01  4.54D-01  1.03D+00
 E= -350.539318190864     Delta-E=       -0.000000000050 Rises=F Damp=F
 DIIS: error= 7.45D-08 at cycle   6 NSaved=   6.
 NSaved= 6 IEnMin= 6 EnMin= -350.539318190864     IErMin= 6 ErrMin= 7.45D-08
 ErrMax= 7.45D-08  0.00D+00 EMaxC= 1.00D-01 BMatC= 3.45D-12 BMatP= 4.70D-11
 IDIUse=1 WtCom= 1.00D+00 WtEn= 0.00D+00
 Coeff-Com: -0.142D-03 0.112D-01 0.105D-01 0.169D-01 0.202D+00 0.759D+00
 Coeff:     -0.142D-03 0.112D-01 0.105D-01 0.169D-01 0.202D+00 0.759D+00
 Gap=     0.230 Goal=   None    Shift=    0.000
 RMSDP=8.64D-09 MaxDP=3.31D-07 DE=-5.04D-11 OVMax= 1.42D-06

 SCF Done:  E(RB3LYP) =  -350.539318191     A.U. after   11 cycles
            NFock= 11  Conv=0.86D-08     -V/T= 2.0055
 KE= 3.486333452238D+02 PE=-1.534584856333D+03 EE= 4.754181257205D+02
 Leave Link  502 at Wed Feb  7 19:31:18 2024, MaxMem=  6710886400 cpu:             513.4 elap:              32.1
 (Enter /tmpu/scunam/7/gaussian-2016.03/g1/g16/l508.exe)
 QCSCF skips out because SCF is already converged.
 Leave Link  508 at Wed Feb  7 19:31:18 2024, MaxMem=  6710886400 cpu:               0.0 elap:               0.0
 (Enter /tmpu/scunam/7/gaussian-2016.03/g1/g16/l701.exe)
 ... and contract with generalized density number  0.
 Compute integral first derivatives.
   1 Symmetry operations used in ECPInt.
 ECPInt:  NShTT=   10440 NPrTT=   30108 LenC2=    9712 LenP2D=   21939.
 LDataN:  DoStor=T MaxTD1= 7 Len=  274
 Leave Link  701 at Wed Feb  7 19:31:18 2024, MaxMem=  6710886400 cpu:               3.4 elap:               0.2
 (Enter /tmpu/scunam/7/gaussian-2016.03/g1/g16/l702.exe)
 L702 exits ... SP integral derivatives will be done elsewhere.
 Leave Link  702 at Wed Feb  7 19:31:18 2024, MaxMem=  6710886400 cpu:               0.3 elap:               0.0
 (Enter /tmpu/scunam/7/gaussian-2016.03/g1/g16/l703.exe)
 Integral derivatives from FoFJK, PRISM(SPDF).
 Compute integral first derivatives, UseDBF=F ICtDFT=           0.
 Calling FoFJK, ICntrl=      2127 FMM=F ISym2X=0 I1Cent= 0 IOpClX= 0 NMat=1 NMatS=1 NMatT=0.
 FoFJK:  IHMeth= 1 ICntrl=    2127 DoSepK=F KAlg= 0 I1Cent=           0 FoldK=F
 IRaf=         0 NMat=       1 IRICut=       1 DoRegI=T DoRafI=F ISym2E= 0 IDoP0=0 IntGTp=1.
 FoFCou: FMM=F IPFlag=           0 FMFlag=      100000 FMFlg1=         800
         NFxFlg=           0 DoJE=F BraDBF=F KetDBF=F FulRan=T
         wScrn=  0.000000 ICntrl=      2127 IOpCl=  0 I1Cent=           0 NGrid=           0
         NMat0=    1 NMatS0=      1 NMatT0=    0 NMatD0=    1 NMtDS0=    0 NMtDT0=    0
 Symmetry not used in FoFCou.
 Leave Link  703 at Wed Feb  7 19:31:29 2024, MaxMem=  6710886400 cpu:             176.7 elap:              11.1
 (Enter /tmpu/scunam/7/gaussian-2016.03/g1/g16/l716.exe)
 Dipole        = 4.29186124D-01 9.79180763D-01 3.49130567D-02
 ***** Axes restored to original set *****
 -------------------------------------------------------------------
 Center     Atomic                   Forces (Hartrees/Bohr)
 Number     Number              X              Y              Z
 -------------------------------------------------------------------
      1        8           0.000724698   -0.002424651    0.003964893
      2        6          -0.000360362   -0.000169481    0.000396332
      3        6           0.000024612    0.000458610   -0.000576727
      4        6           0.000180573   -0.000158170   -0.000177753
      5        6           0.000021832   -0.000589152    0.000184180
      6        6           0.000484241   -0.000193707    0.003770106
      7        6          -0.000519023    0.000597435   -0.000118588
      8        6          -0.000680814    0.002363027   -0.011295744
      9        1           0.000041501    0.000136266   -0.000268050
     10        1          -0.000035370    0.000078250   -0.000016260
     11        1          -0.000242670   -0.000658174    0.000838122
     12        1          -0.000082917   -0.000424728   -0.000737641
     13        1          -0.000095045    0.000064046    0.000136654
     14        1           0.000017054   -0.000136103    0.000100739
     15        1           0.000233215    0.000506549    0.000802053
     16        1           0.000263159    0.000809412   -0.000822690
     17        1           0.000912814    0.000703242    0.000367053
     18        1          -0.001265442   -0.000401823   -0.000090862
     19        1           0.001320781    0.000799900    0.000207163
     20        1          -0.000129998   -0.001082244    0.001214649
     21        1          -0.000023902   -0.000682718   -0.001194995
     22        1          -0.000788935    0.000404216    0.003317366
 -------------------------------------------------------------------
 Cartesian Forces:  Max     0.011295744 RMS     0.001734994
 Leave Link  716 at Wed Feb  7 19:31:29 2024, MaxMem=  6710886400 cpu:               0.3 elap:               0.0
 (Enter /tmpu/scunam/7/gaussian-2016.03/g1/g16/l103.exe)

 GradGradGradGradGradGradGradGradGradGradGradGradGradGradGradGradGradGrad
 Berny optimization.
 Search for a local minimum.
 Step number   6 out of a maximum of  132
 All quantities printed in internal units (Hartrees-Bohrs-Radians)
 Update second derivatives using D2CorN and points    2    3    4    5
 ITU=  0  0  1  1  1  0
     Eigenvalues ---   -0.00289   0.00066   0.00181   0.00244   0.00259
     Eigenvalues ---    0.00533   0.00639   0.00874   0.01426   0.02049
     Eigenvalues ---    0.02409   0.03220   0.03452   0.03962   0.04635
     Eigenvalues ---    0.04709   0.05238   0.05295   0.05624   0.05787
     Eigenvalues ---    0.06135   0.06396   0.06881   0.07944   0.07985
     Eigenvalues ---    0.08537   0.09605   0.09906   0.11732   0.13040
     Eigenvalues ---    0.13066   0.13867   0.15031   0.15977   0.17478
     Eigenvalues ---    0.17843   0.18064   0.20597   0.21428   0.24835
     Eigenvalues ---    0.27354   0.39137   0.52189   0.58118   0.61978
     Eigenvalues ---    0.68970   0.69504   0.78083   0.87056   0.87804
     Eigenvalues ---    0.92804   0.92977   0.95634   0.98932   0.99671
     Eigenvalues ---    1.02398   1.04717   1.08378   1.12848   2.06050
 Eigenvalue     1 is  -2.89D-03 should be greater than     0.000000 Eigenvector:
                          Z1        Z19       Z11       Z12       Z16
   1                    0.37018   0.36348  -0.27947  -0.26797   0.23204
                          Z15       Y20       Z3        Y21       Y15
   1                    0.21639  -0.19212  -0.16908   0.15757  -0.15725
 RFO step:  Lambda=-3.79564345D-03 EMin=-2.88672626D-03
 Skip linear search -- no minimum in search direction.
 Maximum step size (   0.706) exceeded in Quadratic search.
    -- Step size scaled by   0.703
 B after Tr=     0.001905   -0.000582    0.018085
         Rot=    0.999969   -0.007434    0.002503    0.000184 Ang=  -0.90 deg.
 Variable       Old X    -DE/DX   Delta X   Delta X   Delta X     New X
                                 (Linear)    (Quad)   (Total)
    X1        6.66435   0.00072   0.00000   0.03478   0.03700   6.70135
    Y1        1.93899  -0.00242   0.00000  -0.01499  -0.01919   1.91980
    Z1       -0.23338   0.00396   0.00000   0.27943   0.35964   0.12626
    X2       -0.99156  -0.00036   0.00000  -0.00221  -0.00032  -0.99188
    Y2       -1.18397  -0.00017   0.00000   0.01791   0.01892  -1.16506
    Z2        0.03276   0.00040   0.00000  -0.10415  -0.10836  -0.07560
    X3       -3.25978   0.00002   0.00000   0.00004   0.00232  -3.25746
    Y3        0.60887   0.00046   0.00000   0.01598   0.01703   0.62589
    Z3        0.09347  -0.00058   0.00000  -0.11864  -0.10757  -0.01411
    X4        1.54966   0.00018   0.00000  -0.00160   0.00039   1.55005
    Y4        0.19107  -0.00016   0.00000   0.01451   0.01340   0.20448
    Z4        0.07135  -0.00018   0.00000  -0.07993  -0.05104   0.02031
    X5       -5.81637   0.00002   0.00000   0.00699   0.00878  -5.80760
    Y5       -0.73230  -0.00059   0.00000  -0.00410  -0.00210  -0.73440
    Z5       -0.08441   0.00018   0.00000   0.07470   0.05277  -0.03164
    X6        3.81225   0.00048   0.00000  -0.01142  -0.01002   3.80222
    Y6       -1.59287  -0.00019   0.00000   0.00646   0.00469  -1.58818
    Z6        0.03910   0.00377   0.00000  -0.05110  -0.03759   0.00151
    X7       -8.06441  -0.00052   0.00000  -0.00055   0.00154  -8.06286
    Y7        1.08102   0.00060   0.00000  -0.01879  -0.01701   1.06401
    Z7       -0.01806  -0.00012   0.00000   0.07119   0.06471   0.04664
    X8        6.35265  -0.00068   0.00000  -0.00683  -0.00492   6.34772
    Y8       -0.30835   0.00236   0.00000  -0.01317  -0.01573  -0.32408
    Z8       -0.02330  -0.01130   0.00000  -0.01406   0.03100   0.00770
    X9       -1.10515   0.00004   0.00000  -0.01206  -0.01867  -1.12382
    Y9       -2.48176   0.00014   0.00000   0.02064  -0.00212  -2.48389
    Z9        1.64479  -0.00027   0.00000  -0.10424  -0.12853   1.51626
   X10       -1.10442  -0.00004   0.00000   0.00744   0.01743  -1.08699
   Y10       -2.36906   0.00008   0.00000   0.01627   0.04266  -2.32640
   Z10       -1.66306  -0.00002   0.00000  -0.10369  -0.12586  -1.78893
   X11       -3.09425  -0.00024   0.00000  -0.07476  -0.06387  -3.15811
   Y11        1.96433  -0.00066   0.00000  -0.07264  -0.04745   1.91688
   Z11       -1.46835   0.00084   0.00000  -0.19274  -0.16218  -1.63053
   X12       -3.19462  -0.00008   0.00000   0.06448   0.05879  -3.13583
   Y12        1.73376  -0.00042   0.00000   0.10866   0.08467   1.81844
   Z12        1.83422  -0.00074   0.00000  -0.18816  -0.15855   1.67567
   X13        1.67070  -0.00010   0.00000  -0.01899  -0.02499   1.64571
   Y13        1.39962   0.00006   0.00000   0.01221  -0.01397   1.38565
   Z13        1.74287   0.00014   0.00000  -0.07669  -0.02955   1.71332
   X14        1.67874   0.00002   0.00000   0.02118   0.03170   1.71044
   Y14        1.46759  -0.00014   0.00000   0.01357   0.03631   1.50390
   Z14       -1.54801   0.00010   0.00000  -0.07813  -0.02931  -1.57732
   X15       -5.88287   0.00023   0.00000  -0.06077  -0.05102  -5.93389
   Y15       -1.84332   0.00051   0.00000  -0.10825  -0.08122  -1.92454
   Z15       -1.83281   0.00080   0.00000   0.15218   0.11172  -1.72109
   X16       -5.98654   0.00026   0.00000   0.09380   0.08697  -5.89958
   Y16       -2.09730   0.00081   0.00000   0.09641   0.07425  -2.02306
   Z16        1.46699  -0.00082   0.00000   0.16015   0.11879   1.58578
   X17        3.74353   0.00091   0.00000   0.03403   0.04330   3.78683
   Y17       -2.87513   0.00070   0.00000   0.03709   0.06006  -2.81507
   Z17       -1.59502   0.00037   0.00000  -0.07109  -0.07610  -1.67112
   X18        3.82412  -0.00127   0.00000  -0.07544  -0.08262   3.74150
   Y18       -2.85147  -0.00040   0.00000  -0.02323  -0.04902  -2.90048
   Z18        1.68934  -0.00009   0.00000  -0.07523  -0.08133   1.60800
   X19       -9.85836   0.00132   0.00000   0.00788   0.00953  -9.84883
   Y19        0.06534   0.00080   0.00000  -0.03688  -0.03465   0.03069
   Z19       -0.17781   0.00021   0.00000   0.25659   0.22579   0.04798
   X20       -7.97186  -0.00013   0.00000  -0.10897  -0.09818  -8.07004
   Y20        2.44215  -0.00108   0.00000  -0.14192  -0.11569   2.32646
   Z20       -1.57502   0.00121   0.00000  -0.02533  -0.01328  -1.58830
   X21       -8.10529  -0.00002   0.00000   0.09222   0.08631  -8.01898
   Y21        2.15742  -0.00068   0.00000   0.10790   0.08457   2.24199
   Z21        1.74871  -0.00119   0.00000  -0.01706  -0.00560   1.74311
   X22        8.00623  -0.00079   0.00000  -0.03025  -0.02943   7.97680
   Y22       -1.60844   0.00040   0.00000  -0.03347  -0.03842  -1.64685
   Z22       -0.02851   0.00332   0.00000   0.11687   0.15044   0.12193
         Item               Value     Threshold  Converged?
 Maximum Force            0.011296     0.000450     NO 
 RMS     Force            0.001735     0.000300     NO 
 Maximum Displacement     0.359638     0.001800     NO 
 RMS     Displacement     0.084128     0.001200     NO 
 Predicted change in Energy=-1.942763D-03
 GradGradGradGradGradGradGradGradGradGradGradGradGradGradGradGradGradGrad

 Leave Link  103 at Wed Feb  7 19:31:29 2024, MaxMem=  6710886400 cpu:               0.3 elap:               0.0
 (Enter /tmpu/scunam/7/gaussian-2016.03/g1/g16/l202.exe)
                          Input orientation:                          
 ---------------------------------------------------------------------
 Center     Atomic      Atomic             Coordinates (Angstroms)
 Number     Number       Type             X           Y           Z
 ---------------------------------------------------------------------
      1          8           0        3.546203    1.015914    0.066815
      2          6           0       -0.524879   -0.616522   -0.040007
      3          6           0       -1.723773    0.331209   -0.007465
      4          6           0        0.820250    0.108204    0.010749
      5          6           0       -3.073247   -0.388628   -0.016745
      6          6           0        2.012051   -0.840428    0.000800
      7          6           0       -4.266683    0.563049    0.024683
      8          6           0        3.359070   -0.171495    0.004075
      9          1           0       -0.594699   -1.314416    0.802370
     10          1           0       -0.575212   -1.231078   -0.946659
     11          1           0       -1.671201    1.014367   -0.862837
     12          1           0       -1.659412    0.962275    0.886728
     13          1           0        0.870871    0.733252    0.906649
     14          1           0        0.905125    0.795831   -0.834683
     15          1           0       -3.140082   -1.018421   -0.910762
     16          1           0       -3.121922   -1.070555    0.839159
     17          1           0        2.003904   -1.489673   -0.884318
     18          1           0        1.979916   -1.534869    0.850919
     19          1           0       -5.211777    0.016240    0.025390
     20          1           0       -4.270479    1.231110   -0.840494
     21          1           0       -4.243462    1.186412    0.922412
     22          1           0        4.221138   -0.871477    0.064523
 ---------------------------------------------------------------------
                    Distance matrix (angstroms):
                    1          2          3          4          5
     1  O    0.000000
     2  C    4.387478   0.000000
     3  C    5.314789   1.528593   0.000000
     4  C    2.873655   1.528783   2.553844   0.000000
     5  C    6.767336   2.558643   1.529488   3.925165   0.000000
     6  C    2.409146   2.547119   3.915250   1.523283   5.105359
     7  C    7.826113   3.923859   2.553659   5.107247   1.526988
     8  C    1.203701   3.909611   5.107655   2.554189   6.436015
     9  H    4.808175   1.096143   2.153770   2.156987   2.769700
    10  H    4.802308   1.096463   2.154534   2.158152   2.795468
    11  H    5.299581   2.156595   1.095961   2.791346   2.156386
    12  H    5.270062   2.153741   1.096343   2.765050   2.154097
    13  H    2.818265   2.160131   2.780183   1.093565   4.203253
    14  H    2.799361   2.161288   2.794865   1.093064   4.230770
    15  H    7.056952   2.785502   2.154850   4.219324   1.095615
    16  H    7.029491   2.779156   2.153261   4.197196   1.095429
    17  H    3.092136   2.805352   4.240290   2.180686   5.267110
    18  H    3.094279   2.812669   4.235136   2.179541   5.253681
    19  H    8.814946   4.729871   3.502351   6.032746   2.176925
    20  H    7.872105   4.252533   2.826565   5.282145   2.176115
    21  H    7.838366   4.243191   2.818666   5.256885   2.175355
    22  H    2.004442   4.754010   6.065773   3.539591   7.310801
                    6          7          8          9         10
     6  C    0.000000
     7  C    6.433725   0.000000
     8  C    1.503976   7.661076   0.000000
     9  H    2.768090   4.196801   4.192354   0.000000
    10  H    2.782843   4.217742   4.183921   1.751122   0.000000
    11  H    4.213369   2.779911   5.240366   3.058595   2.500049
    12  H    4.185002   2.774954   5.220122   2.514767   3.057384
    13  H    2.144603   5.215486   2.797203   2.520261   3.063413
    14  H    2.144915   5.247885   2.767866   3.063096   2.512429
    15  H    5.235179   2.155304   6.617642   3.082436   2.573921
    16  H    5.207060   2.154648   6.596130   2.539228   3.114586
    17  H    1.097734   6.660346   2.088854   3.102961   2.592798
    18  H    1.098173   6.641078   2.116128   2.584492   3.138831
    19  H    7.274488   1.091881   8.572930   4.867418   4.898818
    20  H    6.668525   1.093092   7.803244   4.763409   4.441693
    21  H    6.639946   1.093179   7.777258   4.425158   4.774279
    22  H    2.210225   8.608285   1.112110   4.892126   4.914955
                   11         12         13         14         15
    11  H    0.000000
    12  H    1.750379   0.000000
    13  H    3.110022   2.540704   0.000000
    14  H    2.585732   3.093187   1.742792   0.000000
    15  H    2.508413   3.057207   4.739101   4.434073   0.000000
    16  H    3.057495   2.504715   4.381856   4.743654   1.750792
    17  H    4.447143   4.750635   3.071274   2.536396   5.165595
    18  H    4.771396   4.413810   2.525363   3.070601   5.439174
    19  H    3.784294   3.775737   6.187837   6.226073   2.497764
    20  H    2.608394   3.142171   5.452875   5.193879   2.518556
    21  H    3.135799   2.593998   5.134394   5.454162   3.072338
    22  H    6.255883   6.214462   3.809019   3.818957   7.427000
                   16         17         18         19         20
    16  H    0.000000
    17  H    5.424032   0.000000
    18  H    5.122936   1.735992   0.000000
    19  H    2.492156   7.427072   7.403235   0.000000
    20  H    3.072145   6.839040   7.041232   1.764003   0.000000
    21  H    2.521643   7.032445   6.792710   1.763969   1.763680
    22  H    7.386489   2.489697   2.466087   9.474675   8.794742
                   21         22
    21  H    0.000000
    22  H    8.753304   0.000000
 Stoichiometry    C7H14O
 Framework group  C1[X(C7H14O)]
 Deg. of freedom    60
 Full point group                 C1      NOp   1
 RotChk:  IX=2 Diff= 1.03D-01
 Largest Abelian subgroup         C1      NOp   1
 Largest concise Abelian subgroup C1      NOp   1
                         Standard orientation:                         
 ---------------------------------------------------------------------
 Center     Atomic      Atomic             Coordinates (Angstroms)
 Number     Number       Type             X           Y           Z
 ---------------------------------------------------------------------
      1          8           0       -3.632358   -1.080663    0.005567
      2          6           0        0.413911    0.615485   -0.021907
      3          6           0        1.626891   -0.314713   -0.018935
      4          6           0       -0.920273   -0.130717   -0.004243
      5          6           0        2.965325    0.425131    0.004687
      6          6           0       -2.126267    0.799650    0.015429
      7          6           0        4.172872   -0.509422    0.016367
      8          6           0       -3.462993    0.110929   -0.012297
      9          1           0        0.469718    1.282622    0.846047
     10          1           0        0.458608    1.263934   -0.904940
     11          1           0        1.588160   -0.966385   -0.899249
     12          1           0        1.568468   -0.979408    0.850971
     13          1           0       -0.965055   -0.789255    0.867656
     14          1           0       -0.991277   -0.787707   -0.874939
     15          1           0        3.026240    1.088584   -0.865079
     16          1           0        3.000176    1.075494    0.885470
     17          1           0       -2.124364    1.481329   -0.844996
     18          1           0       -2.108119    1.462484    0.890818
     19          1           0        5.109558    0.051097    0.041692
     20          1           0        4.190312   -1.144799   -0.872926
     21          1           0        4.155452   -1.165933    0.890283
     22          1           0       -4.335812    0.795179    0.070040
 ---------------------------------------------------------------------
 Rotational constants (GHZ):           7.9916206           0.5673813           0.5402782
 Leave Link  202 at Wed Feb  7 19:31:29 2024, MaxMem=  6710886400 cpu:               0.1 elap:               0.0
 (Enter /tmpu/scunam/7/gaussian-2016.03/g1/g16/l301.exe)
 Standard basis: def2TZVP (5D, 7F)
 Ernie: Thresh=  0.10000D-02 Tol=  0.10000D-05 Strict=F.
 There are   372 symmetry adapted cartesian basis functions of A   symmetry.
 There are   332 symmetry adapted basis functions of A   symmetry.
   332 basis functions,   520 primitive gaussians,   372 cartesian basis functions
    32 alpha electrons       32 beta electrons
       nuclear repulsion energy       360.2534174645 Hartrees.
 IExCor=  402 DFT=T Ex+Corr=B3LYP ExCW=0 ScaHFX=  0.200000
 ScaDFX=  0.800000  0.720000  1.000000  0.810000 ScalE2=  1.000000  1.000000
 IRadAn=      5 IRanWt=     -1 IRanGd=            0 ICorTp=0 IEmpDi=  4
 NAtoms=   22 NActive=   22 NUniq=   22 SFac= 1.00D+00 NAtFMM=   60 NAOKFM=F Big=F
 Integral buffers will be    131072 words long.
 Raffenetti 2 integral format.
 Two-electron integral symmetry is turned on.
 Leave Link  301 at Wed Feb  7 19:31:29 2024, MaxMem=  6710886400 cpu:               0.7 elap:               0.1
 (Enter /tmpu/scunam/7/gaussian-2016.03/g1/g16/l302.exe)
 NPDir=0 NMtPBC=     1 NCelOv=     1 NCel=       1 NClECP=     1 NCelD=      1
         NCelK=      1 NCelE2=     1 NClLst=     1 CellRange=     0.0.
 One-electron integrals computed using PRISM.
 One-electron integral symmetry used in STVInt
   1 Symmetry operations used in ECPInt.
 ECPInt:  NShTT=   10440 NPrTT=   30108 LenC2=    9711 LenP2D=   21949.
 LDataN:  DoStor=T MaxTD1= 6 Len=  172
 NBasis=   332 RedAO= T EigKep=  8.36D-05  NBF=   332
 NBsUse=   332 1.00D-06 EigRej= -1.00D+00 NBFU=   332
 Precomputing XC quadrature grid using
 IXCGrd= 4 IRadAn=           5 IRanWt=          -1 IRanGd=           0 AccXCQ= 0.00D+00.
 Generated NRdTot=       0 NPtTot=           0 NUsed=           0 NTot=          32
 NSgBfM=   367   367   367   367   367 MxSgAt=    22 MxSgA2=    22.
 Leave Link  302 at Wed Feb  7 19:31:30 2024, MaxMem=  6710886400 cpu:               5.1 elap:               0.3
 (Enter /tmpu/scunam/7/gaussian-2016.03/g1/g16/l303.exe)
 DipDrv:  MaxL=1.
 Leave Link  303 at Wed Feb  7 19:31:30 2024, MaxMem=  6710886400 cpu:               0.7 elap:               0.1
 (Enter /tmpu/scunam/7/gaussian-2016.03/g1/g16/l401.exe)
 Initial guess from the checkpoint file:  "Heptanal.chk"
 B after Tr=     0.000000   -0.000000    0.000000
         Rot=    0.999836   -0.018078    0.000354    0.000375 Ang=  -2.07 deg.
 Guess basis will be translated and rotated to current coordinates.
 JPrj=2 DoOrth=T DoCkMO=T.
 Generating alternative initial guess.
 ExpMin= 9.52D-02 ExpMax= 2.70D+04 ExpMxC= 9.22D+02 IAcc=2 IRadAn=         4 AccDes= 0.00D+00
 Harris functional with IExCor=  402 and IRadAn=       4 diagonalized for initial guess.
 HarFok:  IExCor=  402 AccDes= 0.00D+00 IRadAn=         4 IDoV= 1 UseB2=F ITyADJ=14
 ICtDFT=  3500011 ScaDFX=  1.000000  1.000000  1.000000  1.000000
 FoFCou: FMM=F IPFlag=           0 FMFlag=      100000 FMFlg1=           0
         NFxFlg=           0 DoJE=T BraDBF=F KetDBF=T FulRan=T
         wScrn=  0.000000 ICntrl=       500 IOpCl=  0 I1Cent=   200000004 NGrid=           0
         NMat0=    1 NMatS0=      1 NMatT0=    0 NMatD0=    1 NMtDS0=    0 NMtDT0=    0
 Petite list used in FoFCou.
 Harris En= -350.631064499667    
 Leave Link  401 at Wed Feb  7 19:31:31 2024, MaxMem=  6710886400 cpu:              13.6 elap:               0.9
 (Enter /tmpu/scunam/7/gaussian-2016.03/g1/g16/l502.exe)
 Integral symmetry usage will be decided dynamically.
 Closed shell SCF:
 Using DIIS extrapolation, IDIIS=  1040.
 NGot=  6710886400 LenX=  6710600118 LenY=  6710461293
 Requested convergence on RMS density matrix=1.00D-08 within 128 cycles.
 Requested convergence on MAX density matrix=1.00D-06.
 Requested convergence on             energy=1.00D-06.
 No special actions if energy rises.
 Fock matrices will be formed incrementally for  20 cycles.
 Integral accuracy reduced to 1.0D-05 until final iterations.

 Cycle   1  Pass 0  IDiag  1:
 FoFJK:  IHMeth= 1 ICntrl=       0 DoSepK=F KAlg= 0 I1Cent=           0 FoldK=F
 IRaf= 890000000 NMat=       1 IRICut=       1 DoRegI=T DoRafI=F ISym2E= 0 IDoP0=0 IntGTp=1.
 FoFCou: FMM=F IPFlag=           0 FMFlag=      100000 FMFlg1=           0
         NFxFlg=           0 DoJE=F BraDBF=F KetDBF=F FulRan=T
         wScrn=  0.000000 ICntrl=         0 IOpCl=  0 I1Cent=           0 NGrid=           0
         NMat0=    1 NMatS0=      1 NMatT0=    0 NMatD0=    1 NMtDS0=    0 NMtDT0=    0
 Symmetry not used in FoFCou.
 E= -350.524215898071    
 DIIS: error= 5.30D-03 at cycle   1 NSaved=   1.
 NSaved= 1 IEnMin= 1 EnMin= -350.524215898071     IErMin= 1 ErrMin= 5.30D-03
 ErrMax= 5.30D-03  0.00D+00 EMaxC= 1.00D-01 BMatC= 1.05D-02 BMatP= 1.05D-02
 IDIUse=3 WtCom= 9.47D-01 WtEn= 5.30D-02
 Coeff-Com:  0.100D+01
 Coeff-En:   0.100D+01
 Coeff:      0.100D+01
 Gap=     0.647 Goal=   None    Shift=    0.000
 GapD=    0.647 DampG=2.000 DampE=1.000 DampFc=2.0000 IDamp=-1.
 RMSDP=3.64D-04 MaxDP=1.71D-02              OVMax= 3.61D-02

 Cycle   2  Pass 0  IDiag  1:
 RMSU=  3.64D-04    CP:  1.00D+00
 E= -350.538844970466     Delta-E=       -0.014629072394 Rises=F Damp=F
 DIIS: error= 7.76D-04 at cycle   2 NSaved=   2.
 NSaved= 2 IEnMin= 2 EnMin= -350.538844970466     IErMin= 2 ErrMin= 7.76D-04
 ErrMax= 7.76D-04  0.00D+00 EMaxC= 1.00D-01 BMatC= 1.77D-04 BMatP= 1.05D-02
 IDIUse=3 WtCom= 9.92D-01 WtEn= 7.76D-03
 Coeff-Com: -0.564D-01 0.106D+01
 Coeff-En:   0.000D+00 0.100D+01
 Coeff:     -0.560D-01 0.106D+01
 Gap=     0.232 Goal=   None    Shift=    0.000
 RMSDP=7.65D-05 MaxDP=6.53D-03 DE=-1.46D-02 OVMax= 5.08D-03

 Cycle   3  Pass 0  IDiag  1:
 RMSU=  7.46D-05    CP:  9.98D-01  1.04D+00
 E= -350.538927496106     Delta-E=       -0.000082525640 Rises=F Damp=F
 DIIS: error= 7.89D-04 at cycle   3 NSaved=   3.
 NSaved= 3 IEnMin= 3 EnMin= -350.538927496106     IErMin= 2 ErrMin= 7.76D-04
 ErrMax= 7.89D-04  0.00D+00 EMaxC= 1.00D-01 BMatC= 1.93D-04 BMatP= 1.77D-04
 IDIUse=3 WtCom= 9.92D-01 WtEn= 7.89D-03
 Coeff-Com: -0.385D-01 0.576D+00 0.463D+00
 Coeff-En:   0.000D+00 0.277D+00 0.723D+00
 Coeff:     -0.382D-01 0.573D+00 0.465D+00
 Gap=     0.230 Goal=   None    Shift=    0.000
 RMSDP=6.33D-05 MaxDP=8.73D-03 DE=-8.25D-05 OVMax= 5.18D-03

 Cycle   4  Pass 0  IDiag  1:
 RMSU=  3.93D-05    CP:  1.00D+00  1.07D+00  3.77D-01
 E= -350.539035520693     Delta-E=       -0.000108024587 Rises=F Damp=F
 DIIS: error= 3.93D-04 at cycle   4 NSaved=   4.
 NSaved= 4 IEnMin= 4 EnMin= -350.539035520693     IErMin= 4 ErrMin= 3.93D-04
 ErrMax= 3.93D-04  0.00D+00 EMaxC= 1.00D-01 BMatC= 4.73D-05 BMatP= 1.77D-04
 IDIUse=3 WtCom= 9.96D-01 WtEn= 3.93D-03
 Coeff-Com: -0.121D-01 0.165D+00 0.329D+00 0.519D+00
 Coeff-En:   0.000D+00 0.000D+00 0.234D+00 0.766D+00
 Coeff:     -0.120D-01 0.164D+00 0.329D+00 0.520D+00
 Gap=     0.230 Goal=   None    Shift=    0.000
 RMSDP=2.72D-05 MaxDP=3.88D-03 DE=-1.08D-04 OVMax= 1.75D-03

 Cycle   5  Pass 0  IDiag  1:
 RMSU=  8.56D-06    CP:  9.99D-01  1.06D+00  5.70D-01  4.75D-01
 E= -350.539069427829     Delta-E=       -0.000033907136 Rises=F Damp=F
 DIIS: error= 2.98D-05 at cycle   5 NSaved=   5.
 NSaved= 5 IEnMin= 5 EnMin= -350.539069427829     IErMin= 5 ErrMin= 2.98D-05
 ErrMax= 2.98D-05  0.00D+00 EMaxC= 1.00D-01 BMatC= 5.17D-07 BMatP= 4.73D-05
 IDIUse=1 WtCom= 1.00D+00 WtEn= 0.00D+00
 Coeff-Com: -0.476D-03-0.216D-02 0.633D-01 0.151D+00 0.789D+00
 Coeff:     -0.476D-03-0.216D-02 0.633D-01 0.151D+00 0.789D+00
 Gap=     0.230 Goal=   None    Shift=    0.000
 RMSDP=4.32D-06 MaxDP=5.07D-04 DE=-3.39D-05 OVMax= 2.96D-04

 Initial convergence to 1.0D-05 achieved.  Increase integral accuracy.
 Cycle   6  Pass 1  IDiag  1:
 E= -350.539041800236     Delta-E=        0.000027627594 Rises=F Damp=F
 DIIS: error= 1.24D-04 at cycle   1 NSaved=   1.
 NSaved= 1 IEnMin= 1 EnMin= -350.539041800236     IErMin= 1 ErrMin= 1.24D-04
 ErrMax= 1.24D-04  0.00D+00 EMaxC= 1.00D-01 BMatC= 1.36D-06 BMatP= 1.36D-06
 IDIUse=3 WtCom= 9.99D-01 WtEn= 1.24D-03
 Coeff-Com:  0.100D+01
 Coeff-En:   0.100D+01
 Coeff:      0.100D+01
 Gap=     0.230 Goal=   None    Shift=    0.000
 RMSDP=4.32D-06 MaxDP=5.07D-04 DE= 2.76D-05 OVMax= 3.23D-04

 Cycle   7  Pass 1  IDiag  1:
 RMSU=  6.86D-05    CP:  1.00D+00
 E= -350.539042608583     Delta-E=       -0.000000808347 Rises=F Damp=F
 DIIS: error= 1.61D-05 at cycle   2 NSaved=   2.
 NSaved= 2 IEnMin= 2 EnMin= -350.539042608583     IErMin= 2 ErrMin= 1.61D-05
 ErrMax= 1.61D-05  0.00D+00 EMaxC= 1.00D-01 BMatC= 1.46D-07 BMatP= 1.36D-06
 IDIUse=1 WtCom= 1.00D+00 WtEn= 0.00D+00
 Coeff-Com:  0.148D+00 0.852D+00
 Coeff:      0.148D+00 0.852D+00
 Gap=     0.230 Goal=   None    Shift=    0.000
 RMSDP=2.67D-06 MaxDP=2.73D-04 DE=-8.08D-07 OVMax= 1.19D-04

 Cycle   8  Pass 1  IDiag  1:
 RMSU=  2.45D-06    CP:  1.00D+00  1.01D+00
 E= -350.539042625930     Delta-E=       -0.000000017348 Rises=F Damp=F
 DIIS: error= 1.44D-05 at cycle   3 NSaved=   3.
 NSaved= 3 IEnMin= 3 EnMin= -350.539042625930     IErMin= 3 ErrMin= 1.44D-05
 ErrMax= 1.44D-05  0.00D+00 EMaxC= 1.00D-01 BMatC= 1.28D-07 BMatP= 1.46D-07
 IDIUse=1 WtCom= 1.00D+00 WtEn= 0.00D+00
 Coeff-Com: -0.190D-02 0.484D+00 0.518D+00
 Coeff:     -0.190D-02 0.484D+00 0.518D+00
 Gap=     0.230 Goal=   None    Shift=    0.000
 RMSDP=1.05D-06 MaxDP=1.09D-04 DE=-1.73D-08 OVMax= 6.22D-05

 Cycle   9  Pass 1  IDiag  1:
 RMSU=  2.94D-07    CP:  1.00D+00  1.02D+00  5.99D-01
 E= -350.539042750881     Delta-E=       -0.000000124950 Rises=F Damp=F
 DIIS: error= 1.51D-06 at cycle   4 NSaved=   4.
 NSaved= 4 IEnMin= 4 EnMin= -350.539042750881     IErMin= 4 ErrMin= 1.51D-06
 ErrMax= 1.51D-06  0.00D+00 EMaxC= 1.00D-01 BMatC= 1.02D-09 BMatP= 1.28D-07
 IDIUse=1 WtCom= 1.00D+00 WtEn= 0.00D+00
 Coeff-Com: -0.210D-02 0.254D+00 0.278D+00 0.470D+00
 Coeff:     -0.210D-02 0.254D+00 0.278D+00 0.470D+00
 Gap=     0.230 Goal=   None    Shift=    0.000
 RMSDP=8.05D-08 MaxDP=2.84D-06 DE=-1.25D-07 OVMax= 7.26D-06

 Cycle  10  Pass 1  IDiag  1:
 RMSU=  7.11D-08    CP:  1.00D+00  1.02D+00  5.96D-01  8.75D-01
 E= -350.539042751803     Delta-E=       -0.000000000922 Rises=F Damp=F
 DIIS: error= 4.80D-07 at cycle   5 NSaved=   5.
 NSaved= 5 IEnMin= 5 EnMin= -350.539042751803     IErMin= 5 ErrMin= 4.80D-07
 ErrMax= 4.80D-07  0.00D+00 EMaxC= 1.00D-01 BMatC= 7.46D-11 BMatP= 1.02D-09
 IDIUse=1 WtCom= 1.00D+00 WtEn= 0.00D+00
 Coeff-Com: -0.112D-02 0.118D+00 0.130D+00 0.266D+00 0.487D+00
 Coeff:     -0.112D-02 0.118D+00 0.130D+00 0.266D+00 0.487D+00
 Gap=     0.230 Goal=   None    Shift=    0.000
 RMSDP=4.16D-08 MaxDP=5.70D-06 DE=-9.22D-10 OVMax= 2.94D-06

 Cycle  11  Pass 1  IDiag  1:
 RMSU=  3.13D-08    CP:  1.00D+00  1.02D+00  5.85D-01  8.81D-01  9.67D-01
 E= -350.539042751851     Delta-E=       -0.000000000048 Rises=F Damp=F
 DIIS: error= 2.25D-07 at cycle   6 NSaved=   6.
 NSaved= 6 IEnMin= 6 EnMin= -350.539042751851     IErMin= 6 ErrMin= 2.25D-07
 ErrMax= 2.25D-07  0.00D+00 EMaxC= 1.00D-01 BMatC= 1.62D-11 BMatP= 7.46D-11
 IDIUse=1 WtCom= 1.00D+00 WtEn= 0.00D+00
 Coeff-Com: -0.896D-04-0.146D-02-0.109D-02 0.280D-01 0.315D+00 0.659D+00
 Coeff:     -0.896D-04-0.146D-02-0.109D-02 0.280D-01 0.315D+00 0.659D+00
 Gap=     0.230 Goal=   None    Shift=    0.000
 RMSDP=2.47D-08 MaxDP=3.19D-06 DE=-4.80D-11 OVMax= 2.51D-06

 Cycle  12  Pass 1  IDiag  1:
 RMSU=  1.24D-08    CP:  1.00D+00  1.02D+00  5.92D-01  9.07D-01  1.03D+00
                    CP:  7.26D-01
 E= -350.539042751870     Delta-E=       -0.000000000019 Rises=F Damp=F
 DIIS: error= 5.23D-08 at cycle   7 NSaved=   7.
 NSaved= 7 IEnMin= 7 EnMin= -350.539042751870     IErMin= 7 ErrMin= 5.23D-08
 ErrMax= 5.23D-08  0.00D+00 EMaxC= 1.00D-01 BMatC= 1.14D-12 BMatP= 1.62D-11
 IDIUse=1 WtCom= 1.00D+00 WtEn= 0.00D+00
 Coeff-Com:  0.154D-03-0.199D-01-0.218D-01-0.353D-01 0.305D-01 0.263D+00
 Coeff-Com:  0.784D+00
 Coeff:      0.154D-03-0.199D-01-0.218D-01-0.353D-01 0.305D-01 0.263D+00
 Coeff:      0.784D+00
 Gap=     0.230 Goal=   None    Shift=    0.000
 RMSDP=5.54D-09 MaxDP=3.48D-07 DE=-1.91D-11 OVMax= 1.16D-06

 SCF Done:  E(RB3LYP) =  -350.539042752     A.U. after   12 cycles
            NFock= 12  Conv=0.55D-08     -V/T= 2.0053
 KE= 3.486782035448D+02 PE=-1.535128263163D+03 EE= 4.756575994019D+02
 Leave Link  502 at Wed Feb  7 19:32:07 2024, MaxMem=  6710886400 cpu:             571.2 elap:              35.7
 (Enter /tmpu/scunam/7/gaussian-2016.03/g1/g16/l508.exe)
 QCSCF skips out because SCF is already converged.
 Leave Link  508 at Wed Feb  7 19:32:07 2024, MaxMem=  6710886400 cpu:               0.0 elap:               0.0
 (Enter /tmpu/scunam/7/gaussian-2016.03/g1/g16/l701.exe)
 ... and contract with generalized density number  0.
 Compute integral first derivatives.
   1 Symmetry operations used in ECPInt.
 ECPInt:  NShTT=   10440 NPrTT=   30108 LenC2=    9711 LenP2D=   21949.
 LDataN:  DoStor=T MaxTD1= 7 Len=  274
 Leave Link  701 at Wed Feb  7 19:32:07 2024, MaxMem=  6710886400 cpu:               3.4 elap:               0.2
 (Enter /tmpu/scunam/7/gaussian-2016.03/g1/g16/l702.exe)
 L702 exits ... SP integral derivatives will be done elsewhere.
 Leave Link  702 at Wed Feb  7 19:32:07 2024, MaxMem=  6710886400 cpu:               0.3 elap:               0.0
 (Enter /tmpu/scunam/7/gaussian-2016.03/g1/g16/l703.exe)
 Integral derivatives from FoFJK, PRISM(SPDF).
 Compute integral first derivatives, UseDBF=F ICtDFT=           0.
 Calling FoFJK, ICntrl=      2127 FMM=F ISym2X=0 I1Cent= 0 IOpClX= 0 NMat=1 NMatS=1 NMatT=0.
 FoFJK:  IHMeth= 1 ICntrl=    2127 DoSepK=F KAlg= 0 I1Cent=           0 FoldK=F
 IRaf=         0 NMat=       1 IRICut=       1 DoRegI=T DoRafI=F ISym2E= 0 IDoP0=0 IntGTp=1.
 FoFCou: FMM=F IPFlag=           0 FMFlag=      100000 FMFlg1=         800
         NFxFlg=           0 DoJE=F BraDBF=F KetDBF=F FulRan=T
         wScrn=  0.000000 ICntrl=      2127 IOpCl=  0 I1Cent=           0 NGrid=           0
         NMat0=    1 NMatS0=      1 NMatT0=    0 NMatD0=    1 NMtDS0=    0 NMtDT0=    0
 Symmetry not used in FoFCou.
 Leave Link  703 at Wed Feb  7 19:32:18 2024, MaxMem=  6710886400 cpu:             176.3 elap:              11.0
 (Enter /tmpu/scunam/7/gaussian-2016.03/g1/g16/l716.exe)
 Dipole        = 4.52561457D-01 9.74551119D-01 4.17198905D-03
 ***** Axes restored to original set *****
 -------------------------------------------------------------------
 Center     Atomic                   Forces (Hartrees/Bohr)
 Number     Number              X              Y              Z
 -------------------------------------------------------------------
      1        8          -0.000324667    0.001021120   -0.005130196
      2        6           0.000211194    0.000178014   -0.000299296
      3        6          -0.000402749   -0.000196868    0.000590780
      4        6          -0.000207894   -0.000052517   -0.000114554
      5        6           0.000330105    0.000011748   -0.000223852
      6        6          -0.000704308    0.000669177   -0.006021801
      7        6          -0.000222380    0.000165676    0.000016852
      8        6           0.001140548   -0.000847946    0.016669218
      9        1          -0.000071773   -0.000064714    0.000174615
     10        1           0.000069854   -0.000037448    0.000143666
     11        1           0.000092893   -0.000084546   -0.000037907
     12        1          -0.000044995   -0.000056401   -0.000134336
     13        1           0.000041708    0.000019463   -0.000120885
     14        1          -0.000146674    0.000159944   -0.000065639
     15        1           0.000024304    0.000032975    0.000205030
     16        1           0.000018674   -0.000004105   -0.000133446
     17        1          -0.001904107   -0.001243459   -0.000556713
     18        1           0.001860508    0.000746971    0.000206735
     19        1          -0.000020656    0.000098509   -0.000039032
     20        1           0.000033599   -0.000048442    0.000143004
     21        1          -0.000023582   -0.000068154   -0.000167935
     22        1           0.000250398   -0.000398997   -0.005104305
 -------------------------------------------------------------------
 Cartesian Forces:  Max     0.016669218 RMS     0.002404834
 Leave Link  716 at Wed Feb  7 19:32:18 2024, MaxMem=  6710886400 cpu:               0.3 elap:               0.0
 (Enter /tmpu/scunam/7/gaussian-2016.03/g1/g16/l103.exe)

 GradGradGradGradGradGradGradGradGradGradGradGradGradGradGradGradGradGrad
 Berny optimization.
 Search for a local minimum.
 Step number   7 out of a maximum of  132
 All quantities printed in internal units (Hartrees-Bohrs-Radians)
 Update second derivatives using D2CorN and points    2    3    4    7    5

 DE=  3.96D-04 DEPred=-1.94D-03 R=-2.04D-01
 Trust test=-2.04D-01 RLast= 6.07D-01 DXMaxT set to 3.53D-01
 ITU= -1  0  0  1  1  1  0
 Skip linear search -- no minimum in search direction.
 Steepest descent instead of Quadratic search.
 Steepest descent step scaled to max of 0.05000.
 B after Tr=    -0.000000    0.000000   -0.000000
         Rot=    1.000000    0.000000    0.000000   -0.000000 Ang=   0.00 deg.
 Variable       Old X    -DE/DX   Delta X   Delta X   Delta X     New X
                                 (Linear)    (Quad)   (Total)
    X1        6.66435   0.00072   0.00000  -0.00097  -0.00097   6.66337
    Y1        1.93899  -0.00242   0.00000   0.00306   0.00306   1.94205
    Z1       -0.23338   0.00396   0.00000  -0.01539  -0.01539  -0.24876
    X2       -0.99156  -0.00036   0.00000   0.00063   0.00063  -0.99092
    Y2       -1.18397  -0.00017   0.00000   0.00053   0.00053  -1.18344
    Z2        0.03276   0.00040   0.00000  -0.00090  -0.00090   0.03186
    X3       -3.25978   0.00002   0.00000  -0.00121  -0.00121  -3.26098
    Y3        0.60887   0.00046   0.00000  -0.00059  -0.00059   0.60828
    Z3        0.09347  -0.00058   0.00000   0.00177   0.00177   0.09524
    X4        1.54966   0.00018   0.00000  -0.00062  -0.00062   1.54903
    Y4        0.19107  -0.00016   0.00000  -0.00016  -0.00016   0.19091
    Z4        0.07135  -0.00018   0.00000  -0.00034  -0.00034   0.07100
    X5       -5.81637   0.00002   0.00000   0.00099   0.00099  -5.81538
    Y5       -0.73230  -0.00059   0.00000   0.00004   0.00004  -0.73227
    Z5       -0.08441   0.00018   0.00000  -0.00067  -0.00067  -0.08508
    X6        3.81225   0.00048   0.00000  -0.00211  -0.00211   3.81014
    Y6       -1.59287  -0.00019   0.00000   0.00201   0.00201  -1.59086
    Z6        0.03910   0.00377   0.00000  -0.01806  -0.01806   0.02103
    X7       -8.06441  -0.00052   0.00000  -0.00067  -0.00067  -8.06507
    Y7        1.08102   0.00060   0.00000   0.00050   0.00050   1.08151
    Z7       -0.01806  -0.00012   0.00000   0.00005   0.00005  -0.01801
    X8        6.35265  -0.00068   0.00000   0.00342   0.00342   6.35607
    Y8       -0.30835   0.00236   0.00000  -0.00254  -0.00254  -0.31089
    Z8       -0.02330  -0.01130   0.00000   0.05000   0.05000   0.02670
    X9       -1.10515   0.00004   0.00000  -0.00022  -0.00022  -1.10536
    Y9       -2.48176   0.00014   0.00000  -0.00019  -0.00019  -2.48196
    Z9        1.64479  -0.00027   0.00000   0.00052   0.00052   1.64531
   X10       -1.10442  -0.00004   0.00000   0.00021   0.00021  -1.10422
   Y10       -2.36906   0.00008   0.00000  -0.00011  -0.00011  -2.36917
   Z10       -1.66306  -0.00002   0.00000   0.00043   0.00043  -1.66263
   X11       -3.09425  -0.00024   0.00000   0.00028   0.00028  -3.09397
   Y11        1.96433  -0.00066   0.00000  -0.00025  -0.00025   1.96408
   Z11       -1.46835   0.00084   0.00000  -0.00011  -0.00011  -1.46846
   X12       -3.19462  -0.00008   0.00000  -0.00013  -0.00013  -3.19476
   Y12        1.73376  -0.00042   0.00000  -0.00017  -0.00017   1.73359
   Z12        1.83422  -0.00074   0.00000  -0.00040  -0.00040   1.83382
   X13        1.67070  -0.00010   0.00000   0.00013   0.00013   1.67082
   Y13        1.39962   0.00006   0.00000   0.00006   0.00006   1.39968
   Z13        1.74287   0.00014   0.00000  -0.00036  -0.00036   1.74251
   X14        1.67874   0.00002   0.00000  -0.00044  -0.00044   1.67830
   Y14        1.46759  -0.00014   0.00000   0.00048   0.00048   1.46807
   Z14       -1.54801   0.00010   0.00000  -0.00020  -0.00020  -1.54821
   X15       -5.88287   0.00023   0.00000   0.00007   0.00007  -5.88280
   Y15       -1.84332   0.00051   0.00000   0.00010   0.00010  -1.84322
   Z15       -1.83281   0.00080   0.00000   0.00061   0.00062  -1.83219
   X16       -5.98654   0.00026   0.00000   0.00006   0.00006  -5.98649
   Y16       -2.09730   0.00081   0.00000  -0.00001  -0.00001  -2.09731
   Z16        1.46699  -0.00082   0.00000  -0.00040  -0.00040   1.46659
   X17        3.74353   0.00091   0.00000  -0.00571  -0.00571   3.73782
   Y17       -2.87513   0.00070   0.00000  -0.00373  -0.00373  -2.87886
   Z17       -1.59502   0.00037   0.00000  -0.00167  -0.00167  -1.59669
   X18        3.82412  -0.00127   0.00000   0.00558   0.00558   3.82970
   Y18       -2.85147  -0.00040   0.00000   0.00224   0.00224  -2.84922
   Z18        1.68934  -0.00009   0.00000   0.00062   0.00062   1.68996
   X19       -9.85836   0.00132   0.00000  -0.00006  -0.00006  -9.85842
   Y19        0.06534   0.00080   0.00000   0.00030   0.00030   0.06563
   Z19       -0.17781   0.00021   0.00000  -0.00012  -0.00012  -0.17793
   X20       -7.97186  -0.00013   0.00000   0.00010   0.00010  -7.97175
   Y20        2.44215  -0.00108   0.00000  -0.00015  -0.00015   2.44200
   Z20       -1.57502   0.00121   0.00000   0.00043   0.00043  -1.57459
   X21       -8.10529  -0.00002   0.00000  -0.00007  -0.00007  -8.10536
   Y21        2.15742  -0.00068   0.00000  -0.00020  -0.00020   2.15721
   Z21        1.74871  -0.00119   0.00000  -0.00050  -0.00050   1.74821
   X22        8.00623  -0.00079   0.00000   0.00075   0.00075   8.00698
   Y22       -1.60844   0.00040   0.00000  -0.00120  -0.00120  -1.60963
   Z22       -0.02851   0.00332   0.00000  -0.01531  -0.01531  -0.04382
         Item               Value     Threshold  Converged?
 Maximum Force            0.016669     0.000450     NO 
 RMS     Force            0.002405     0.000300     NO 
 Maximum Displacement     0.375027     0.001800     NO 
 RMS     Displacement     0.085648     0.001200     NO 
 Predicted change in Energy=-1.671241D-03
 GradGradGradGradGradGradGradGradGradGradGradGradGradGradGradGradGradGrad

 Leave Link  103 at Wed Feb  7 19:32:18 2024, MaxMem=  6710886400 cpu:               0.3 elap:               0.0
 (Enter /tmpu/scunam/7/gaussian-2016.03/g1/g16/l202.exe)
                          Input orientation:                          
 ---------------------------------------------------------------------
 Center     Atomic      Atomic             Coordinates (Angstroms)
 Number     Number       Type             X           Y           Z
 ---------------------------------------------------------------------
      1          8           0        3.526106    1.027689   -0.131641
      2          6           0       -0.524373   -0.626250    0.016861
      3          6           0       -1.725639    0.321887    0.050398
      4          6           0        0.819713    0.101027    0.037574
      5          6           0       -3.077369   -0.387499   -0.045023
      6          6           0        2.016237   -0.841846    0.011131
      7          6           0       -4.267853    0.572312   -0.009531
      8          6           0        3.363486   -0.164517    0.014131
      9          1           0       -0.584934   -1.313396    0.870660
     10          1           0       -0.584326   -1.253710   -0.879827
     11          1           0       -1.637257    1.039345   -0.777077
     12          1           0       -1.690594    0.917378    0.970415
     13          1           0        0.884160    0.740676    0.922095
     14          1           0        0.888119    0.776868   -0.819276
     15          1           0       -3.113044   -0.975390   -0.969554
     16          1           0       -3.167913   -1.109851    0.776084
     17          1           0        1.977971   -1.523429   -0.844932
     18          1           0        2.026589   -1.507745    0.894287
     19          1           0       -5.216851    0.034730   -0.094157
     20          1           0       -4.218471    1.292251   -0.833239
     21          1           0       -4.289170    1.141549    0.925111
     22          1           0        4.237112   -0.851781   -0.023190
 ---------------------------------------------------------------------
                    Distance matrix (angstroms):
                    1          2          3          4          5
     1  O    0.000000
     2  C    4.377665   0.000000
     3  C    5.302086   1.530728   0.000000
     4  C    2.865641   1.528375   2.554948   0.000000
     5  C    6.753972   2.564882   1.529545   3.928451   0.000000
     6  C    2.407333   2.549748   3.918859   1.523608   5.114138
     7  C    7.808206   3.930762   2.555222   5.109565   1.529624
     8  C    1.212044   3.915182   5.112445   2.557703   6.444985
     9  H    4.835901   1.097639   2.155966   2.160477   2.812115
    10  H    4.760274   1.096061   2.156483   2.155983   2.768119
    11  H    5.203560   2.154775   1.098759   2.753325   2.155390
    12  H    5.332977   2.156878   1.096480   2.799689   2.157999
    13  H    2.858778   2.161458   2.783216   1.093472   4.231052
    14  H    2.737650   2.159398   2.791965   1.093450   4.204796
    15  H    6.985180   2.792155   2.155951   4.199947   1.096196
    16  H    7.085403   2.792596   2.157927   4.232350   1.097364
    17  H    3.068177   2.794520   4.233619   2.181567   5.242771
    18  H    3.119215   2.838013   4.258981   2.186014   5.309203
    19  H    8.799242   4.740102   3.505983   6.038365   2.181301
    20  H    7.780790   4.248491   2.817203   5.249821   2.178292
    21  H    7.887220   4.257197   2.829958   5.288771   2.178901
    22  H    2.012387   4.766991   6.077607   3.548260   7.329233
                    6          7          8          9         10
     6  C    0.000000
     7  C    6.441278   0.000000
     8  C    1.507933   7.666865   0.000000
     9  H    2.779792   4.230192   4.200427   0.000000
    10  H    2.779634   4.202397   4.191744   1.751505   0.000000
    11  H    4.184277   2.779799   5.204106   3.059054   2.525336
    12  H    4.213750   2.778782   5.256301   2.491744   3.059550
    13  H    2.148449   5.238274   2.791206   2.525885   3.062833
    14  H    2.140669   5.223177   2.776368   3.065122   2.508985
    15  H    5.223897   2.156527   6.600802   3.145151   2.545571
    16  H    5.247132   2.157946   6.643298   2.592713   3.072078
    17  H    1.094926   6.640809   2.122329   3.091254   2.576689
    18  H    1.106116   6.690555   2.089552   2.618851   3.166842
    19  H    7.286771   1.093962   8.583333   4.919651   4.872129
    20  H    6.643713   1.095101   7.766999   4.784899   4.437465
    21  H    6.672884   1.094551   7.816575   4.444220   4.766649
    22  H    2.221162   8.623378   1.112181   4.925868   4.913413
                   11         12         13         14         15
    11  H    0.000000
    12  H    1.752554   0.000000
    13  H    3.055148   2.581262   0.000000
    14  H    2.539330   3.142053   1.741751   0.000000
    15  H    2.504826   3.060950   4.743507   4.370617   0.000000
    16  H    3.061741   2.515929   4.457025   4.749345   1.751668
    17  H    4.431962   4.765646   3.073268   2.545546   5.121944
    18  H    4.764965   4.438971   2.522165   3.074389   5.493008
    19  H    3.780095   3.787726   6.225228   6.192513   2.492522
    20  H    2.594182   3.127916   5.424230   5.132550   2.526410
    21  H    3.152861   2.608621   5.188840   5.475418   3.074810
    22  H    6.217146   6.265370   3.830374   3.808150   7.411860
                   16         17         18         19         20
    16  H    0.000000
    17  H    5.410994   0.000000
    18  H    5.211060   1.739969   0.000000
    19  H    2.503104   7.399796   7.471524   0.000000
    20  H    3.076310   6.806179   7.058690   1.767587   0.000000
    21  H    2.519569   7.036492   6.848980   1.767638   1.766212
    22  H    7.452505   2.496014   2.481624   9.495701   8.760703
                   21         22
    21  H    0.000000
    22  H    8.807390   0.000000
 Stoichiometry    C7H14O
 Framework group  C1[X(C7H14O)]
 Deg. of freedom    60
 Full point group                 C1      NOp   1
 RotChk:  IX=0 Diff= 1.05D-01
 Largest Abelian subgroup         C1      NOp   1
 Largest concise Abelian subgroup C1      NOp   1
                         Standard orientation:                         
 ---------------------------------------------------------------------
 Center     Atomic      Atomic             Coordinates (Angstroms)
 Number     Number       Type             X           Y           Z
 ---------------------------------------------------------------------
      1          8           0       -3.614538   -1.093801   -0.067386
      2          6           0        0.411106    0.624814   -0.000306
      3          6           0        1.626721   -0.303407    0.061451
      4          6           0       -0.921713   -0.121234    0.053873
      5          6           0        2.967105    0.422152   -0.066774
      6          6           0       -2.132474    0.802058   -0.000628
      7          6           0        4.172125   -0.517824   -0.002583
      8          6           0       -3.469293    0.105226    0.034048
      9          1           0        0.465250    1.343469    0.827591
     10          1           0        0.457374    1.219980   -0.919537
     11          1           0        1.545341   -1.051807   -0.738891
     12          1           0        1.604983   -0.865407    1.002701
     13          1           0       -0.972347   -0.729090    0.961412
     14          1           0       -0.983885   -0.828821   -0.777444
     15          1           0        2.989567    0.976402   -1.012263
     16          1           0        3.050543    1.175242    0.727014
     17          1           0       -2.108518    1.452462   -0.881118
     18          1           0       -2.148776    1.499493    0.857748
     19          1           0        5.112477    0.030439   -0.111666
     20          1           0        4.129796   -1.267982   -0.799273
     21          1           0        4.206414   -1.052213    0.952034
     22          1           0       -4.353380    0.777537   -0.023704
 ---------------------------------------------------------------------
 Rotational constants (GHZ):           7.8851033           0.5677898           0.5404402
 Leave Link  202 at Wed Feb  7 19:32:18 2024, MaxMem=  6710886400 cpu:               0.2 elap:               0.0
 (Enter /tmpu/scunam/7/gaussian-2016.03/g1/g16/l301.exe)
 Standard basis: def2TZVP (5D, 7F)
 Ernie: Thresh=  0.10000D-02 Tol=  0.10000D-05 Strict=F.
 There are   372 symmetry adapted cartesian basis functions of A   symmetry.
 There are   332 symmetry adapted basis functions of A   symmetry.
   332 basis functions,   520 primitive gaussians,   372 cartesian basis functions
    32 alpha electrons       32 beta electrons
       nuclear repulsion energy       359.8722732191 Hartrees.
 IExCor=  402 DFT=T Ex+Corr=B3LYP ExCW=0 ScaHFX=  0.200000
 ScaDFX=  0.800000  0.720000  1.000000  0.810000 ScalE2=  1.000000  1.000000
 IRadAn=      5 IRanWt=     -1 IRanGd=            0 ICorTp=0 IEmpDi=  4
 NAtoms=   22 NActive=   22 NUniq=   22 SFac= 1.00D+00 NAtFMM=   60 NAOKFM=F Big=F
 Integral buffers will be    131072 words long.
 Raffenetti 2 integral format.
 Two-electron integral symmetry is turned on.
 Leave Link  301 at Wed Feb  7 19:32:18 2024, MaxMem=  6710886400 cpu:               0.7 elap:               0.1
 (Enter /tmpu/scunam/7/gaussian-2016.03/g1/g16/l302.exe)
 NPDir=0 NMtPBC=     1 NCelOv=     1 NCel=       1 NClECP=     1 NCelD=      1
         NCelK=      1 NCelE2=     1 NClLst=     1 CellRange=     0.0.
 One-electron integrals computed using PRISM.
 One-electron integral symmetry used in STVInt
   1 Symmetry operations used in ECPInt.
 ECPInt:  NShTT=   10440 NPrTT=   30108 LenC2=    9712 LenP2D=   21939.
 LDataN:  DoStor=T MaxTD1= 6 Len=  172
 NBasis=   332 RedAO= T EigKep=  8.46D-05  NBF=   332
 NBsUse=   332 1.00D-06 EigRej= -1.00D+00 NBFU=   332
 Precomputing XC quadrature grid using
 IXCGrd= 4 IRadAn=           5 IRanWt=          -1 IRanGd=           0 AccXCQ= 0.00D+00.
 Generated NRdTot=       0 NPtTot=           0 NUsed=           0 NTot=          32
 NSgBfM=   367   367   367   367   367 MxSgAt=    22 MxSgA2=    22.
 Leave Link  302 at Wed Feb  7 19:32:18 2024, MaxMem=  6710886400 cpu:               5.4 elap:               0.4
 (Enter /tmpu/scunam/7/gaussian-2016.03/g1/g16/l303.exe)
 DipDrv:  MaxL=1.
 Leave Link  303 at Wed Feb  7 19:32:19 2024, MaxMem=  6710886400 cpu:               0.7 elap:               0.1
 (Enter /tmpu/scunam/7/gaussian-2016.03/g1/g16/l401.exe)
 Initial guess from the checkpoint file:  "Heptanal.chk"
 B after Tr=    -0.000000    0.000000   -0.000000
         Rot=    0.999833    0.018260   -0.000337   -0.000384 Ang=   2.09 deg.
 Guess basis will be translated and rotated to current coordinates.
 JPrj=2 DoOrth=T DoCkMO=T.
 Generating alternative initial guess.
 ExpMin= 9.52D-02 ExpMax= 2.70D+04 ExpMxC= 9.22D+02 IAcc=2 IRadAn=         4 AccDes= 0.00D+00
 Harris functional with IExCor=  402 and IRadAn=       4 diagonalized for initial guess.
 HarFok:  IExCor=  402 AccDes= 0.00D+00 IRadAn=         4 IDoV= 1 UseB2=F ITyADJ=14
 ICtDFT=  3500011 ScaDFX=  1.000000  1.000000  1.000000  1.000000
 FoFCou: FMM=F IPFlag=           0 FMFlag=      100000 FMFlg1=           0
         NFxFlg=           0 DoJE=T BraDBF=F KetDBF=T FulRan=T
         wScrn=  0.000000 ICntrl=       500 IOpCl=  0 I1Cent=   200000004 NGrid=           0
         NMat0=    1 NMatS0=      1 NMatT0=    0 NMatD0=    1 NMtDS0=    0 NMtDT0=    0
 Petite list used in FoFCou.
 Harris En= -350.628040991544    
 Leave Link  401 at Wed Feb  7 19:32:19 2024, MaxMem=  6710886400 cpu:              13.5 elap:               0.9
 (Enter /tmpu/scunam/7/gaussian-2016.03/g1/g16/l502.exe)
 Integral symmetry usage will be decided dynamically.
 Closed shell SCF:
 Using DIIS extrapolation, IDIIS=  1040.
 NGot=  6710886400 LenX=  6710600118 LenY=  6710461293
 Requested convergence on RMS density matrix=1.00D-08 within 128 cycles.
 Requested convergence on MAX density matrix=1.00D-06.
 Requested convergence on             energy=1.00D-06.
 No special actions if energy rises.
 Fock matrices will be formed incrementally for  20 cycles.
 Integral accuracy reduced to 1.0D-05 until final iterations.

 Cycle   1  Pass 0  IDiag  1:
 FoFJK:  IHMeth= 1 ICntrl=       0 DoSepK=F KAlg= 0 I1Cent=           0 FoldK=F
 IRaf= 890000000 NMat=       1 IRICut=       1 DoRegI=T DoRafI=F ISym2E= 0 IDoP0=0 IntGTp=1.
 FoFCou: FMM=F IPFlag=           0 FMFlag=      100000 FMFlg1=           0
         NFxFlg=           0 DoJE=F BraDBF=F KetDBF=F FulRan=T
         wScrn=  0.000000 ICntrl=         0 IOpCl=  0 I1Cent=           0 NGrid=           0
         NMat0=    1 NMatS0=      1 NMatT0=    0 NMatD0=    1 NMtDS0=    0 NMtDT0=    0
 Symmetry not used in FoFCou.
 E= -350.518446821054    
 DIIS: error= 5.35D-03 at cycle   1 NSaved=   1.
 NSaved= 1 IEnMin= 1 EnMin= -350.518446821054     IErMin= 1 ErrMin= 5.35D-03
 ErrMax= 5.35D-03  0.00D+00 EMaxC= 1.00D-01 BMatC= 1.42D-02 BMatP= 1.42D-02
 IDIUse=3 WtCom= 9.47D-01 WtEn= 5.35D-02
 Coeff-Com:  0.100D+01
 Coeff-En:   0.100D+01
 Coeff:      0.100D+01
 Gap=     0.647 Goal=   None    Shift=    0.000
 GapD=    0.647 DampG=2.000 DampE=1.000 DampFc=2.0000 IDamp=-1.
 RMSDP=4.51D-04 MaxDP=2.12D-02              OVMax= 4.19D-02

 Cycle   2  Pass 0  IDiag  1:
 RMSU=  4.49D-04    CP:  9.96D-01
 E= -350.537602094081     Delta-E=       -0.019155273027 Rises=F Damp=F
 DIIS: error= 8.36D-04 at cycle   2 NSaved=   2.
 NSaved= 2 IEnMin= 2 EnMin= -350.537602094081     IErMin= 2 ErrMin= 8.36D-04
 ErrMax= 8.36D-04  0.00D+00 EMaxC= 1.00D-01 BMatC= 3.23D-04 BMatP= 1.42D-02
 IDIUse=3 WtCom= 9.92D-01 WtEn= 8.36D-03
 Coeff-Com: -0.444D-01 0.104D+01
 Coeff-En:   0.000D+00 0.100D+01
 Coeff:     -0.440D-01 0.104D+01
 Gap=     0.229 Goal=   None    Shift=    0.000
 RMSDP=1.37D-04 MaxDP=1.69D-02 DE=-1.92D-02 OVMax= 9.45D-03

 Cycle   3  Pass 0  IDiag  1:
 RMSU=  1.32D-04    CP:  9.93D-01  1.06D+00
 E= -350.537482179822     Delta-E=        0.000119914259 Rises=F Damp=F
 DIIS: error= 1.28D-03 at cycle   3 NSaved=   3.
 NSaved= 3 IEnMin= 2 EnMin= -350.537602094081     IErMin= 2 ErrMin= 8.36D-04
 ErrMax= 1.28D-03  0.00D+00 EMaxC= 1.00D-01 BMatC= 6.56D-04 BMatP= 3.23D-04
 IDIUse=3 WtCom= 2.18D-01 WtEn= 7.82D-01
 Coeff-Com: -0.423D-01 0.647D+00 0.395D+00
 Coeff-En:   0.000D+00 0.595D+00 0.405D+00
 Coeff:     -0.924D-02 0.606D+00 0.403D+00
 Gap=     0.226 Goal=   None    Shift=    0.000
 RMSDP=1.12D-04 MaxDP=1.56D-02 DE= 1.20D-04 OVMax= 8.41D-03

 Cycle   4  Pass 0  IDiag  1:
 RMSU=  4.56D-05    CP:  9.96D-01  1.06D+00  2.38D-01
 E= -350.537889655640     Delta-E=       -0.000407475818 Rises=F Damp=F
 DIIS: error= 4.73D-04 at cycle   4 NSaved=   4.
 NSaved= 4 IEnMin= 4 EnMin= -350.537889655640     IErMin= 4 ErrMin= 4.73D-04
 ErrMax= 4.73D-04  0.00D+00 EMaxC= 1.00D-01 BMatC= 7.88D-05 BMatP= 3.23D-04
 IDIUse=3 WtCom= 9.95D-01 WtEn= 4.73D-03
 Coeff-Com: -0.122D-01 0.151D+00 0.270D+00 0.591D+00
 Coeff-En:   0.000D+00 0.000D+00 0.143D+00 0.857D+00
 Coeff:     -0.121D-01 0.151D+00 0.270D+00 0.592D+00
 Gap=     0.227 Goal=   None    Shift=    0.000
 RMSDP=3.27D-05 MaxDP=4.44D-03 DE=-4.07D-04 OVMax= 2.35D-03

 Cycle   5  Pass 0  IDiag  1:
 RMSU=  1.02D-05    CP:  9.95D-01  1.07D+00  4.22D-01  6.11D-01
 E= -350.537948590531     Delta-E=       -0.000058934891 Rises=F Damp=F
 DIIS: error= 4.02D-05 at cycle   5 NSaved=   5.
 NSaved= 5 IEnMin= 5 EnMin= -350.537948590531     IErMin= 5 ErrMin= 4.02D-05
 ErrMax= 4.02D-05  0.00D+00 EMaxC= 1.00D-01 BMatC= 7.68D-07 BMatP= 7.88D-05
 IDIUse=1 WtCom= 1.00D+00 WtEn= 0.00D+00
 Coeff-Com: -0.562D-03-0.661D-02 0.495D-01 0.171D+00 0.787D+00
 Coeff:     -0.562D-03-0.661D-02 0.495D-01 0.171D+00 0.787D+00
 Gap=     0.227 Goal=   None    Shift=    0.000
 RMSDP=3.71D-06 MaxDP=1.80D-04 DE=-5.89D-05 OVMax= 3.18D-04

 Initial convergence to 1.0D-05 achieved.  Increase integral accuracy.
 Cycle   6  Pass 1  IDiag  1:
 E= -350.537930103612     Delta-E=        0.000018486920 Rises=F Damp=F
 DIIS: error= 1.32D-04 at cycle   1 NSaved=   1.
 NSaved= 1 IEnMin= 1 EnMin= -350.537930103612     IErMin= 1 ErrMin= 1.32D-04
 ErrMax= 1.32D-04  0.00D+00 EMaxC= 1.00D-01 BMatC= 1.42D-06 BMatP= 1.42D-06
 IDIUse=3 WtCom= 9.99D-01 WtEn= 1.32D-03
 Coeff-Com:  0.100D+01
 Coeff-En:   0.100D+01
 Coeff:      0.100D+01
 Gap=     0.227 Goal=   None    Shift=    0.000
 RMSDP=3.71D-06 MaxDP=1.80D-04 DE= 1.85D-05 OVMax= 3.50D-04

 Cycle   7  Pass 1  IDiag  1:
 RMSU=  6.42D-05    CP:  1.00D+00
 E= -350.537930886508     Delta-E=       -0.000000782897 Rises=F Damp=F
 DIIS: error= 2.20D-05 at cycle   2 NSaved=   2.
 NSaved= 2 IEnMin= 2 EnMin= -350.537930886508     IErMin= 2 ErrMin= 2.20D-05
 ErrMax= 2.20D-05  0.00D+00 EMaxC= 1.00D-01 BMatC= 2.26D-07 BMatP= 1.42D-06
 IDIUse=1 WtCom= 1.00D+00 WtEn= 0.00D+00
 Coeff-Com:  0.200D+00 0.800D+00
 Coeff:      0.200D+00 0.800D+00
 Gap=     0.227 Goal=   None    Shift=    0.000
 RMSDP=2.09D-06 MaxDP=1.41D-04 DE=-7.83D-07 OVMax= 1.46D-04

 Cycle   8  Pass 1  IDiag  1:
 RMSU=  1.98D-06    CP:  1.00D+00  1.01D+00
 E= -350.537930955316     Delta-E=       -0.000000068808 Rises=F Damp=F
 DIIS: error= 1.79D-05 at cycle   3 NSaved=   3.
 NSaved= 3 IEnMin= 3 EnMin= -350.537930955316     IErMin= 3 ErrMin= 1.79D-05
 ErrMax= 1.79D-05  0.00D+00 EMaxC= 1.00D-01 BMatC= 1.55D-07 BMatP= 2.26D-07
 IDIUse=1 WtCom= 1.00D+00 WtEn= 0.00D+00
 Coeff-Com:  0.284D-04 0.453D+00 0.547D+00
 Coeff:      0.284D-04 0.453D+00 0.547D+00
 Gap=     0.227 Goal=   None    Shift=    0.000
 RMSDP=8.51D-07 MaxDP=4.05D-05 DE=-6.88D-08 OVMax= 7.06D-05

 Cycle   9  Pass 1  IDiag  1:
 RMSU=  4.36D-07    CP:  1.00D+00  1.01D+00  6.53D-01
 E= -350.537931098757     Delta-E=       -0.000000143440 Rises=F Damp=F
 DIIS: error= 3.96D-06 at cycle   4 NSaved=   4.
 NSaved= 4 IEnMin= 4 EnMin= -350.537931098757     IErMin= 4 ErrMin= 3.96D-06
 ErrMax= 3.96D-06  0.00D+00 EMaxC= 1.00D-01 BMatC= 6.45D-09 BMatP= 1.55D-07
 IDIUse=1 WtCom= 1.00D+00 WtEn= 0.00D+00
 Coeff-Com: -0.229D-02 0.295D+00 0.366D+00 0.342D+00
 Coeff:     -0.229D-02 0.295D+00 0.366D+00 0.342D+00
 Gap=     0.227 Goal=   None    Shift=    0.000
 RMSDP=3.22D-07 MaxDP=4.54D-05 DE=-1.43D-07 OVMax= 2.14D-05

 Cycle  10  Pass 1  IDiag  1:
 RMSU=  1.67D-07    CP:  1.00D+00  1.01D+00  5.92D-01  4.57D-01
 E= -350.537931103407     Delta-E=       -0.000000004650 Rises=F Damp=F
 DIIS: error= 5.50D-07 at cycle   5 NSaved=   5.
 NSaved= 5 IEnMin= 5 EnMin= -350.537931103407     IErMin= 5 ErrMin= 5.50D-07
 ErrMax= 5.50D-07  0.00D+00 EMaxC= 1.00D-01 BMatC= 1.26D-10 BMatP= 6.45D-09
 IDIUse=1 WtCom= 1.00D+00 WtEn= 0.00D+00
 Coeff-Com: -0.125D-02 0.118D+00 0.148D+00 0.174D+00 0.560D+00
 Coeff:     -0.125D-02 0.118D+00 0.148D+00 0.174D+00 0.560D+00
 Gap=     0.227 Goal=   None    Shift=    0.000
 RMSDP=3.16D-08 MaxDP=1.76D-06 DE=-4.65D-09 OVMax= 3.28D-06

 Cycle  11  Pass 1  IDiag  1:
 RMSU=  2.84D-08    CP:  1.00D+00  1.01D+00  5.93D-01  4.86D-01  9.88D-01
 E= -350.537931103510     Delta-E=       -0.000000000103 Rises=F Damp=F
 DIIS: error= 1.27D-07 at cycle   6 NSaved=   6.
 NSaved= 6 IEnMin= 6 EnMin= -350.537931103510     IErMin= 6 ErrMin= 1.27D-07
 ErrMax= 1.27D-07  0.00D+00 EMaxC= 1.00D-01 BMatC= 1.05D-11 BMatP= 1.26D-10
 IDIUse=1 WtCom= 1.00D+00 WtEn= 0.00D+00
 Coeff-Com: -0.161D-03 0.197D-02 0.314D-02 0.149D-01 0.210D+00 0.770D+00
 Coeff:     -0.161D-03 0.197D-02 0.314D-02 0.149D-01 0.210D+00 0.770D+00
 Gap=     0.227 Goal=   None    Shift=    0.000
 RMSDP=1.54D-08 MaxDP=6.98D-07 DE=-1.03D-10 OVMax= 2.92D-06

 Cycle  12  Pass 1  IDiag  1:
 RMSU=  1.24D-08    CP:  1.00D+00  1.01D+00  5.93D-01  4.89D-01  1.04D+00
                    CP:  1.06D+00
 E= -350.537931103522     Delta-E=       -0.000000000012 Rises=F Damp=F
 DIIS: error= 5.47D-08 at cycle   7 NSaved=   7.
 NSaved= 7 IEnMin= 7 EnMin= -350.537931103522     IErMin= 7 ErrMin= 5.47D-08
 ErrMax= 5.47D-08  0.00D+00 EMaxC= 1.00D-01 BMatC= 1.54D-12 BMatP= 1.05D-11
 IDIUse=1 WtCom= 1.00D+00 WtEn= 0.00D+00
 Coeff-Com:  0.163D-03-0.195D-01-0.243D-01-0.247D-01-0.322D-01 0.296D+00
 Coeff-Com:  0.805D+00
 Coeff:      0.163D-03-0.195D-01-0.243D-01-0.247D-01-0.322D-01 0.296D+00
 Coeff:      0.805D+00
 Gap=     0.227 Goal=   None    Shift=    0.000
 RMSDP=6.43D-09 MaxDP=2.83D-07 DE=-1.23D-11 OVMax= 1.51D-06

 SCF Done:  E(RB3LYP) =  -350.537931104     A.U. after   12 cycles
            NFock= 12  Conv=0.64D-08     -V/T= 2.0055
 KE= 3.486100910641D+02 PE=-1.534327824406D+03 EE= 4.753075290192D+02
 Leave Link  502 at Wed Feb  7 19:32:55 2024, MaxMem=  6710886400 cpu:             570.3 elap:              35.7
 (Enter /tmpu/scunam/7/gaussian-2016.03/g1/g16/l508.exe)
 QCSCF skips out because SCF is already converged.
 Leave Link  508 at Wed Feb  7 19:32:55 2024, MaxMem=  6710886400 cpu:               0.0 elap:               0.0
 (Enter /tmpu/scunam/7/gaussian-2016.03/g1/g16/l701.exe)
 ... and contract with generalized density number  0.
 Compute integral first derivatives.
   1 Symmetry operations used in ECPInt.
 ECPInt:  NShTT=   10440 NPrTT=   30108 LenC2=    9712 LenP2D=   21939.
 LDataN:  DoStor=T MaxTD1= 7 Len=  274
 Leave Link  701 at Wed Feb  7 19:32:55 2024, MaxMem=  6710886400 cpu:               3.4 elap:               0.2
 (Enter /tmpu/scunam/7/gaussian-2016.03/g1/g16/l702.exe)
 L702 exits ... SP integral derivatives will be done elsewhere.
 Leave Link  702 at Wed Feb  7 19:32:55 2024, MaxMem=  6710886400 cpu:               0.3 elap:               0.0
 (Enter /tmpu/scunam/7/gaussian-2016.03/g1/g16/l703.exe)
 Integral derivatives from FoFJK, PRISM(SPDF).
 Compute integral first derivatives, UseDBF=F ICtDFT=           0.
 Calling FoFJK, ICntrl=      2127 FMM=F ISym2X=0 I1Cent= 0 IOpClX= 0 NMat=1 NMatS=1 NMatT=0.
 FoFJK:  IHMeth= 1 ICntrl=    2127 DoSepK=F KAlg= 0 I1Cent=           0 FoldK=F
 IRaf=         0 NMat=       1 IRICut=       1 DoRegI=T DoRafI=F ISym2E= 0 IDoP0=0 IntGTp=1.
 FoFCou: FMM=F IPFlag=           0 FMFlag=      100000 FMFlg1=         800
         NFxFlg=           0 DoJE=F BraDBF=F KetDBF=F FulRan=T
         wScrn=  0.000000 ICntrl=      2127 IOpCl=  0 I1Cent=           0 NGrid=           0
         NMat0=    1 NMatS0=      1 NMatT0=    0 NMatD0=    1 NMtDS0=    0 NMtDT0=    0
 Symmetry not used in FoFCou.
 Leave Link  703 at Wed Feb  7 19:33:06 2024, MaxMem=  6710886400 cpu:             176.2 elap:              11.0
 (Enter /tmpu/scunam/7/gaussian-2016.03/g1/g16/l716.exe)
 Dipole        = 4.27110153D-01 9.86044280D-01 4.03355627D-02
 ***** Axes restored to original set *****
 -------------------------------------------------------------------
 Center     Atomic                   Forces (Hartrees/Bohr)
 Number     Number              X              Y              Z
 -------------------------------------------------------------------
      1        8           0.000328376   -0.010554354    0.009314780
      2        6          -0.000880515   -0.000595014    0.001261553
      3        6           0.000762310    0.000789147   -0.001873262
      4        6           0.000269006    0.000507386   -0.001490913
      5        6          -0.000704696   -0.000535881    0.000791232
      6        6           0.001990315   -0.001685725    0.016947803
      7        6          -0.000078824    0.000193555   -0.000244869
      8        6          -0.001495967    0.010732042   -0.026596548
      9        1           0.000185294    0.000394674   -0.000657968
     10        1          -0.000103000    0.000018441   -0.000235126
     11        1          -0.000354772   -0.000914570    0.001260845
     12        1          -0.000113500   -0.000248771   -0.000291922
     13        1           0.000187867   -0.000252231    0.000109737
     14        1          -0.000321318    0.000116535    0.000171497
     15        1           0.000289878    0.000388225    0.000489982
     16        1           0.000246153    0.000832013   -0.000880138
     17        1           0.002276071    0.000145164   -0.002029615
     18        1          -0.003091405    0.000933959   -0.003608004
     19        1           0.001222418    0.000733705    0.000198446
     20        1          -0.000159052   -0.000924749    0.001059079
     21        1          -0.000037946   -0.000553052   -0.000967556
     22        1          -0.000416693    0.000479503    0.007270966
 -------------------------------------------------------------------
 Cartesian Forces:  Max     0.026596548 RMS     0.004647590
 Leave Link  716 at Wed Feb  7 19:33:07 2024, MaxMem=  6710886400 cpu:               0.3 elap:               0.0
 (Enter /tmpu/scunam/7/gaussian-2016.03/g1/g16/l103.exe)

 GradGradGradGradGradGradGradGradGradGradGradGradGradGradGradGradGradGrad
 Berny optimization.
 Search for a local minimum.
 Step number   8 out of a maximum of  132
 All quantities printed in internal units (Hartrees-Bohrs-Radians)
 Update second derivatives using D2CorN and points    2    3    4    7    5

 ITU=  0 -1  0  0  1  1  1  0
 Skip linear search -- no minimum in search direction.
 Steepest descent instead of Quadratic search.
 Steepest descent step scaled to max of 0.05000.
 B after Tr=    -0.000000    0.000000   -0.000000
         Rot=    1.000000   -0.000000   -0.000000   -0.000000 Ang=  -0.00 deg.
 Variable       Old X    -DE/DX   Delta X   Delta X   Delta X     New X
                                 (Linear)    (Quad)   (Total)
    X1        6.66337   0.00033   0.00000   0.00062   0.00062   6.66399
    Y1        1.94205  -0.01055   0.00000  -0.01984  -0.01984   1.92221
    Z1       -0.24876   0.00931   0.00000   0.01751   0.01751  -0.23125
    X2       -0.99092  -0.00088   0.00000  -0.00166  -0.00166  -0.99258
    Y2       -1.18344  -0.00060   0.00000  -0.00112  -0.00112  -1.18456
    Z2        0.03186   0.00126   0.00000   0.00237   0.00237   0.03423
    X3       -3.26098   0.00076   0.00000   0.00143   0.00143  -3.25955
    Y3        0.60828   0.00079   0.00000   0.00148   0.00148   0.60976
    Z3        0.09524  -0.00187   0.00000  -0.00352  -0.00352   0.09172
    X4        1.54903   0.00027   0.00000   0.00051   0.00051   1.54954
    Y4        0.19091   0.00051   0.00000   0.00095   0.00095   0.19187
    Z4        0.07100  -0.00149   0.00000  -0.00280  -0.00280   0.06820
    X5       -5.81538  -0.00070   0.00000  -0.00132  -0.00132  -5.81671
    Y5       -0.73227  -0.00054   0.00000  -0.00101  -0.00101  -0.73327
    Z5       -0.08508   0.00079   0.00000   0.00149   0.00149  -0.08359
    X6        3.81014   0.00199   0.00000   0.00374   0.00374   3.81388
    Y6       -1.59086  -0.00169   0.00000  -0.00317  -0.00317  -1.59403
    Z6        0.02103   0.01695   0.00000   0.03186   0.03186   0.05289
    X7       -8.06507  -0.00008   0.00000  -0.00015  -0.00015  -8.06522
    Y7        1.08151   0.00019   0.00000   0.00036   0.00036   1.08188
    Z7       -0.01801  -0.00024   0.00000  -0.00046  -0.00046  -0.01847
    X8        6.35607  -0.00150   0.00000  -0.00281  -0.00281   6.35326
    Y8       -0.31089   0.01073   0.00000   0.02018   0.02018  -0.29072
    Z8        0.02670  -0.02660   0.00000  -0.05000  -0.05000  -0.02330
    X9       -1.10536   0.00019   0.00000   0.00035   0.00035  -1.10502
    Y9       -2.48196   0.00039   0.00000   0.00074   0.00074  -2.48122
    Z9        1.64531  -0.00066   0.00000  -0.00124  -0.00124   1.64407
   X10       -1.10422  -0.00010   0.00000  -0.00019  -0.00019  -1.10441
   Y10       -2.36917   0.00002   0.00000   0.00003   0.00004  -2.36913
   Z10       -1.66263  -0.00024   0.00000  -0.00044  -0.00044  -1.66307
   X11       -3.09397  -0.00035   0.00000  -0.00067  -0.00067  -3.09463
   Y11        1.96408  -0.00091   0.00000  -0.00172  -0.00172   1.96236
   Z11       -1.46846   0.00126   0.00000   0.00237   0.00237  -1.46609
   X12       -3.19476  -0.00011   0.00000  -0.00021  -0.00021  -3.19497
   Y12        1.73359  -0.00025   0.00000  -0.00047  -0.00047   1.73313
   Z12        1.83382  -0.00029   0.00000  -0.00055  -0.00055   1.83327
   X13        1.67082   0.00019   0.00000   0.00035   0.00035   1.67117
   Y13        1.39968  -0.00025   0.00000  -0.00047  -0.00047   1.39920
   Z13        1.74251   0.00011   0.00000   0.00021   0.00021   1.74271
   X14        1.67830  -0.00032   0.00000  -0.00060  -0.00060   1.67770
   Y14        1.46807   0.00012   0.00000   0.00022   0.00022   1.46829
   Z14       -1.54821   0.00017   0.00000   0.00032   0.00032  -1.54789
   X15       -5.88280   0.00029   0.00000   0.00054   0.00054  -5.88226
   Y15       -1.84322   0.00039   0.00000   0.00073   0.00073  -1.84249
   Z15       -1.83219   0.00049   0.00000   0.00092   0.00092  -1.83127
   X16       -5.98649   0.00025   0.00000   0.00046   0.00046  -5.98603
   Y16       -2.09731   0.00083   0.00000   0.00156   0.00156  -2.09575
   Z16        1.46659  -0.00088   0.00000  -0.00165  -0.00165   1.46493
   X17        3.73782   0.00228   0.00000   0.00428   0.00428   3.74210
   Y17       -2.87886   0.00015   0.00000   0.00027   0.00027  -2.87859
   Z17       -1.59669  -0.00203   0.00000  -0.00382  -0.00382  -1.60051
   X18        3.82970  -0.00309   0.00000  -0.00581  -0.00581   3.82389
   Y18       -2.84922   0.00093   0.00000   0.00176   0.00176  -2.84747
   Z18        1.68996  -0.00361   0.00000  -0.00678  -0.00678   1.68317
   X19       -9.85842   0.00122   0.00000   0.00230   0.00230  -9.85612
   Y19        0.06563   0.00073   0.00000   0.00138   0.00138   0.06701
   Z19       -0.17793   0.00020   0.00000   0.00037   0.00037  -0.17756
   X20       -7.97175  -0.00016   0.00000  -0.00030  -0.00030  -7.97205
   Y20        2.44200  -0.00092   0.00000  -0.00174  -0.00174   2.44026
   Z20       -1.57459   0.00106   0.00000   0.00199   0.00199  -1.57260
   X21       -8.10536  -0.00004   0.00000  -0.00007  -0.00007  -8.10543
   Y21        2.15721  -0.00055   0.00000  -0.00104  -0.00104   2.15617
   Z21        1.74821  -0.00097   0.00000  -0.00182  -0.00182   1.74639
   X22        8.00698  -0.00042   0.00000  -0.00078  -0.00078   8.00620
   Y22       -1.60963   0.00048   0.00000   0.00090   0.00090  -1.60873
   Z22       -0.04382   0.00727   0.00000   0.01367   0.01367  -0.03015
         Item               Value     Threshold  Converged?
 Maximum Force            0.026597     0.000450     NO 
 RMS     Force            0.004648     0.000300     NO 
 Maximum Displacement     0.050001     0.001800     NO 
 RMS     Displacement     0.008737     0.001200     NO 
 Predicted change in Energy=-8.586533D-04
 GradGradGradGradGradGradGradGradGradGradGradGradGradGradGradGradGradGrad

 Leave Link  103 at Wed Feb  7 19:33:07 2024, MaxMem=  6710886400 cpu:               0.3 elap:               0.0
 (Enter /tmpu/scunam/7/gaussian-2016.03/g1/g16/l202.exe)
                          Input orientation:                          
 ---------------------------------------------------------------------
 Center     Atomic      Atomic             Coordinates (Angstroms)
 Number     Number       Type             X           Y           Z
 ---------------------------------------------------------------------
      1          8           0        3.526432    1.017190   -0.122374
      2          6           0       -0.525249   -0.626842    0.018116
      3          6           0       -1.724880    0.322672    0.048535
      4          6           0        0.819981    0.101532    0.036091
      5          6           0       -3.078070   -0.388032   -0.044236
      6          6           0        2.018217   -0.843523    0.027991
      7          6           0       -4.267932    0.572504   -0.009775
      8          6           0        3.361998   -0.153841   -0.012328
      9          1           0       -0.584749   -1.313004    0.870006
     10          1           0       -0.584428   -1.253691   -0.880061
     11          1           0       -1.637610    1.038435   -0.775822
     12          1           0       -1.690707    0.917131    0.970124
     13          1           0        0.884347    0.740425    0.922204
     14          1           0        0.887799    0.776984   -0.819106
     15          1           0       -3.112756   -0.975004   -0.969066
     16          1           0       -3.167668   -1.109024    0.775208
     17          1           0        1.980235   -1.523284   -0.846951
     18          1           0        2.023514   -1.506816    0.890697
     19          1           0       -5.215635    0.035460   -0.093959
     20          1           0       -4.218629    1.291331   -0.832185
     21          1           0       -4.289208    1.140998    0.924149
     22          1           0        4.236697   -0.851304   -0.015957
 ---------------------------------------------------------------------
                    Distance matrix (angstroms):
                    1          2          3          4          5
     1  O    0.000000
     2  C    4.374780   0.000000
     3  C    5.299797   1.530234   0.000000
     4  C    2.861542   1.529868   2.554481   0.000000
     5  C    6.752792   2.564724   1.531283   3.929494   0.000000
     6  C    2.399912   2.552699   3.920614   1.526095   5.117112
     7  C    7.807851   3.930252   2.555959   5.109870   1.529571
     8  C    1.187629   3.916037   5.109511   2.555271   6.444403
     9  H    4.828710   1.095479   2.156420   2.160924   2.812126
    10  H    4.757117   1.096889   2.155885   2.155998   2.768794
    11  H    5.205265   2.154259   1.095216   2.752588   2.155215
    12  H    5.331239   2.156029   1.097213   2.800209   2.158043
    13  H    2.854533   2.161887   2.783143   1.094314   4.231804
    14  H    2.739620   2.160642   2.790214   1.091877   4.205449
    15  H    6.983161   2.791225   2.155382   4.199486   1.095925
    16  H    7.080779   2.790711   2.158574   4.232385   1.095146
    17  H    3.061004   2.798107   4.235248   2.183113   5.245912
    18  H    3.107359   2.834069   4.255200   2.183032   5.305839
    19  H    8.797064   4.738240   3.505447   6.037378   2.179679
    20  H    7.782349   4.247759   2.816514   5.249487   2.177613
    21  H    7.886367   4.256001   2.830572   5.288946   2.177742
    22  H    2.001767   4.767355   6.076412   3.547472   7.329477
                    6          7          8          9         10
     6  C    0.000000
     7  C    6.443775   0.000000
     8  C    1.510971   7.664425   0.000000
     9  H    2.775759   4.230246   4.207016   0.000000
    10  H    2.786855   4.202450   4.187709   1.751072   0.000000
    11  H    4.189625   2.778941   5.196203   3.057209   2.524659
    12  H    4.212319   2.778679   5.257567   2.491318   3.059331
    13  H    2.143402   5.238583   2.794963   2.525379   3.062998
    14  H    2.149759   5.222872   2.763871   3.064237   2.508946
    15  H    5.228603   2.156259   6.596369   3.144399   2.545197
    16  H    5.246164   2.157386   6.645986   2.592695   3.071478
    17  H    1.108621   6.643251   2.116894   3.093752   2.579006
    18  H    1.088231   6.687055   2.106546   2.615536   3.162439
    19  H    7.288079   1.092540   8.580109   4.918605   4.871133
    20  H    6.647989   1.093390   7.760579   4.783837   4.436986
    21  H    6.672709   1.093550   7.816300   4.443880   4.766037
    22  H    2.218928   8.622991   1.118734   4.923865   4.914452
                   11         12         13         14         15
    11  H    0.000000
    12  H    1.750961   0.000000
    13  H    3.054893   2.581554   0.000000
    14  H    2.539276   3.141604   1.741697   0.000000
    15  H    2.503465   3.059878   4.743040   4.369941   0.000000
    16  H    3.059143   2.514898   4.456557   4.748229   1.750277
    17  H    4.433539   4.767935   3.074941   2.546650   5.123873
    18  H    4.760191   4.435906   2.519680   3.070670   5.488425
    19  H    3.777983   3.786124   6.224093   6.190929   2.491776
    20  H    2.593992   3.127097   5.424181   5.132283   2.525463
    21  H    3.151412   2.608532   5.189040   5.474746   3.073397
    22  H    6.217394   6.263691   3.827793   3.809395   7.412029
                   16         17         18         19         20
    16  H    0.000000
    17  H    5.413310   0.000000
    18  H    5.207682   1.738265   0.000000
    19  H    2.501891   7.401163   7.466822   0.000000
    20  H    3.074074   6.807951   7.054240   1.765279   0.000000
    21  H    2.518459   7.038545   6.845619   1.765510   1.764169
    22  H    7.450972   2.496744   2.479898   9.494156   8.760688
                   21         22
    21  H    0.000000
    22  H    8.805914   0.000000
 Stoichiometry    C7H14O
 Framework group  C1[X(C7H14O)]
 Deg. of freedom    60
 Full point group                 C1      NOp   1
 RotChk:  IX=0 Diff= 8.82D-04
 Largest Abelian subgroup         C1      NOp   1
 Largest concise Abelian subgroup C1      NOp   1
                         Standard orientation:                         
 ---------------------------------------------------------------------
 Center     Atomic      Atomic             Coordinates (Angstroms)
 Number     Number       Type             X           Y           Z
 ---------------------------------------------------------------------
      1          8           0       -3.614738   -1.084093   -0.058843
      2          6           0        0.411884    0.625124    0.001109
      3          6           0        1.626065   -0.304400    0.059130
      4          6           0       -0.921918   -0.122434    0.052318
      5          6           0        2.967739    0.422938   -0.066236
      6          6           0       -2.134530    0.803457    0.016753
      7          6           0        4.172340   -0.517603   -0.003728
      8          6           0       -3.467754    0.092490    0.008314
      9          1           0        0.464924    1.342244    0.827547
     10          1           0        0.457154    1.220156   -0.919246
     11          1           0        1.545844   -1.050530   -0.738586
     12          1           0        1.605411   -0.865847    1.001588
     13          1           0       -0.972248   -0.730012    0.961075
     14          1           0       -0.983455   -0.829097   -0.777764
     15          1           0        2.989004    0.976795   -1.011668
     16          1           0        3.050185    1.174152    0.726371
     17          1           0       -2.111153    1.451874   -0.882163
     18          1           0       -2.145876    1.497131    0.855166
     19          1           0        5.111284    0.030371   -0.112136
     20          1           0        4.130138   -1.266150   -0.799591
     21          1           0        4.206791   -1.051822    0.949831
     22          1           0       -4.353052    0.776040   -0.015637
 ---------------------------------------------------------------------
 Rotational constants (GHZ):           7.9329716           0.5677942           0.5406155
 Leave Link  202 at Wed Feb  7 19:33:07 2024, MaxMem=  6710886400 cpu:               0.1 elap:               0.0
 (Enter /tmpu/scunam/7/gaussian-2016.03/g1/g16/l301.exe)
 Standard basis: def2TZVP (5D, 7F)
 Ernie: Thresh=  0.10000D-02 Tol=  0.10000D-05 Strict=F.
 There are   372 symmetry adapted cartesian basis functions of A   symmetry.
 There are   332 symmetry adapted basis functions of A   symmetry.
   332 basis functions,   520 primitive gaussians,   372 cartesian basis functions
    32 alpha electrons       32 beta electrons
       nuclear repulsion energy       360.3333790118 Hartrees.
 IExCor=  402 DFT=T Ex+Corr=B3LYP ExCW=0 ScaHFX=  0.200000
 ScaDFX=  0.800000  0.720000  1.000000  0.810000 ScalE2=  1.000000  1.000000
 IRadAn=      5 IRanWt=     -1 IRanGd=            0 ICorTp=0 IEmpDi=  4
 NAtoms=   22 NActive=   22 NUniq=   22 SFac= 1.00D+00 NAtFMM=   60 NAOKFM=F Big=F
 Integral buffers will be    131072 words long.
 Raffenetti 2 integral format.
 Two-electron integral symmetry is turned on.
 Leave Link  301 at Wed Feb  7 19:33:07 2024, MaxMem=  6710886400 cpu:               0.7 elap:               0.1
 (Enter /tmpu/scunam/7/gaussian-2016.03/g1/g16/l302.exe)
 NPDir=0 NMtPBC=     1 NCelOv=     1 NCel=       1 NClECP=     1 NCelD=      1
         NCelK=      1 NCelE2=     1 NClLst=     1 CellRange=     0.0.
 One-electron integrals computed using PRISM.
 One-electron integral symmetry used in STVInt
   1 Symmetry operations used in ECPInt.
 ECPInt:  NShTT=   10440 NPrTT=   30108 LenC2=    9713 LenP2D=   21941.
 LDataN:  DoStor=T MaxTD1= 6 Len=  172
 NBasis=   332 RedAO= T EigKep=  8.50D-05  NBF=   332
 NBsUse=   332 1.00D-06 EigRej= -1.00D+00 NBFU=   332
 Precomputing XC quadrature grid using
 IXCGrd= 4 IRadAn=           5 IRanWt=          -1 IRanGd=           0 AccXCQ= 0.00D+00.
 Generated NRdTot=       0 NPtTot=           0 NUsed=           0 NTot=          32
 NSgBfM=   367   367   367   367   367 MxSgAt=    22 MxSgA2=    22.
 Leave Link  302 at Wed Feb  7 19:33:07 2024, MaxMem=  6710886400 cpu:               5.1 elap:               0.3
 (Enter /tmpu/scunam/7/gaussian-2016.03/g1/g16/l303.exe)
 DipDrv:  MaxL=1.
 Leave Link  303 at Wed Feb  7 19:33:07 2024, MaxMem=  6710886400 cpu:               0.7 elap:               0.1
 (Enter /tmpu/scunam/7/gaussian-2016.03/g1/g16/l401.exe)
 Initial guess from the checkpoint file:  "Heptanal.chk"
 B after Tr=     0.000000   -0.000000    0.000000
         Rot=    1.000000   -0.000324   -0.000009   -0.000010 Ang=  -0.04 deg.
 Guess basis will be translated and rotated to current coordinates.
 JPrj=2 DoOrth=T DoCkMO=T.
 Generating alternative initial guess.
 ExpMin= 9.52D-02 ExpMax= 2.70D+04 ExpMxC= 9.22D+02 IAcc=2 IRadAn=         4 AccDes= 0.00D+00
 Harris functional with IExCor=  402 and IRadAn=       4 diagonalized for initial guess.
 HarFok:  IExCor=  402 AccDes= 0.00D+00 IRadAn=         4 IDoV= 1 UseB2=F ITyADJ=14
 ICtDFT=  3500011 ScaDFX=  1.000000  1.000000  1.000000  1.000000
 FoFCou: FMM=F IPFlag=           0 FMFlag=      100000 FMFlg1=           0
         NFxFlg=           0 DoJE=T BraDBF=F KetDBF=T FulRan=T
         wScrn=  0.000000 ICntrl=       500 IOpCl=  0 I1Cent=   200000004 NGrid=           0
         NMat0=    1 NMatS0=      1 NMatT0=    0 NMatD0=    1 NMtDS0=    0 NMtDT0=    0
 Petite list used in FoFCou.
 Harris En= -350.630853590614    
 Leave Link  401 at Wed Feb  7 19:33:08 2024, MaxMem=  6710886400 cpu:              13.5 elap:               0.9
 (Enter /tmpu/scunam/7/gaussian-2016.03/g1/g16/l502.exe)
 Integral symmetry usage will be decided dynamically.
 Closed shell SCF:
 Using DIIS extrapolation, IDIIS=  1040.
 NGot=  6710886400 LenX=  6710600118 LenY=  6710461293
 Requested convergence on RMS density matrix=1.00D-08 within 128 cycles.
 Requested convergence on MAX density matrix=1.00D-06.
 Requested convergence on             energy=1.00D-06.
 No special actions if energy rises.
 Fock matrices will be formed incrementally for  20 cycles.
 Integral accuracy reduced to 1.0D-05 until final iterations.

 Cycle   1  Pass 0  IDiag  1:
 FoFJK:  IHMeth= 1 ICntrl=       0 DoSepK=F KAlg= 0 I1Cent=           0 FoldK=F
 IRaf= 890000000 NMat=       1 IRICut=       1 DoRegI=T DoRafI=F ISym2E= 0 IDoP0=0 IntGTp=1.
 FoFCou: FMM=F IPFlag=           0 FMFlag=      100000 FMFlg1=           0
         NFxFlg=           0 DoJE=F BraDBF=F KetDBF=F FulRan=T
         wScrn=  0.000000 ICntrl=         0 IOpCl=  0 I1Cent=           0 NGrid=           0
         NMat0=    1 NMatS0=      1 NMatT0=    0 NMatD0=    1 NMtDS0=    0 NMtDT0=    0
 Symmetry not used in FoFCou.
 E= -350.537530284881    
 DIIS: error= 1.39D-03 at cycle   1 NSaved=   1.
 NSaved= 1 IEnMin= 1 EnMin= -350.537530284881     IErMin= 1 ErrMin= 1.39D-03
 ErrMax= 1.39D-03  0.00D+00 EMaxC= 1.00D-01 BMatC= 1.30D-03 BMatP= 1.30D-03
 IDIUse=3 WtCom= 9.86D-01 WtEn= 1.39D-02
 Coeff-Com:  0.100D+01
 Coeff-En:   0.100D+01
 Coeff:      0.100D+01
 Gap=     0.650 Goal=   None    Shift=    0.000
 GapD=    0.650 DampG=2.000 DampE=1.000 DampFc=2.0000 IDamp=-1.
 RMSDP=1.70D-04 MaxDP=6.76D-03              OVMax= 1.02D-02

 Cycle   2  Pass 0  IDiag  1:
 RMSU=  1.70D-04    CP:  9.99D-01
 E= -350.538715050733     Delta-E=       -0.001184765852 Rises=F Damp=F
 DIIS: error= 7.74D-04 at cycle   2 NSaved=   2.
 NSaved= 2 IEnMin= 2 EnMin= -350.538715050733     IErMin= 2 ErrMin= 7.74D-04
 ErrMax= 7.74D-04  0.00D+00 EMaxC= 1.00D-01 BMatC= 2.07D-04 BMatP= 1.30D-03
 IDIUse=3 WtCom= 9.92D-01 WtEn= 7.74D-03
 Coeff-Com:  0.183D+00 0.817D+00
 Coeff-En:   0.000D+00 0.100D+01
 Coeff:      0.182D+00 0.818D+00
 Gap=     0.232 Goal=   None    Shift=    0.000
 RMSDP=1.29D-04 MaxDP=1.90D-02 DE=-1.18D-03 OVMax= 6.86D-03

 Cycle   3  Pass 0  IDiag  1:
 RMSU=  1.26D-04    CP:  1.00D+00  1.00D+00
 E= -350.538597289141     Delta-E=        0.000117761592 Rises=F Damp=F
 DIIS: error= 1.01D-03 at cycle   3 NSaved=   3.
 NSaved= 3 IEnMin= 2 EnMin= -350.538715050733     IErMin= 2 ErrMin= 7.74D-04
 ErrMax= 1.01D-03  0.00D+00 EMaxC= 1.00D-01 BMatC= 3.61D-04 BMatP= 2.07D-04
 IDIUse=3 WtCom= 2.39D-01 WtEn= 7.61D-01
 Coeff-Com:  0.499D-02 0.571D+00 0.424D+00
 Coeff-En:   0.000D+00 0.624D+00 0.376D+00
 Coeff:      0.119D-02 0.611D+00 0.388D+00
 Gap=     0.234 Goal=   None    Shift=    0.000
 RMSDP=7.44D-05 MaxDP=1.08D-02 DE= 1.18D-04 OVMax= 4.23D-03

 Cycle   4  Pass 0  IDiag  1:
 RMSU=  1.45D-05    CP:  1.00D+00  1.04D+00  4.36D-01
 E= -350.538848279852     Delta-E=       -0.000250990710 Rises=F Damp=F
 DIIS: error= 1.38D-04 at cycle   4 NSaved=   4.
 NSaved= 4 IEnMin= 4 EnMin= -350.538848279852     IErMin= 4 ErrMin= 1.38D-04
 ErrMax= 1.38D-04  0.00D+00 EMaxC= 1.00D-01 BMatC= 5.34D-06 BMatP= 2.07D-04
 IDIUse=3 WtCom= 9.99D-01 WtEn= 1.38D-03
 Coeff-Com: -0.116D-01 0.218D+00 0.160D+00 0.634D+00
 Coeff-En:   0.000D+00 0.000D+00 0.000D+00 0.100D+01
 Coeff:     -0.116D-01 0.218D+00 0.159D+00 0.635D+00
 Gap=     0.234 Goal=   None    Shift=    0.000
 RMSDP=9.51D-06 MaxDP=1.05D-03 DE=-2.51D-04 OVMax= 5.75D-04

 Cycle   5  Pass 0  IDiag  1:
 RMSU=  5.36D-06    CP:  1.00D+00  1.04D+00  3.82D-01  7.45D-01
 E= -350.538852216571     Delta-E=       -0.000003936720 Rises=F Damp=F
 DIIS: error= 2.50D-05 at cycle   5 NSaved=   5.
 NSaved= 5 IEnMin= 5 EnMin= -350.538852216571     IErMin= 5 ErrMin= 2.50D-05
 ErrMax= 2.50D-05  0.00D+00 EMaxC= 1.00D-01 BMatC= 4.30D-07 BMatP= 5.34D-06
 IDIUse=1 WtCom= 1.00D+00 WtEn= 0.00D+00
 Coeff-Com: -0.360D-02 0.448D-01 0.370D-01 0.265D+00 0.657D+00
 Coeff:     -0.360D-02 0.448D-01 0.370D-01 0.265D+00 0.657D+00
 Gap=     0.234 Goal=   None    Shift=    0.000
 RMSDP=3.93D-06 MaxDP=5.23D-04 DE=-3.94D-06 OVMax= 2.08D-04

 Initial convergence to 1.0D-05 achieved.  Increase integral accuracy.
 Cycle   6  Pass 1  IDiag  1:
 E= -350.538834396645     Delta-E=        0.000017819926 Rises=F Damp=F
 DIIS: error= 1.35D-04 at cycle   1 NSaved=   1.
 NSaved= 1 IEnMin= 1 EnMin= -350.538834396645     IErMin= 1 ErrMin= 1.35D-04
 ErrMax= 1.35D-04  0.00D+00 EMaxC= 1.00D-01 BMatC= 1.24D-06 BMatP= 1.24D-06
 IDIUse=3 WtCom= 9.99D-01 WtEn= 1.35D-03
 Coeff-Com:  0.100D+01
 Coeff-En:   0.100D+01
 Coeff:      0.100D+01
 Gap=     0.234 Goal=   None    Shift=    0.000
 RMSDP=3.93D-06 MaxDP=5.23D-04 DE= 1.78D-05 OVMax= 2.86D-04

 Cycle   7  Pass 1  IDiag  1:
 RMSU=  6.44D-05    CP:  1.00D+00
 E= -350.538835210421     Delta-E=       -0.000000813775 Rises=F Damp=F
 DIIS: error= 6.58D-06 at cycle   2 NSaved=   2.
 NSaved= 2 IEnMin= 2 EnMin= -350.538835210421     IErMin= 2 ErrMin= 6.58D-06
 ErrMax= 6.58D-06  0.00D+00 EMaxC= 1.00D-01 BMatC= 1.89D-08 BMatP= 1.24D-06
 IDIUse=1 WtCom= 1.00D+00 WtEn= 0.00D+00
 Coeff-Com:  0.204D-01 0.980D+00
 Coeff:      0.204D-01 0.980D+00
 Gap=     0.234 Goal=   None    Shift=    0.000
 RMSDP=1.66D-06 MaxDP=1.36D-04 DE=-8.14D-07 OVMax= 4.94D-05

 Cycle   8  Pass 1  IDiag  1:
 RMSU=  1.25D-06    CP:  1.00D+00  1.02D+00
 E= -350.538835199904     Delta-E=        0.000000010517 Rises=F Damp=F
 DIIS: error= 7.80D-06 at cycle   3 NSaved=   3.
 NSaved= 3 IEnMin= 2 EnMin= -350.538835210421     IErMin= 2 ErrMin= 6.58D-06
 ErrMax= 7.80D-06  0.00D+00 EMaxC= 1.00D-01 BMatC= 3.00D-08 BMatP= 1.89D-08
 IDIUse=1 WtCom= 1.00D+00 WtEn= 0.00D+00
 Coeff-Com: -0.303D-02 0.559D+00 0.444D+00
 Coeff:     -0.303D-02 0.559D+00 0.444D+00
 Gap=     0.234 Goal=   None    Shift=    0.000
 RMSDP=5.73D-07 MaxDP=6.62D-05 DE= 1.05D-08 OVMax= 2.80D-05

 Cycle   9  Pass 1  IDiag  1:
 RMSU=  2.35D-07    CP:  1.00D+00  1.02D+00  5.90D-01
 E= -350.538835229452     Delta-E=       -0.000000029547 Rises=F Damp=F
 DIIS: error= 6.93D-07 at cycle   4 NSaved=   4.
 NSaved= 4 IEnMin= 4 EnMin= -350.538835229452     IErMin= 4 ErrMin= 6.93D-07
 ErrMax= 6.93D-07  0.00D+00 EMaxC= 1.00D-01 BMatC= 2.90D-10 BMatP= 1.89D-08
 IDIUse=1 WtCom= 1.00D+00 WtEn= 0.00D+00
 Coeff-Com: -0.190D-02 0.277D+00 0.229D+00 0.496D+00
 Coeff:     -0.190D-02 0.277D+00 0.229D+00 0.496D+00
 Gap=     0.234 Goal=   None    Shift=    0.000
 RMSDP=5.46D-08 MaxDP=5.72D-06 DE=-2.95D-08 OVMax= 4.10D-06

 Cycle  10  Pass 1  IDiag  1:
 RMSU=  4.40D-08    CP:  1.00D+00  1.02D+00  6.05D-01  8.96D-01
 E= -350.538835229655     Delta-E=       -0.000000000203 Rises=F Damp=F
 DIIS: error= 4.25D-07 at cycle   5 NSaved=   5.
 NSaved= 5 IEnMin= 5 EnMin= -350.538835229655     IErMin= 5 ErrMin= 4.25D-07
 ErrMax= 4.25D-07  0.00D+00 EMaxC= 1.00D-01 BMatC= 4.89D-11 BMatP= 2.90D-10
 IDIUse=1 WtCom= 1.00D+00 WtEn= 0.00D+00
 Coeff-Com: -0.984D-03 0.135D+00 0.113D+00 0.327D+00 0.426D+00
 Coeff:     -0.984D-03 0.135D+00 0.113D+00 0.327D+00 0.426D+00
 Gap=     0.234 Goal=   None    Shift=    0.000
 RMSDP=2.61D-08 MaxDP=3.40D-06 DE=-2.03D-10 OVMax= 1.73D-06

 Cycle  11  Pass 1  IDiag  1:
 RMSU=  1.69D-08    CP:  1.00D+00  1.02D+00  5.92D-01  9.16D-01  8.19D-01
 E= -350.538835229686     Delta-E=       -0.000000000031 Rises=F Damp=F
 DIIS: error= 5.91D-08 at cycle   6 NSaved=   6.
 NSaved= 6 IEnMin= 6 EnMin= -350.538835229686     IErMin= 6 ErrMin= 5.91D-08
 ErrMax= 5.91D-08  0.00D+00 EMaxC= 1.00D-01 BMatC= 1.65D-12 BMatP= 4.89D-11
 IDIUse=1 WtCom= 1.00D+00 WtEn= 0.00D+00
 Coeff-Com: -0.165D-03 0.205D-01 0.172D-01 0.658D-01 0.181D+00 0.716D+00
 Coeff:     -0.165D-03 0.205D-01 0.172D-01 0.658D-01 0.181D+00 0.716D+00
 Gap=     0.234 Goal=   None    Shift=    0.000
 RMSDP=1.03D-08 MaxDP=1.27D-06 DE=-3.09D-11 OVMax= 6.65D-07

 Cycle  12  Pass 1  IDiag  1:
 RMSU=  4.40D-09    CP:  1.00D+00  1.02D+00  5.98D-01  9.23D-01  8.75D-01
                    CP:  8.03D-01
 E= -350.538835229686     Delta-E=        0.000000000000 Rises=F Damp=F
 DIIS: error= 1.61D-08 at cycle   7 NSaved=   7.
 NSaved= 7 IEnMin= 6 EnMin= -350.538835229686     IErMin= 7 ErrMin= 1.61D-08
 ErrMax= 1.61D-08  0.00D+00 EMaxC= 1.00D-01 BMatC= 2.41D-13 BMatP= 1.65D-12
 IDIUse=1 WtCom= 1.00D+00 WtEn= 0.00D+00
 Coeff-Com:  0.603D-04-0.929D-02-0.765D-02-0.158D-01 0.291D-01 0.329D+00
 Coeff-Com:  0.675D+00
 Coeff:      0.603D-04-0.929D-02-0.765D-02-0.158D-01 0.291D-01 0.329D+00
 Coeff:      0.675D+00
 Gap=     0.234 Goal=   None    Shift=    0.000
 RMSDP=2.13D-09 MaxDP=1.54D-07 DE= 0.00D+00 OVMax= 2.87D-07

 SCF Done:  E(RB3LYP) =  -350.538835230     A.U. after   12 cycles
            NFock= 12  Conv=0.21D-08     -V/T= 2.0053
 KE= 3.487058783197D+02 PE=-1.535305858162D+03 EE= 4.757277656004D+02
 Leave Link  502 at Wed Feb  7 19:33:43 2024, MaxMem=  6710886400 cpu:             566.6 elap:              35.4
 (Enter /tmpu/scunam/7/gaussian-2016.03/g1/g16/l508.exe)
 QCSCF skips out because SCF is already converged.
 Leave Link  508 at Wed Feb  7 19:33:43 2024, MaxMem=  6710886400 cpu:               0.0 elap:               0.0
 (Enter /tmpu/scunam/7/gaussian-2016.03/g1/g16/l701.exe)
 ... and contract with generalized density number  0.
 Compute integral first derivatives.
   1 Symmetry operations used in ECPInt.
 ECPInt:  NShTT=   10440 NPrTT=   30108 LenC2=    9713 LenP2D=   21941.
 LDataN:  DoStor=T MaxTD1= 7 Len=  274
 Leave Link  701 at Wed Feb  7 19:33:44 2024, MaxMem=  6710886400 cpu:               3.4 elap:               0.2
 (Enter /tmpu/scunam/7/gaussian-2016.03/g1/g16/l702.exe)
 L702 exits ... SP integral derivatives will be done elsewhere.
 Leave Link  702 at Wed Feb  7 19:33:44 2024, MaxMem=  6710886400 cpu:               0.3 elap:               0.0
 (Enter /tmpu/scunam/7/gaussian-2016.03/g1/g16/l703.exe)
 Integral derivatives from FoFJK, PRISM(SPDF).
 Compute integral first derivatives, UseDBF=F ICtDFT=           0.
 Calling FoFJK, ICntrl=      2127 FMM=F ISym2X=0 I1Cent= 0 IOpClX= 0 NMat=1 NMatS=1 NMatT=0.
 FoFJK:  IHMeth= 1 ICntrl=    2127 DoSepK=F KAlg= 0 I1Cent=           0 FoldK=F
 IRaf=         0 NMat=       1 IRICut=       1 DoRegI=T DoRafI=F ISym2E= 0 IDoP0=0 IntGTp=1.
 FoFCou: FMM=F IPFlag=           0 FMFlag=      100000 FMFlg1=         800
         NFxFlg=           0 DoJE=F BraDBF=F KetDBF=F FulRan=T
         wScrn=  0.000000 ICntrl=      2127 IOpCl=  0 I1Cent=           0 NGrid=           0
         NMat0=    1 NMatS0=      1 NMatT0=    0 NMatD0=    1 NMtDS0=    0 NMtDT0=    0
 Symmetry not used in FoFCou.
 Leave Link  703 at Wed Feb  7 19:33:55 2024, MaxMem=  6710886400 cpu:             176.5 elap:              11.1
 (Enter /tmpu/scunam/7/gaussian-2016.03/g1/g16/l716.exe)
 Dipole        = 4.23411485D-01 9.42524760D-01 3.68104329D-02
 ***** Axes restored to original set *****
 -------------------------------------------------------------------
 Center     Atomic                   Forces (Hartrees/Bohr)
 Number     Number              X              Y              Z
 -------------------------------------------------------------------
      1        8           0.004062469    0.026180217    0.001148868
      2        6           0.000076410    0.000596544   -0.000997002
      3        6          -0.000448658   -0.000896444    0.001003986
      4        6           0.000110210   -0.001287758    0.002710741
      5        6           0.000162709    0.000907117   -0.000592955
      6        6          -0.000611017    0.001828977   -0.006926437
      7        6           0.000498396   -0.000472783    0.000252365
      8        6          -0.002849868   -0.028601275   -0.007979201
      9        1          -0.000001018   -0.000203129    0.000330702
     10        1          -0.000077309    0.000122964    0.000228070
     11        1          -0.000108192    0.000262054   -0.000363910
     12        1          -0.000063743   -0.000301670   -0.000694173
     13        1          -0.000480064    0.000124831   -0.000295846
     14        1           0.000328942    0.000037917   -0.000664407
     15        1           0.000139847    0.000187042    0.000370146
     16        1           0.000172409    0.000079059    0.000111850
     17        1           0.001693197    0.003675156    0.004411390
     18        1          -0.001090378   -0.003469258    0.004757454
     19        1           0.000390691    0.000317003    0.000105630
     20        1          -0.000050456   -0.000275718    0.000243150
     21        1          -0.000047357   -0.000188967   -0.000417401
     22        1          -0.001807221    0.001378121    0.003256978
 -------------------------------------------------------------------
 Cartesian Forces:  Max     0.028601275 RMS     0.005147940
 Leave Link  716 at Wed Feb  7 19:33:55 2024, MaxMem=  6710886400 cpu:               0.3 elap:               0.0
 (Enter /tmpu/scunam/7/gaussian-2016.03/g1/g16/l103.exe)

 GradGradGradGradGradGradGradGradGradGradGradGradGradGradGradGradGradGrad
 Berny optimization.
 Search for a local minimum.
 Step number   9 out of a maximum of  132
 All quantities printed in internal units (Hartrees-Bohrs-Radians)
 Update second derivatives using D2CorN and points    2    3    4    7    5

 ITU=  0  0 -1  0  0  1  1  1  0
 Skip linear search -- no minimum in search direction.
 Steepest descent instead of Quadratic search.
 Steepest descent step scaled to max of 0.05000.
 B after Tr=    -0.000000    0.000000   -0.000000
         Rot=    1.000000   -0.000000   -0.000000   -0.000000 Ang=  -0.00 deg.
 Variable       Old X    -DE/DX   Delta X   Delta X   Delta X     New X
                                 (Linear)    (Quad)   (Total)
    X1        6.66399   0.00406   0.00000   0.00710   0.00710   6.67109
    Y1        1.92221   0.02618   0.00000   0.04577   0.04577   1.96798
    Z1       -0.23125   0.00115   0.00000   0.00201   0.00201  -0.22925
    X2       -0.99258   0.00008   0.00000   0.00013   0.00013  -0.99244
    Y2       -1.18456   0.00060   0.00000   0.00104   0.00104  -1.18352
    Z2        0.03423  -0.00100   0.00000  -0.00174  -0.00174   0.03249
    X3       -3.25955  -0.00045   0.00000  -0.00078  -0.00078  -3.26034
    Y3        0.60976  -0.00090   0.00000  -0.00157  -0.00157   0.60819
    Z3        0.09172   0.00100   0.00000   0.00176   0.00176   0.09347
    X4        1.54954   0.00011   0.00000   0.00019   0.00019   1.54973
    Y4        0.19187  -0.00129   0.00000  -0.00225  -0.00225   0.18962
    Z4        0.06820   0.00271   0.00000   0.00474   0.00474   0.07294
    X5       -5.81671   0.00016   0.00000   0.00028   0.00028  -5.81642
    Y5       -0.73327   0.00091   0.00000   0.00159   0.00159  -0.73169
    Z5       -0.08359  -0.00059   0.00000  -0.00104  -0.00104  -0.08463
    X6        3.81388  -0.00061   0.00000  -0.00107  -0.00107   3.81281
    Y6       -1.59403   0.00183   0.00000   0.00320   0.00320  -1.59083
    Z6        0.05289  -0.00693   0.00000  -0.01211  -0.01211   0.04079
    X7       -8.06522   0.00050   0.00000   0.00087   0.00087  -8.06435
    Y7        1.08188  -0.00047   0.00000  -0.00083  -0.00083   1.08105
    Z7       -0.01847   0.00025   0.00000   0.00044   0.00044  -0.01803
    X8        6.35326  -0.00285   0.00000  -0.00498  -0.00498   6.34827
    Y8       -0.29072  -0.02860   0.00000  -0.05000  -0.05000  -0.34072
    Z8       -0.02330  -0.00798   0.00000  -0.01395  -0.01395  -0.03725
    X9       -1.10502  -0.00000   0.00000  -0.00000  -0.00000  -1.10502
    Y9       -2.48122  -0.00020   0.00000  -0.00036  -0.00036  -2.48157
    Z9        1.64407   0.00033   0.00000   0.00058   0.00058   1.64465
   X10       -1.10441  -0.00008   0.00000  -0.00014  -0.00014  -1.10454
   Y10       -2.36913   0.00012   0.00000   0.00021   0.00022  -2.36892
   Z10       -1.66307   0.00023   0.00000   0.00040   0.00040  -1.66268
   X11       -3.09463  -0.00011   0.00000  -0.00019  -0.00019  -3.09482
   Y11        1.96236   0.00026   0.00000   0.00046   0.00046   1.96282
   Z11       -1.46609  -0.00036   0.00000  -0.00064  -0.00064  -1.46673
   X12       -3.19497  -0.00006   0.00000  -0.00011  -0.00011  -3.19508
   Y12        1.73313  -0.00030   0.00000  -0.00053  -0.00053   1.73260
   Z12        1.83327  -0.00069   0.00000  -0.00121  -0.00121   1.83206
   X13        1.67117  -0.00048   0.00000  -0.00084  -0.00084   1.67033
   Y13        1.39920   0.00012   0.00000   0.00022   0.00022   1.39942
   Z13        1.74271  -0.00030   0.00000  -0.00052  -0.00052   1.74220
   X14        1.67770   0.00033   0.00000   0.00058   0.00057   1.67827
   Y14        1.46829   0.00004   0.00000   0.00007   0.00007   1.46835
   Z14       -1.54789  -0.00066   0.00000  -0.00116  -0.00116  -1.54905
   X15       -5.88226   0.00014   0.00000   0.00024   0.00024  -5.88201
   Y15       -1.84249   0.00019   0.00000   0.00033   0.00033  -1.84216
   Z15       -1.83127   0.00037   0.00000   0.00065   0.00065  -1.83062
   X16       -5.98603   0.00017   0.00000   0.00030   0.00030  -5.98572
   Y16       -2.09575   0.00008   0.00000   0.00014   0.00014  -2.09561
   Z16        1.46493   0.00011   0.00000   0.00020   0.00020   1.46513
   X17        3.74210   0.00169   0.00000   0.00296   0.00296   3.74506
   Y17       -2.87859   0.00368   0.00000   0.00642   0.00643  -2.87216
   Z17       -1.60051   0.00441   0.00000   0.00771   0.00771  -1.59279
   X18        3.82389  -0.00109   0.00000  -0.00191  -0.00191   3.82198
   Y18       -2.84747  -0.00347   0.00000  -0.00606  -0.00606  -2.85353
   Z18        1.68317   0.00476   0.00000   0.00832   0.00832   1.69149
   X19       -9.85612   0.00039   0.00000   0.00068   0.00068  -9.85544
   Y19        0.06701   0.00032   0.00000   0.00055   0.00055   0.06756
   Z19       -0.17756   0.00011   0.00000   0.00018   0.00019  -0.17737
   X20       -7.97205  -0.00005   0.00000  -0.00009  -0.00009  -7.97214
   Y20        2.44026  -0.00028   0.00000  -0.00048  -0.00048   2.43978
   Z20       -1.57260   0.00024   0.00000   0.00043   0.00043  -1.57218
   X21       -8.10543  -0.00005   0.00000  -0.00008  -0.00008  -8.10551
   Y21        2.15617  -0.00019   0.00000  -0.00033  -0.00033   2.15584
   Z21        1.74639  -0.00042   0.00000  -0.00073  -0.00073   1.74566
   X22        8.00620  -0.00181   0.00000  -0.00316  -0.00316   8.00304
   Y22       -1.60873   0.00138   0.00000   0.00241   0.00241  -1.60632
   Z22       -0.03015   0.00326   0.00000   0.00569   0.00569  -0.02446
         Item               Value     Threshold  Converged?
 Maximum Force            0.028601     0.000450     NO 
 RMS     Force            0.005148     0.000300     NO 
 Maximum Displacement     0.050000     0.001800     NO 
 RMS     Displacement     0.008999     0.001200     NO 
 Predicted change in Energy=-2.787671D-03
 GradGradGradGradGradGradGradGradGradGradGradGradGradGradGradGradGradGrad

 Leave Link  103 at Wed Feb  7 19:33:55 2024, MaxMem=  6710886400 cpu:               0.3 elap:               0.0
 (Enter /tmpu/scunam/7/gaussian-2016.03/g1/g16/l202.exe)
                          Input orientation:                          
 ---------------------------------------------------------------------
 Center     Atomic      Atomic             Coordinates (Angstroms)
 Number     Number       Type             X           Y           Z
 ---------------------------------------------------------------------
      1          8           0        3.530191    1.041409   -0.121311
      2          6           0       -0.525178   -0.626290    0.017194
      3          6           0       -1.725295    0.321843    0.049464
      4          6           0        0.820083    0.100341    0.038598
      5          6           0       -3.077919   -0.387193   -0.044784
      6          6           0        2.017652   -0.841831    0.021583
      7          6           0       -4.267471    0.572067   -0.009541
      8          6           0        3.359361   -0.180299   -0.019710
      9          1           0       -0.584750   -1.313192    0.870311
     10          1           0       -0.584500   -1.253577   -0.879850
     11          1           0       -1.637710    1.038678   -0.776158
     12          1           0       -1.690765    0.916851    0.969482
     13          1           0        0.883903    0.740541    0.921930
     14          1           0        0.888103    0.777020   -0.819720
     15          1           0       -3.112626   -0.974831   -0.968724
     16          1           0       -3.167509   -1.108951    0.775312
     17          1           0        1.981801   -1.519884   -0.842871
     18          1           0        2.022505   -1.510025    0.895098
     19          1           0       -5.215273    0.035753   -0.093861
     20          1           0       -4.218676    1.291076   -0.831960
     21          1           0       -4.289252    1.140823    0.923764
     22          1           0        4.235025   -0.850029   -0.012944
 ---------------------------------------------------------------------
                    Distance matrix (angstroms):
                    1          2          3          4          5
     1  O    0.000000
     2  C    4.387074   0.000000
     3  C    5.307266   1.529797   0.000000
     4  C    2.873302   1.529110   2.555021   0.000000
     5  C    6.761204   2.564662   1.530099   3.929257   0.000000
     6  C    2.419666   2.551953   3.919767   1.523861   5.116243
     7  C    7.812573   3.929570   2.555141   5.109603   1.528546
     8  C    1.237771   3.910233   5.109860   2.555405   6.440653
     9  H    4.843573   1.096901   2.155915   2.159485   2.812608
    10  H    4.772108   1.096219   2.155687   2.156268   2.768591
    11  H    5.209225   2.153892   1.096894   2.754097   2.154581
    12  H    5.335141   2.155628   1.096204   2.799570   2.157189
    13  H    2.860369   2.161547   2.782880   1.092796   4.231117
    14  H    2.745597   2.160340   2.791509   1.095094   4.205383
    15  H    6.993593   2.790771   2.154705   4.199630   1.095531
    16  H    7.091344   2.790988   2.157314   4.231550   1.096138
    17  H    3.078698   2.796993   4.234476   2.179841   5.246018
    18  H    3.133053   2.835912   4.256389   2.184649   5.306455
    19  H    8.803138   4.737892   3.504616   6.037155   2.179352
    20  H    7.785389   4.247267   2.816606   5.250220   2.176593
    21  H    7.889597   4.255914   2.830018   5.288801   2.177210
    22  H    2.021404   4.765554   6.074751   3.545094   7.327645
                    6          7          8          9         10
     6  C    0.000000
     7  C    6.442270   0.000000
     8  C    1.496500   7.663858   0.000000
     9  H    2.777592   4.229748   4.199000   0.000000
    10  H    2.784477   4.201748   4.176818   1.751177   0.000000
    11  H    4.187407   2.778681   5.198927   3.057920   2.524765
    12  H    4.212344   2.777908   5.261751   2.491224   3.058532
    13  H    2.144741   5.237621   2.804020   2.525356   3.062536
    14  H    2.145775   5.222867   2.768319   3.065043   2.509083
    15  H    5.226677   2.155595   6.589274   3.144312   2.545000
    16  H    5.246461   2.156787   6.640368   2.592563   3.071224
    17  H    1.099237   6.642597   2.090395   3.092718   2.580346
    18  H    1.099789   6.687098   2.095764   2.614793   3.164282
    19  H    7.286885   1.092278   8.577677   4.918437   4.870751
    20  H    6.646023   1.093493   7.762174   4.783864   4.436754
    21  H    6.672472   1.093167   7.819002   4.443915   4.765644
    22  H    2.217657   8.620603   1.102438   4.921879   4.913471
                   11         12         13         14         15
    11  H    0.000000
    12  H    1.750691   0.000000
    13  H    3.054656   2.581136   0.000000
    14  H    2.539704   3.141873   1.742037   0.000000
    15  H    2.503333   3.058887   4.742290   4.370014   0.000000
    16  H    3.059355   2.514428   4.456013   4.748579   1.750046
    17  H    4.433007   4.765506   3.070737   2.544107   5.125048
    18  H    4.762999   4.436625   2.522337   3.075393   5.489066
    19  H    3.777611   3.785391   6.223223   6.190925   2.491543
    20  H    2.593878   3.126591   5.423608   5.132601   2.525150
    21  H    3.151324   2.608522   5.188618   5.475134   3.072775
    22  H    6.216006   6.261152   3.825431   3.807894   7.410605
                   16         17         18         19         20
    16  H    0.000000
    17  H    5.413204   0.000000
    18  H    5.206866   1.738473   0.000000
    19  H    2.501829   7.401277   7.466787   0.000000
    20  H    3.073825   6.807902   7.055582   1.764605   0.000000
    21  H    2.518299   7.037504   6.845882   1.764725   1.763553
    22  H    7.448886   2.492890   2.481004   9.492065   8.759006
                   21         22
    21  H    0.000000
    22  H    8.803648   0.000000
 Stoichiometry    C7H14O
 Framework group  C1[X(C7H14O)]
 Deg. of freedom    60
 Full point group                 C1      NOp   1
 RotChk:  IX=0 Diff= 1.55D-03
 Largest Abelian subgroup         C1      NOp   1
 Largest concise Abelian subgroup C1      NOp   1
                         Standard orientation:                         
 ---------------------------------------------------------------------
 Center     Atomic      Atomic             Coordinates (Angstroms)
 Number     Number       Type             X           Y           Z
 ---------------------------------------------------------------------
      1          8           0       -3.618466   -1.105923   -0.055969
      2          6           0        0.412291    0.625008    0.001422
      3          6           0        1.626535   -0.303680    0.059969
      4          6           0       -0.921880   -0.120119    0.055739
      5          6           0        2.967956    0.421427   -0.066574
      6          6           0       -2.133410    0.803183    0.012630
      7          6           0        4.171817   -0.518431   -0.004608
      8          6           0       -3.465319    0.120968    0.001999
      9          1           0        0.466003    1.342111    0.829716
     10          1           0        0.457674    1.221361   -0.917273
     11          1           0        1.545399   -1.050145   -0.739645
     12          1           0        1.605577   -0.866610    1.000359
     13          1           0       -0.971640   -0.729921    0.961206
     14          1           0       -0.984219   -0.827312   -0.778061
     15          1           0        2.989181    0.976857   -1.010627
     16          1           0        3.050995    1.172648    0.727333
     17          1           0       -2.112083    1.451059   -0.875132
     18          1           0       -2.143732    1.501358    0.862325
     19          1           0        5.111089    0.028477   -0.112924
     20          1           0        4.129516   -1.266387   -0.801163
     21          1           0        4.206841   -1.053836    0.947826
     22          1           0       -4.350807    0.777586   -0.009657
 ---------------------------------------------------------------------
 Rotational constants (GHZ):           7.8317922           0.5677125           0.5400624
 Leave Link  202 at Wed Feb  7 19:33:55 2024, MaxMem=  6710886400 cpu:               0.2 elap:               0.0
 (Enter /tmpu/scunam/7/gaussian-2016.03/g1/g16/l301.exe)
 Standard basis: def2TZVP (5D, 7F)
 Ernie: Thresh=  0.10000D-02 Tol=  0.10000D-05 Strict=F.
 There are   372 symmetry adapted cartesian basis functions of A   symmetry.
 There are   332 symmetry adapted basis functions of A   symmetry.
   332 basis functions,   520 primitive gaussians,   372 cartesian basis functions
    32 alpha electrons       32 beta electrons
       nuclear repulsion energy       359.5085947702 Hartrees.
 IExCor=  402 DFT=T Ex+Corr=B3LYP ExCW=0 ScaHFX=  0.200000
 ScaDFX=  0.800000  0.720000  1.000000  0.810000 ScalE2=  1.000000  1.000000
 IRadAn=      5 IRanWt=     -1 IRanGd=            0 ICorTp=0 IEmpDi=  4
 NAtoms=   22 NActive=   22 NUniq=   22 SFac= 1.00D+00 NAtFMM=   60 NAOKFM=F Big=F
 Integral buffers will be    131072 words long.
 Raffenetti 2 integral format.
 Two-electron integral symmetry is turned on.
 Leave Link  301 at Wed Feb  7 19:33:55 2024, MaxMem=  6710886400 cpu:               0.7 elap:               0.1
 (Enter /tmpu/scunam/7/gaussian-2016.03/g1/g16/l302.exe)
 NPDir=0 NMtPBC=     1 NCelOv=     1 NCel=       1 NClECP=     1 NCelD=      1
         NCelK=      1 NCelE2=     1 NClLst=     1 CellRange=     0.0.
 One-electron integrals computed using PRISM.
 One-electron integral symmetry used in STVInt
   1 Symmetry operations used in ECPInt.
 ECPInt:  NShTT=   10440 NPrTT=   30108 LenC2=    9713 LenP2D=   21935.
 LDataN:  DoStor=T MaxTD1= 6 Len=  172
 NBasis=   332 RedAO= T EigKep=  8.38D-05  NBF=   332
 NBsUse=   332 1.00D-06 EigRej= -1.00D+00 NBFU=   332
 Precomputing XC quadrature grid using
 IXCGrd= 4 IRadAn=           5 IRanWt=          -1 IRanGd=           0 AccXCQ= 0.00D+00.
 Generated NRdTot=       0 NPtTot=           0 NUsed=           0 NTot=          32
 NSgBfM=   367   367   367   367   367 MxSgAt=    22 MxSgA2=    22.
 Leave Link  302 at Wed Feb  7 19:33:55 2024, MaxMem=  6710886400 cpu:               5.3 elap:               0.4
 (Enter /tmpu/scunam/7/gaussian-2016.03/g1/g16/l303.exe)
 DipDrv:  MaxL=1.
 Leave Link  303 at Wed Feb  7 19:33:55 2024, MaxMem=  6710886400 cpu:               0.7 elap:               0.1
 (Enter /tmpu/scunam/7/gaussian-2016.03/g1/g16/l401.exe)
 Initial guess from the checkpoint file:  "Heptanal.chk"
 B after Tr=     0.000000   -0.000000   -0.000000
         Rot=    1.000000    0.000236   -0.000015    0.000095 Ang=   0.03 deg.
 Guess basis will be translated and rotated to current coordinates.
 JPrj=2 DoOrth=T DoCkMO=T.
 Generating alternative initial guess.
 ExpMin= 9.52D-02 ExpMax= 2.70D+04 ExpMxC= 9.22D+02 IAcc=2 IRadAn=         4 AccDes= 0.00D+00
 Harris functional with IExCor=  402 and IRadAn=       4 diagonalized for initial guess.
 HarFok:  IExCor=  402 AccDes= 0.00D+00 IRadAn=         4 IDoV= 1 UseB2=F ITyADJ=14
 ICtDFT=  3500011 ScaDFX=  1.000000  1.000000  1.000000  1.000000
 FoFCou: FMM=F IPFlag=           0 FMFlag=      100000 FMFlg1=           0
         NFxFlg=           0 DoJE=T BraDBF=F KetDBF=T FulRan=T
         wScrn=  0.000000 ICntrl=       500 IOpCl=  0 I1Cent=   200000004 NGrid=           0
         NMat0=    1 NMatS0=      1 NMatT0=    0 NMatD0=    1 NMtDS0=    0 NMtDT0=    0
 Petite list used in FoFCou.
 Harris En= -350.628148456842    
 Leave Link  401 at Wed Feb  7 19:33:56 2024, MaxMem=  6710886400 cpu:              13.5 elap:               0.9
 (Enter /tmpu/scunam/7/gaussian-2016.03/g1/g16/l502.exe)
 Integral symmetry usage will be decided dynamically.
 Closed shell SCF:
 Using DIIS extrapolation, IDIIS=  1040.
 NGot=  6710886400 LenX=  6710600118 LenY=  6710461293
 Requested convergence on RMS density matrix=1.00D-08 within 128 cycles.
 Requested convergence on MAX density matrix=1.00D-06.
 Requested convergence on             energy=1.00D-06.
 No special actions if energy rises.
 Fock matrices will be formed incrementally for  20 cycles.
 Integral accuracy reduced to 1.0D-05 until final iterations.

 Cycle   1  Pass 0  IDiag  1:
 FoFJK:  IHMeth= 1 ICntrl=       0 DoSepK=F KAlg= 0 I1Cent=           0 FoldK=F
 IRaf= 890000000 NMat=       1 IRICut=       1 DoRegI=T DoRafI=F ISym2E= 0 IDoP0=0 IntGTp=1.
 FoFCou: FMM=F IPFlag=           0 FMFlag=      100000 FMFlg1=           0
         NFxFlg=           0 DoJE=F BraDBF=F KetDBF=F FulRan=T
         wScrn=  0.000000 ICntrl=         0 IOpCl=  0 I1Cent=           0 NGrid=           0
         NMat0=    1 NMatS0=      1 NMatT0=    0 NMatD0=    1 NMtDS0=    0 NMtDT0=    0
 Symmetry not used in FoFCou.
 E= -350.535610452859    
 DIIS: error= 2.58D-03 at cycle   1 NSaved=   1.
 NSaved= 1 IEnMin= 1 EnMin= -350.535610452859     IErMin= 1 ErrMin= 2.58D-03
 ErrMax= 2.58D-03  0.00D+00 EMaxC= 1.00D-01 BMatC= 2.73D-03 BMatP= 2.73D-03
 IDIUse=3 WtCom= 9.74D-01 WtEn= 2.58D-02
 Coeff-Com:  0.100D+01
 Coeff-En:   0.100D+01
 Coeff:      0.100D+01
 Gap=     0.645 Goal=   None    Shift=    0.000
 GapD=    0.645 DampG=2.000 DampE=1.000 DampFc=2.0000 IDamp=-1.
 RMSDP=2.39D-04 MaxDP=1.58D-02              OVMax= 1.97D-02

 Cycle   2  Pass 0  IDiag  1:
 RMSU=  2.38D-04    CP:  1.00D+00
 E= -350.537358784252     Delta-E=       -0.001748331393 Rises=F Damp=F
 DIIS: error= 1.48D-03 at cycle   2 NSaved=   2.
 NSaved= 2 IEnMin= 2 EnMin= -350.537358784252     IErMin= 2 ErrMin= 1.48D-03
 ErrMax= 1.48D-03  0.00D+00 EMaxC= 1.00D-01 BMatC= 8.68D-04 BMatP= 2.73D-03
 IDIUse=3 WtCom= 9.85D-01 WtEn= 1.48D-02
 Coeff-Com:  0.302D+00 0.698D+00
 Coeff-En:   0.000D+00 0.100D+01
 Coeff:      0.298D+00 0.702D+00
 Gap=     0.228 Goal=   None    Shift=    0.000
 RMSDP=2.30D-04 MaxDP=3.35D-02 DE=-1.75D-03 OVMax= 1.47D-02

 Cycle   3  Pass 0  IDiag  1:
 RMSU=  1.98D-04    CP:  9.97D-01  5.44D-01
 E= -350.537055299790     Delta-E=        0.000303484462 Rises=F Damp=F
 DIIS: error= 1.69D-03 at cycle   3 NSaved=   3.
 NSaved= 3 IEnMin= 2 EnMin= -350.537358784252     IErMin= 2 ErrMin= 1.48D-03
 ErrMax= 1.69D-03  0.00D+00 EMaxC= 1.00D-01 BMatC= 1.20D-03 BMatP= 8.68D-04
 IDIUse=3 WtCom= 1.96D-01 WtEn= 8.04D-01
 Coeff-Com:  0.317D-01 0.534D+00 0.435D+00
 Coeff-En:   0.000D+00 0.580D+00 0.420D+00
 Coeff:      0.621D-02 0.571D+00 0.423D+00
 Gap=     0.224 Goal=   None    Shift=    0.000
 RMSDP=1.29D-04 MaxDP=1.81D-02 DE= 3.03D-04 OVMax= 9.78D-03

 Cycle   4  Pass 0  IDiag  1:
 RMSU=  2.49D-05    CP:  1.00D+00  8.23D-01  4.74D-01
 E= -350.537917373654     Delta-E=       -0.000862073864 Rises=F Damp=F
 DIIS: error= 2.27D-04 at cycle   4 NSaved=   4.
 NSaved= 4 IEnMin= 4 EnMin= -350.537917373654     IErMin= 4 ErrMin= 2.27D-04
 ErrMax= 2.27D-04  0.00D+00 EMaxC= 1.00D-01 BMatC= 1.57D-05 BMatP= 8.68D-04
 IDIUse=3 WtCom= 9.98D-01 WtEn= 2.27D-03
 Coeff-Com: -0.758D-02 0.210D+00 0.170D+00 0.627D+00
 Coeff-En:   0.000D+00 0.000D+00 0.000D+00 0.100D+01
 Coeff:     -0.756D-02 0.210D+00 0.170D+00 0.628D+00
 Gap=     0.224 Goal=   None    Shift=    0.000
 RMSDP=1.79D-05 MaxDP=2.28D-03 DE=-8.62D-04 OVMax= 9.44D-04

 Cycle   5  Pass 0  IDiag  1:
 RMSU=  8.40D-06    CP:  1.00D+00  8.58D-01  4.15D-01  7.43D-01
 E= -350.537929665410     Delta-E=       -0.000012291756 Rises=F Damp=F
 DIIS: error= 4.43D-05 at cycle   5 NSaved=   5.
 NSaved= 5 IEnMin= 5 EnMin= -350.537929665410     IErMin= 5 ErrMin= 4.43D-05
 ErrMax= 4.43D-05  0.00D+00 EMaxC= 1.00D-01 BMatC= 1.11D-06 BMatP= 1.57D-05
 IDIUse=1 WtCom= 1.00D+00 WtEn= 0.00D+00
 Coeff-Com: -0.317D-02 0.451D-01 0.420D-01 0.257D+00 0.659D+00
 Coeff:     -0.317D-02 0.451D-01 0.420D-01 0.257D+00 0.659D+00
 Gap=     0.224 Goal=   None    Shift=    0.000
 RMSDP=6.94D-06 MaxDP=9.56D-04 DE=-1.23D-05 OVMax= 3.50D-04

 Initial convergence to 1.0D-05 achieved.  Increase integral accuracy.
 Cycle   6  Pass 1  IDiag  1:
 E= -350.537913501312     Delta-E=        0.000016164098 Rises=F Damp=F
 DIIS: error= 1.12D-04 at cycle   1 NSaved=   1.
 NSaved= 1 IEnMin= 1 EnMin= -350.537913501312     IErMin= 1 ErrMin= 1.12D-04
 ErrMax= 1.12D-04  0.00D+00 EMaxC= 1.00D-01 BMatC= 1.30D-06 BMatP= 1.30D-06
 IDIUse=3 WtCom= 9.99D-01 WtEn= 1.12D-03
 Coeff-Com:  0.100D+01
 Coeff-En:   0.100D+01
 Coeff:      0.100D+01
 Gap=     0.224 Goal=   None    Shift=    0.000
 RMSDP=6.94D-06 MaxDP=9.56D-04 DE= 1.62D-05 OVMax= 2.84D-04

 Cycle   7  Pass 1  IDiag  1:
 RMSU=  6.55D-05    CP:  1.00D+00
 E= -350.537914335016     Delta-E=       -0.000000833703 Rises=F Damp=F
 DIIS: error= 9.09D-06 at cycle   2 NSaved=   2.
 NSaved= 2 IEnMin= 2 EnMin= -350.537914335016     IErMin= 2 ErrMin= 9.09D-06
 ErrMax= 9.09D-06  0.00D+00 EMaxC= 1.00D-01 BMatC= 3.90D-08 BMatP= 1.30D-06
 IDIUse=1 WtCom= 1.00D+00 WtEn= 0.00D+00
 Coeff-Com:  0.458D-01 0.954D+00
 Coeff:      0.458D-01 0.954D+00
 Gap=     0.224 Goal=   None    Shift=    0.000
 RMSDP=1.62D-06 MaxDP=1.25D-04 DE=-8.34D-07 OVMax= 7.18D-05

 Cycle   8  Pass 1  IDiag  1:
 RMSU=  1.33D-06    CP:  1.00D+00  1.01D+00
 E= -350.537914322424     Delta-E=        0.000000012591 Rises=F Damp=F
 DIIS: error= 9.66D-06 at cycle   3 NSaved=   3.
 NSaved= 3 IEnMin= 2 EnMin= -350.537914335016     IErMin= 2 ErrMin= 9.09D-06
 ErrMax= 9.66D-06  0.00D+00 EMaxC= 1.00D-01 BMatC= 5.24D-08 BMatP= 3.90D-08
 IDIUse=1 WtCom= 1.00D+00 WtEn= 0.00D+00
 Coeff-Com: -0.218D-02 0.538D+00 0.464D+00
 Coeff:     -0.218D-02 0.538D+00 0.464D+00
 Gap=     0.224 Goal=   None    Shift=    0.000
 RMSDP=7.37D-07 MaxDP=7.51D-05 DE= 1.26D-08 OVMax= 3.83D-05

 Cycle   9  Pass 1  IDiag  1:
 RMSU=  2.25D-07    CP:  1.00D+00  1.02D+00  4.87D-01
 E= -350.537914375276     Delta-E=       -0.000000052851 Rises=F Damp=F
 DIIS: error= 7.98D-07 at cycle   4 NSaved=   4.
 NSaved= 4 IEnMin= 4 EnMin= -350.537914375276     IErMin= 4 ErrMin= 7.98D-07
 ErrMax= 7.98D-07  0.00D+00 EMaxC= 1.00D-01 BMatC= 4.44D-10 BMatP= 3.90D-08
 IDIUse=1 WtCom= 1.00D+00 WtEn= 0.00D+00
 Coeff-Com: -0.171D-02 0.252D+00 0.226D+00 0.524D+00
 Coeff:     -0.171D-02 0.252D+00 0.226D+00 0.524D+00
 Gap=     0.224 Goal=   None    Shift=    0.000
 RMSDP=7.64D-08 MaxDP=5.83D-06 DE=-5.29D-08 OVMax= 4.96D-06

 Cycle  10  Pass 1  IDiag  1:
 RMSU=  6.87D-08    CP:  1.00D+00  1.02D+00  5.00D-01  8.86D-01
 E= -350.537914375601     Delta-E=       -0.000000000325 Rises=F Damp=F
 DIIS: error= 5.07D-07 at cycle   5 NSaved=   5.
 NSaved= 5 IEnMin= 5 EnMin= -350.537914375601     IErMin= 5 ErrMin= 5.07D-07
 ErrMax= 5.07D-07  0.00D+00 EMaxC= 1.00D-01 BMatC= 8.28D-11 BMatP= 4.44D-10
 IDIUse=1 WtCom= 1.00D+00 WtEn= 0.00D+00
 Coeff-Com: -0.996D-03 0.135D+00 0.122D+00 0.353D+00 0.391D+00
 Coeff:     -0.996D-03 0.135D+00 0.122D+00 0.353D+00 0.391D+00
 Gap=     0.224 Goal=   None    Shift=    0.000
 RMSDP=3.75D-08 MaxDP=5.01D-06 DE=-3.25D-10 OVMax= 2.97D-06

 Cycle  11  Pass 1  IDiag  1:
 RMSU=  2.71D-08    CP:  1.00D+00  1.02D+00  4.83D-01  9.29D-01  9.36D-01
 E= -350.537914375661     Delta-E=       -0.000000000060 Rises=F Damp=F
 DIIS: error= 8.13D-08 at cycle   6 NSaved=   6.
 NSaved= 6 IEnMin= 6 EnMin= -350.537914375661     IErMin= 6 ErrMin= 8.13D-08
 ErrMax= 8.13D-08  0.00D+00 EMaxC= 1.00D-01 BMatC= 3.74D-12 BMatP= 8.28D-11
 IDIUse=1 WtCom= 1.00D+00 WtEn= 0.00D+00
 Coeff-Com: -0.324D-03 0.413D-01 0.373D-01 0.119D+00 0.211D+00 0.592D+00
 Coeff:     -0.324D-03 0.413D-01 0.373D-01 0.119D+00 0.211D+00 0.592D+00
 Gap=     0.224 Goal=   None    Shift=    0.000
 RMSDP=9.55D-09 MaxDP=1.26D-06 DE=-6.05D-11 OVMax= 7.02D-07

 Cycle  12  Pass 1  IDiag  1:
 RMSU=  4.93D-09    CP:  1.00D+00  1.02D+00  4.87D-01  9.28D-01  9.59D-01
                    CP:  7.98D-01
 E= -350.537914375662     Delta-E=       -0.000000000001 Rises=F Damp=F
 DIIS: error= 2.10D-08 at cycle   7 NSaved=   7.
 NSaved= 7 IEnMin= 7 EnMin= -350.537914375662     IErMin= 7 ErrMin= 2.10D-08
 ErrMax= 2.10D-08  0.00D+00 EMaxC= 1.00D-01 BMatC= 3.56D-13 BMatP= 3.74D-12
 IDIUse=1 WtCom= 1.00D+00 WtEn= 0.00D+00
 Coeff-Com:  0.359D-04-0.614D-02-0.550D-02-0.106D-01 0.296D-01 0.263D+00
 Coeff-Com:  0.729D+00
 Coeff:      0.359D-04-0.614D-02-0.550D-02-0.106D-01 0.296D-01 0.263D+00
 Coeff:      0.729D+00
 Gap=     0.224 Goal=   None    Shift=    0.000
 RMSDP=2.88D-09 MaxDP=2.35D-07 DE=-5.68D-13 OVMax= 4.17D-07

 SCF Done:  E(RB3LYP) =  -350.537914376     A.U. after   12 cycles
            NFock= 12  Conv=0.29D-08     -V/T= 2.0057
 KE= 3.485596619073D+02 PE=-1.533573502399D+03 EE= 4.749673313461D+02
 Leave Link  502 at Wed Feb  7 19:34:32 2024, MaxMem=  6710886400 cpu:             567.7 elap:              35.5
 (Enter /tmpu/scunam/7/gaussian-2016.03/g1/g16/l508.exe)
 QCSCF skips out because SCF is already converged.
 Leave Link  508 at Wed Feb  7 19:34:32 2024, MaxMem=  6710886400 cpu:               0.0 elap:               0.0
 (Enter /tmpu/scunam/7/gaussian-2016.03/g1/g16/l701.exe)
 ... and contract with generalized density number  0.
 Compute integral first derivatives.
   1 Symmetry operations used in ECPInt.
 ECPInt:  NShTT=   10440 NPrTT=   30108 LenC2=    9713 LenP2D=   21935.
 LDataN:  DoStor=T MaxTD1= 7 Len=  274
 Leave Link  701 at Wed Feb  7 19:34:32 2024, MaxMem=  6710886400 cpu:               3.4 elap:               0.2
 (Enter /tmpu/scunam/7/gaussian-2016.03/g1/g16/l702.exe)
 L702 exits ... SP integral derivatives will be done elsewhere.
 Leave Link  702 at Wed Feb  7 19:34:32 2024, MaxMem=  6710886400 cpu:               0.3 elap:               0.0
 (Enter /tmpu/scunam/7/gaussian-2016.03/g1/g16/l703.exe)
 Integral derivatives from FoFJK, PRISM(SPDF).
 Compute integral first derivatives, UseDBF=F ICtDFT=           0.
 Calling FoFJK, ICntrl=      2127 FMM=F ISym2X=0 I1Cent= 0 IOpClX= 0 NMat=1 NMatS=1 NMatT=0.
 FoFJK:  IHMeth= 1 ICntrl=    2127 DoSepK=F KAlg= 0 I1Cent=           0 FoldK=F
 IRaf=         0 NMat=       1 IRICut=       1 DoRegI=T DoRafI=F ISym2E= 0 IDoP0=0 IntGTp=1.
 FoFCou: FMM=F IPFlag=           0 FMFlag=      100000 FMFlg1=         800
         NFxFlg=           0 DoJE=F BraDBF=F KetDBF=F FulRan=T
         wScrn=  0.000000 ICntrl=      2127 IOpCl=  0 I1Cent=           0 NGrid=           0
         NMat0=    1 NMatS0=      1 NMatT0=    0 NMatD0=    1 NMtDS0=    0 NMtDT0=    0
 Symmetry not used in FoFCou.
 Leave Link  703 at Wed Feb  7 19:34:43 2024, MaxMem=  6710886400 cpu:             176.2 elap:              11.0
 (Enter /tmpu/scunam/7/gaussian-2016.03/g1/g16/l716.exe)
 Dipole        = 4.50499214D-01 1.04260744D+00 3.32574061D-02
 ***** Axes restored to original set *****
 -------------------------------------------------------------------
 Center     Atomic                   Forces (Hartrees/Bohr)
 Number     Number              X              Y              Z
 -------------------------------------------------------------------
      1        8          -0.005047746   -0.045025602    0.006019017
      2        6           0.000107039   -0.000838277    0.000709731
      3        6           0.000168095    0.000334171   -0.000710928
      4        6           0.000197664    0.001662734   -0.001519199
      5        6           0.000085862   -0.000261447    0.000374469
      6        6          -0.000384749   -0.002737603    0.002979953
      7        6           0.000304317    0.000023042   -0.000110032
      8        6           0.003935571    0.050042973   -0.010394786
      9        1          -0.000095993    0.000102340   -0.000286610
     10        1          -0.000075865    0.000012803   -0.000144141
     11        1          -0.000178323   -0.000288322    0.000369402
     12        1          -0.000054037   -0.000092166   -0.000134703
     13        1          -0.000006779    0.000201543    0.000385244
     14        1           0.000102651   -0.000836301    0.001025574
     15        1           0.000149470    0.000138249    0.000114685
     16        1           0.000156180    0.000385374   -0.000296855
     17        1          -0.000102520   -0.000291688    0.000085470
     18        1          -0.001141215   -0.000078818   -0.000725979
     19        1           0.000311482    0.000131607    0.000103401
     20        1          -0.000047826   -0.000272103    0.000264775
     21        1           0.000007516   -0.000100849   -0.000180645
     22        1           0.001609205   -0.002211661    0.002072159
 -------------------------------------------------------------------
 Cartesian Forces:  Max     0.050042973 RMS     0.008490079
 Leave Link  716 at Wed Feb  7 19:34:43 2024, MaxMem=  6710886400 cpu:               0.3 elap:               0.0
 (Enter /tmpu/scunam/7/gaussian-2016.03/g1/g16/l103.exe)

 GradGradGradGradGradGradGradGradGradGradGradGradGradGradGradGradGradGrad
 Berny optimization.
 Search for a local minimum.
 Step number  10 out of a maximum of  132
 All quantities printed in internal units (Hartrees-Bohrs-Radians)
 Update second derivatives using D2CorN and points    2    3    4    7    5

 ITU=  0  0  0 -1  0  0  1  1  1  0
 Energy rises -- skip Quadratic search.
 Quartic linear search produced a step of -0.99769.
 B after Tr=    -0.000000    0.000001   -0.000027
         Rot=    1.000000    0.000032   -0.000005   -0.000001 Ang=   0.00 deg.
 Variable       Old X    -DE/DX   Delta X   Delta X   Delta X     New X
                                 (Linear)    (Quad)   (Total)
    X1        6.67109  -0.00505   0.04904   0.00000   0.04904   6.72013
    Y1        1.96798  -0.04503  -0.06108   0.00000  -0.06106   1.90692
    Z1       -0.22925   0.00602   0.32219   0.00000   0.32197   0.09273
    X2       -0.99244   0.00011   0.00319   0.00000   0.00319  -0.98925
    Y2       -1.18352  -0.00084   0.02904   0.00000   0.02903  -1.15448
    Z2        0.03249   0.00071  -0.08097   0.00000  -0.08092  -0.04843
    X3       -3.26034   0.00017  -0.00043   0.00000  -0.00043  -3.26076
    Y3        0.60819   0.00033   0.02147   0.00000   0.02147   0.62966
    Z3        0.09347  -0.00071  -0.08470   0.00000  -0.08473   0.00874
    X4        1.54973   0.00020   0.00285   0.00000   0.00285   1.55258
    Y4        0.18962   0.00166   0.02690   0.00000   0.02691   0.21652
    Z4        0.07294  -0.00152  -0.05117   0.00000  -0.05122   0.02172
    X5       -5.81642   0.00009   0.00957   0.00000   0.00957  -5.80686
    Y5       -0.73169  -0.00026  -0.00434   0.00000  -0.00435  -0.73604
    Z5       -0.08463   0.00037   0.05127   0.00000   0.05135  -0.03328
    X6        3.81281  -0.00038  -0.01270   0.00000  -0.01270   3.80011
    Y6       -1.59083  -0.00274   0.00810   0.00000   0.00811  -1.58273
    Z6        0.04079   0.00298  -0.04763   0.00000  -0.04760  -0.00681
    X7       -8.06435   0.00030  -0.00419   0.00000  -0.00419  -8.06855
    Y7        1.08105   0.00002  -0.02432   0.00000  -0.02432   1.05673
    Z7       -0.01803  -0.00011   0.04815   0.00000   0.04814   0.03011
    X8        6.34827   0.00394   0.00807   0.00000   0.00807   6.35634
    Y8       -0.34072   0.05004   0.00330   0.00000   0.00332  -0.33740
    Z8       -0.03725  -0.01039   0.10153   0.00000   0.10146   0.06422
    X9       -1.10502  -0.00010  -0.00557   0.00000  -0.00556  -1.11057
    Y9       -2.48157   0.00010   0.02172   0.00000   0.02182  -2.45975
    Z9        1.64465  -0.00029  -0.08886   0.00000  -0.08872   1.55593
   X10       -1.10454  -0.00008   0.01409   0.00000   0.01408  -1.09047
   Y10       -2.36892   0.00001   0.03666   0.00000   0.03655  -2.33237
   Z10       -1.66268  -0.00014  -0.08742   0.00000  -0.08728  -1.74996
   X11       -3.09482  -0.00018  -0.05885   0.00000  -0.05887  -3.15370
   Y11        1.96282  -0.00029  -0.03674   0.00000  -0.03685   1.92597
   Z11       -1.46673   0.00037  -0.13644   0.00000  -0.13656  -1.60329
   X12       -3.19508  -0.00005   0.04256   0.00000   0.04258  -3.15251
   Y12        1.73260  -0.00009   0.08448   0.00000   0.08458   1.81718
   Z12        1.83206  -0.00013  -0.12929   0.00000  -0.12940   1.70266
   X13        1.67033  -0.00001  -0.00786   0.00000  -0.00785   1.66249
   Y13        1.39942   0.00020   0.00610   0.00000   0.00621   1.40563
   Z13        1.74220   0.00039  -0.03399   0.00000  -0.03413   1.70807
   X14        1.67827   0.00010   0.02291   0.00000   0.02289   1.70116
   Y14        1.46835  -0.00084   0.04134   0.00000   0.04124   1.50959
   Z14       -1.54905   0.00103  -0.03371   0.00000  -0.03385  -1.58289
   X15       -5.88201   0.00015  -0.03431   0.00000  -0.03432  -5.91633
   Y15       -1.84216   0.00014  -0.07998   0.00000  -0.08009  -1.92226
   Z15       -1.83062   0.00011   0.10390   0.00000   0.10406  -1.72656
   X16       -5.98572   0.00016   0.07555   0.00000   0.07557  -5.91016
   Y16       -2.09561   0.00039   0.06441   0.00000   0.06451  -2.03111
   Z16        1.46513  -0.00030   0.11333   0.00000   0.11349   1.57862
   X17        3.74506  -0.00010   0.03141   0.00000   0.03140   3.77646
   Y17       -2.87216  -0.00029   0.07068   0.00000   0.07058  -2.80158
   Z17       -1.59279   0.00009  -0.09532   0.00000  -0.09520  -1.68800
   X18        3.82198  -0.00114  -0.08559   0.00000  -0.08557   3.73641
   Y18       -2.85353  -0.00008  -0.05238   0.00000  -0.05227  -2.90580
   Z18        1.69149  -0.00073  -0.09985   0.00000  -0.09973   1.59176
   X19       -9.85544   0.00031   0.00268   0.00000   0.00268  -9.85276
   Y19        0.06756   0.00013  -0.04755   0.00000  -0.04756   0.02000
   Z19       -0.17737   0.00010   0.17755   0.00000   0.17762   0.00025
   X20       -7.97214  -0.00005  -0.08501   0.00000  -0.08503  -8.05718
   Y20        2.43978  -0.00027  -0.10774   0.00000  -0.10786   2.33192
   Z20       -1.57218   0.00026  -0.02285   0.00000  -0.02294  -1.59512
   X21       -8.10551   0.00001   0.05643   0.00000   0.05644  -8.04907
   Y21        2.15584  -0.00010   0.06661   0.00000   0.06671   2.22255
   Z21        1.74566  -0.00018  -0.01027   0.00000  -0.01036   1.73530
   X22        8.00304   0.00161  -0.02381   0.00000  -0.02381   7.97923
   Y22       -1.60632  -0.00221  -0.06669   0.00000  -0.06668  -1.67300
   Z22       -0.02446   0.00207   0.08454   0.00000   0.08454   0.06007
         Item               Value     Threshold  Converged?
 Maximum Force            0.050043     0.000450     NO 
 RMS     Force            0.008490     0.000300     NO 
 Maximum Displacement     0.321973     0.001800     NO 
 RMS     Displacement     0.074610     0.001200     NO 
 Predicted change in Energy=-2.526791D-04
 GradGradGradGradGradGradGradGradGradGradGradGradGradGradGradGradGradGrad

 Leave Link  103 at Wed Feb  7 19:34:43 2024, MaxMem=  6710886400 cpu:               0.3 elap:               0.0
 (Enter /tmpu/scunam/7/gaussian-2016.03/g1/g16/l202.exe)
                          Input orientation:                          
 ---------------------------------------------------------------------
 Center     Atomic      Atomic             Coordinates (Angstroms)
 Number     Number       Type             X           Y           Z
 ---------------------------------------------------------------------
      1          8           0        3.556140    1.009098    0.049070
      2          6           0       -0.523490   -0.610926   -0.025626
      3          6           0       -1.725522    0.333202    0.004626
      4          6           0        0.821590    0.114579    0.011492
      5          6           0       -3.072857   -0.389494   -0.017609
      6          6           0        2.010931   -0.837542   -0.003604
      7          6           0       -4.269690    0.559195    0.015932
      8          6           0        3.363633   -0.178543    0.033982
      9          1           0       -0.587690   -1.301643    0.823363
     10          1           0       -0.577051   -1.234238   -0.926038
     11          1           0       -1.668865    1.019179   -0.848422
     12          1           0       -1.668235    0.961612    0.901008
     13          1           0        0.879750    0.743829    0.903870
     14          1           0        0.900214    0.798841   -0.837632
     15          1           0       -3.130788   -1.017214   -0.913658
     16          1           0       -3.127521   -1.074816    0.835370
     17          1           0        1.998416   -1.482534   -0.893249
     18          1           0        1.977223   -1.537683    0.842321
     19          1           0       -5.213856    0.010584    0.000131
     20          1           0       -4.263674    1.234001   -0.844099
     21          1           0       -4.259384    1.176125    0.918282
     22          1           0        4.222426   -0.885312    0.031790
 ---------------------------------------------------------------------
                    Distance matrix (angstroms):
                    1          2          3          4          5
     1  O    0.000000
     2  C    4.390153   0.000000
     3  C    5.324919   1.528782   0.000000
     4  C    2.877384   1.528717   2.556486   0.000000
     5  C    6.775257   2.558978   1.529083   3.927041   0.000000
     6  C    2.408428   2.544628   3.915583   1.523580   5.103513
     7  C    7.838822   3.924911   2.554211   5.110659   1.527595
     8  C    1.203236   3.911551   5.114904   2.558986   6.440152
     9  H    4.807326   1.096355   2.153534   2.156592   2.777644
    10  H    4.802776   1.096416   2.154527   2.157421   2.787092
    11  H    5.301535   2.155486   1.096114   2.785699   2.155412
    12  H    5.293596   2.154523   1.096212   2.776317   2.154601
    13  H    2.822076   2.160650   2.786521   1.093470   4.213864
    14  H    2.807916   2.161882   2.796553   1.093347   4.227277
    15  H    7.053212   2.784183   2.154447   4.214042   1.095578
    16  H    7.045019   2.781634   2.153660   4.205819   1.095549
    17  H    3.085887   2.805794   4.239197   2.180424   5.261111
    18  H    3.099729   2.804599   4.232289   2.180765   5.249869
    19  H    8.826792   4.731434   3.503223   6.036352   2.178131
    20  H    7.873870   4.250015   2.823825   5.276841   2.176434
    21  H    7.865485   4.247519   2.822365   5.269293   2.175983
    22  H    2.008240   4.754188   6.071540   3.544838   7.312279
                    6          7          8          9         10
     6  C    0.000000
     7  C    6.434086   0.000000
     8  C    1.505156   7.668912   0.000000
     9  H    2.766242   4.203783   4.182993   0.000000
    10  H    2.775950   4.211804   4.191076   1.750731   0.000000
    11  H    4.207378   2.779026   5.247781   3.057780   2.505189
    12  H    4.194228   2.777205   5.231767   2.509169   3.057865
    13  H    2.145650   5.228696   2.788754   2.518693   3.063263
    14  H    2.146403   5.245371   2.789879   3.063461   2.514665
    15  H    5.224725   2.155528   6.616562   3.092813   2.562972
    16  H    5.211897   2.155463   6.601561   2.549968   3.103687
    17  H    1.098926   6.654654   2.103323   3.109248   2.587616
    18  H    1.098601   6.641065   2.103047   2.575821   3.121456
    19  H    7.274399   1.092095   8.579640   4.878633   4.889512
    20  H    6.660960   1.093184   7.806543   4.766841   4.437354
    21  H    6.649931   1.093135   7.792785   4.430540   4.771891
    22  H    2.212294   8.614110   1.112229   4.892559   4.906542
                   11         12         13         14         15
    11  H    0.000000
    12  H    1.750378   0.000000
    13  H    3.105122   2.557278   0.000000
    14  H    2.578533   3.105849   1.742490   0.000000
    15  H    2.507663   3.057421   4.742267   4.421857   0.000000
    16  H    3.057392   2.506164   4.401180   4.746807   1.749979
    17  H    4.439542   4.757893   3.072091   2.532551   5.150308
    18  H    4.763414   4.420327   2.532496   3.072708   5.426429
    19  H    3.782098   3.779875   6.203743   6.221338   2.496107
    20  H    2.603690   3.139410   5.454400   5.182195   2.521158
    21  H    3.139533   2.600071   5.157305   5.463244   3.072535
    22  H    6.253732   6.234305   3.819438   3.824834   7.414919
                   16         17         18         19         20
    16  H    0.000000
    17  H    5.424905   0.000000
    18  H    5.125691   1.736575   0.000000
    19  H    2.495698   7.419191   7.403920   0.000000
    20  H    3.072799   6.826108   7.033850   1.764176   0.000000
    21  H    2.520858   7.036347   6.801897   1.764229   1.763336
    22  H    7.396173   2.481651   2.474567   9.478768   8.790481
                   21         22
    21  H    0.000000
    22  H    8.773625   0.000000
 Stoichiometry    C7H14O
 Framework group  C1[X(C7H14O)]
 Deg. of freedom    60
 Full point group                 C1      NOp   1
 RotChk:  IX=2 Diff= 9.23D-02
 Largest Abelian subgroup         C1      NOp   1
 Largest concise Abelian subgroup C1      NOp   1
                         Standard orientation:                         
 ---------------------------------------------------------------------
 Center     Atomic      Atomic             Coordinates (Angstroms)
 Number     Number       Type             X           Y           Z
 ---------------------------------------------------------------------
      1          8           0       -3.640838   -1.074529   -0.005759
      2          6           0        0.413648    0.609073   -0.013675
      3          6           0        1.629934   -0.317081   -0.005825
      4          6           0       -0.920248   -0.137658   -0.004243
      5          6           0        2.966066    0.426435   -0.000455
      6          6           0       -2.124030    0.796229    0.003352
      7          6           0        4.177210   -0.504454    0.010523
      8          6           0       -3.466573    0.115837    0.015185
      9          1           0        0.463678    1.275210    0.855665
     10          1           0        0.461352    1.259555   -0.894995
     11          1           0        1.587390   -0.978246   -0.879048
     12          1           0        1.578600   -0.972596    0.871298
     13          1           0       -0.972426   -0.793907    0.868850
     14          1           0       -0.984799   -0.797561   -0.873593
     15          1           0        3.018054    1.081261   -0.877263
     16          1           0        3.006628    1.086916    0.872669
     17          1           0       -2.117745    1.467434   -0.866754
     18          1           0       -2.104621    1.471411    0.869767
     19          1           0        5.112877    0.058730    0.015315
     20          1           0        4.185157   -1.153475   -0.869114
     21          1           0        4.172649   -1.147956    0.894169
     22          1           0       -4.336126    0.809171    0.029944
 ---------------------------------------------------------------------
 Rotational constants (GHZ):           8.0405937           0.5662007           0.5394060
 Leave Link  202 at Wed Feb  7 19:34:43 2024, MaxMem=  6710886400 cpu:               0.2 elap:               0.0
 (Enter /tmpu/scunam/7/gaussian-2016.03/g1/g16/l301.exe)
 Standard basis: def2TZVP (5D, 7F)
 Ernie: Thresh=  0.10000D-02 Tol=  0.10000D-05 Strict=F.
 There are   372 symmetry adapted cartesian basis functions of A   symmetry.
 There are   332 symmetry adapted basis functions of A   symmetry.
   332 basis functions,   520 primitive gaussians,   372 cartesian basis functions
    32 alpha electrons       32 beta electrons
       nuclear repulsion energy       360.1348128683 Hartrees.
 IExCor=  402 DFT=T Ex+Corr=B3LYP ExCW=0 ScaHFX=  0.200000
 ScaDFX=  0.800000  0.720000  1.000000  0.810000 ScalE2=  1.000000  1.000000
 IRadAn=      5 IRanWt=     -1 IRanGd=            0 ICorTp=0 IEmpDi=  4
 NAtoms=   22 NActive=   22 NUniq=   22 SFac= 1.00D+00 NAtFMM=   60 NAOKFM=F Big=F
 Integral buffers will be    131072 words long.
 Raffenetti 2 integral format.
 Two-electron integral symmetry is turned on.
 Leave Link  301 at Wed Feb  7 19:34:43 2024, MaxMem=  6710886400 cpu:               0.7 elap:               0.1
 (Enter /tmpu/scunam/7/gaussian-2016.03/g1/g16/l302.exe)
 NPDir=0 NMtPBC=     1 NCelOv=     1 NCel=       1 NClECP=     1 NCelD=      1
         NCelK=      1 NCelE2=     1 NClLst=     1 CellRange=     0.0.
 One-electron integrals computed using PRISM.
 One-electron integral symmetry used in STVInt
   1 Symmetry operations used in ECPInt.
 ECPInt:  NShTT=   10440 NPrTT=   30108 LenC2=    9710 LenP2D=   21946.
 LDataN:  DoStor=T MaxTD1= 6 Len=  172
 NBasis=   332 RedAO= T EigKep=  8.36D-05  NBF=   332
 NBsUse=   332 1.00D-06 EigRej= -1.00D+00 NBFU=   332
 Precomputing XC quadrature grid using
 IXCGrd= 4 IRadAn=           5 IRanWt=          -1 IRanGd=           0 AccXCQ= 0.00D+00.
 Generated NRdTot=       0 NPtTot=           0 NUsed=           0 NTot=          32
 NSgBfM=   367   367   367   367   367 MxSgAt=    22 MxSgA2=    22.
 Leave Link  302 at Wed Feb  7 19:34:44 2024, MaxMem=  6710886400 cpu:               5.1 elap:               0.3
 (Enter /tmpu/scunam/7/gaussian-2016.03/g1/g16/l303.exe)
 DipDrv:  MaxL=1.
 Leave Link  303 at Wed Feb  7 19:34:44 2024, MaxMem=  6710886400 cpu:               0.7 elap:               0.1
 (Enter /tmpu/scunam/7/gaussian-2016.03/g1/g16/l401.exe)
 Lowest energy guess from the checkpoint file:  "Heptanal.chk"
 B after Tr=     0.000000    0.000000   -0.000000
         Rot=    1.000000    0.000037   -0.000001   -0.000001 Ang=   0.00 deg.
 Guess basis will be translated and rotated to current coordinates.
 B after Tr=    -0.000000   -0.000000   -0.000000
         Rot=    0.999864   -0.016494    0.000314    0.000396 Ang=  -1.89 deg.
 Guess basis will be translated and rotated to current coordinates.
 CkInt1:  FT= 2.31D-03
 Max alpha theta=  2.401 degrees.
 JPrj=2 DoOrth=T DoCkMO=T.
 Leave Link  401 at Wed Feb  7 19:34:44 2024, MaxMem=  6710886400 cpu:               4.6 elap:               0.3
 (Enter /tmpu/scunam/7/gaussian-2016.03/g1/g16/l502.exe)
 Integral symmetry usage will be decided dynamically.
 Closed shell SCF:
 Using DIIS extrapolation, IDIIS=  1040.
 NGot=  6710886400 LenX=  6710600118 LenY=  6710461293
 Requested convergence on RMS density matrix=1.00D-08 within 128 cycles.
 Requested convergence on MAX density matrix=1.00D-06.
 Requested convergence on             energy=1.00D-06.
 No special actions if energy rises.
 Fock matrices will be formed incrementally for  20 cycles.
 Integral accuracy reduced to 1.0D-05 until final iterations.

 Cycle   1  Pass 0  IDiag  1:
 FoFJK:  IHMeth= 1 ICntrl=       0 DoSepK=F KAlg= 0 I1Cent=           0 FoldK=F
 IRaf= 890000000 NMat=       1 IRICut=       1 DoRegI=T DoRafI=F ISym2E= 0 IDoP0=0 IntGTp=1.
 FoFCou: FMM=F IPFlag=           0 FMFlag=      100000 FMFlg1=           0
         NFxFlg=           0 DoJE=F BraDBF=F KetDBF=F FulRan=T
         wScrn=  0.000000 ICntrl=         0 IOpCl=  0 I1Cent=           0 NGrid=           0
         NMat0=    1 NMatS0=      1 NMatT0=    0 NMatD0=    1 NMtDS0=    0 NMtDT0=    0
 Symmetry not used in FoFCou.
 E= -350.539741909744    
 DIIS: error= 1.28D-04 at cycle   1 NSaved=   1.
 NSaved= 1 IEnMin= 1 EnMin= -350.539741909744     IErMin= 1 ErrMin= 1.28D-04
 ErrMax= 1.28D-04  0.00D+00 EMaxC= 1.00D-01 BMatC= 1.27D-06 BMatP= 1.27D-06
 IDIUse=3 WtCom= 9.99D-01 WtEn= 1.28D-03
 Coeff-Com:  0.100D+01
 Coeff-En:   0.100D+01
 Coeff:      0.100D+01
 Gap=    10.075 Goal=   None    Shift=    0.000
 RMSDP=6.78D-05 MaxDP=2.54D-03              OVMax= 1.81D-04

 Cycle   2  Pass 0  IDiag  1:
 RMSU=  6.78D-05    CP:  1.00D+00
 E= -350.539740013624     Delta-E=        0.000001896120 Rises=F Damp=F
 DIIS: error= 3.68D-06 at cycle   2 NSaved=   2.
 NSaved= 2 IEnMin= 1 EnMin= -350.539741909744     IErMin= 2 ErrMin= 3.68D-06
 ErrMax= 3.68D-06  0.00D+00 EMaxC= 1.00D-01 BMatC= 9.21D-10 BMatP= 1.27D-06
 IDIUse=1 WtCom= 1.00D+00 WtEn= 0.00D+00
 Coeff-Com: -0.345D-02 0.100D+01
 Coeff:     -0.345D-02 0.100D+01
 Gap=     0.231 Goal=   None    Shift=    0.000
 RMSDP=4.17D-06 MaxDP=3.00D-04 DE= 1.90D-06 OVMax= 1.24D-05

 Initial convergence to 1.0D-05 achieved.  Increase integral accuracy.
 Cycle   3  Pass 1  IDiag  1:
 E= -350.539713282597     Delta-E=        0.000026731027 Rises=F Damp=F
 DIIS: error= 1.26D-04 at cycle   1 NSaved=   1.
 NSaved= 1 IEnMin= 1 EnMin= -350.539713282597     IErMin= 1 ErrMin= 1.26D-04
 ErrMax= 1.26D-04  0.00D+00 EMaxC= 1.00D-01 BMatC= 1.26D-06 BMatP= 1.26D-06
 IDIUse=3 WtCom= 9.99D-01 WtEn= 1.26D-03
 Coeff-Com:  0.100D+01
 Coeff-En:   0.100D+01
 Coeff:      0.100D+01
 Gap=     0.231 Goal=   None    Shift=    0.000
 RMSDP=4.17D-06 MaxDP=3.00D-04 DE= 2.67D-05 OVMax= 2.91D-04

 Cycle   4  Pass 1  IDiag  1:
 RMSU=  6.76D-05    CP:  1.00D+00
 E= -350.539714127968     Delta-E=       -0.000000845371 Rises=F Damp=F
 DIIS: error= 1.79D-06 at cycle   2 NSaved=   2.
 NSaved= 2 IEnMin= 2 EnMin= -350.539714127968     IErMin= 2 ErrMin= 1.79D-06
 ErrMax= 1.79D-06  0.00D+00 EMaxC= 1.00D-01 BMatC= 1.04D-09 BMatP= 1.26D-06
 IDIUse=1 WtCom= 1.00D+00 WtEn= 0.00D+00
 Coeff-Com: -0.571D-02 0.101D+01
 Coeff:     -0.571D-02 0.101D+01
 Gap=     0.231 Goal=   None    Shift=    0.000
 RMSDP=1.18D-06 MaxDP=4.51D-05 DE=-8.45D-07 OVMax= 2.55D-05

 Cycle   5  Pass 1  IDiag  1:
 RMSU=  4.41D-07    CP:  1.00D+00  1.02D+00
 E= -350.539714125480     Delta-E=        0.000000002488 Rises=F Damp=F
 DIIS: error= 4.01D-06 at cycle   3 NSaved=   3.
 NSaved= 3 IEnMin= 2 EnMin= -350.539714127968     IErMin= 2 ErrMin= 1.79D-06
 ErrMax= 4.01D-06  0.00D+00 EMaxC= 1.00D-01 BMatC= 4.63D-09 BMatP= 1.04D-09
 IDIUse=1 WtCom= 1.00D+00 WtEn= 0.00D+00
 Coeff-Com: -0.468D-02 0.691D+00 0.314D+00
 Coeff:     -0.468D-02 0.691D+00 0.314D+00
 Gap=     0.231 Goal=   None    Shift=    0.000
 RMSDP=2.31D-07 MaxDP=3.26D-05 DE= 2.49D-09 OVMax= 1.80D-05

 Cycle   6  Pass 1  IDiag  1:
 RMSU=  2.15D-07    CP:  1.00D+00  1.02D+00  8.49D-01
 E= -350.539714128844     Delta-E=       -0.000000003364 Rises=F Damp=F
 DIIS: error= 1.61D-07 at cycle   4 NSaved=   4.
 NSaved= 4 IEnMin= 4 EnMin= -350.539714128844     IErMin= 4 ErrMin= 1.61D-07
 ErrMax= 1.61D-07  0.00D+00 EMaxC= 1.00D-01 BMatC= 1.32D-11 BMatP= 1.04D-09
 IDIUse=1 WtCom= 1.00D+00 WtEn= 0.00D+00
 Coeff-Com: -0.138D-02 0.198D+00 0.104D+00 0.700D+00
 Coeff:     -0.138D-02 0.198D+00 0.104D+00 0.700D+00
 Gap=     0.231 Goal=   None    Shift=    0.000
 RMSDP=2.23D-08 MaxDP=2.00D-06 DE=-3.36D-09 OVMax= 1.06D-06

 Cycle   7  Pass 1  IDiag  1:
 RMSU=  1.46D-08    CP:  1.00D+00  1.02D+00  8.76D-01  9.61D-01
 E= -350.539714128853     Delta-E=       -0.000000000009 Rises=F Damp=F
 DIIS: error= 8.77D-08 at cycle   5 NSaved=   5.
 NSaved= 5 IEnMin= 5 EnMin= -350.539714128853     IErMin= 5 ErrMin= 8.77D-08
 ErrMax= 8.77D-08  0.00D+00 EMaxC= 1.00D-01 BMatC= 3.98D-12 BMatP= 1.32D-11
 IDIUse=1 WtCom= 1.00D+00 WtEn= 0.00D+00
 Coeff-Com: -0.447D-05-0.196D-02 0.705D-02 0.371D+00 0.624D+00
 Coeff:     -0.447D-05-0.196D-02 0.705D-02 0.371D+00 0.624D+00
 Gap=     0.231 Goal=   None    Shift=    0.000
 RMSDP=1.12D-08 MaxDP=1.29D-06 DE=-8.87D-12 OVMax= 3.45D-07

 Cycle   8  Pass 1  IDiag  1:
 RMSU=  4.04D-09    CP:  1.00D+00  1.02D+00  8.81D-01  1.00D+00  7.86D-01
 E= -350.539714128858     Delta-E=       -0.000000000006 Rises=F Damp=F
 DIIS: error= 1.46D-08 at cycle   6 NSaved=   6.
 NSaved= 6 IEnMin= 6 EnMin= -350.539714128858     IErMin= 6 ErrMin= 1.46D-08
 ErrMax= 1.46D-08  0.00D+00 EMaxC= 1.00D-01 BMatC= 8.85D-14 BMatP= 3.98D-12
 IDIUse=1 WtCom= 1.00D+00 WtEn= 0.00D+00
 Coeff-Com:  0.261D-04-0.499D-02 0.132D-02 0.160D+00 0.295D+00 0.549D+00
 Coeff:      0.261D-04-0.499D-02 0.132D-02 0.160D+00 0.295D+00 0.549D+00
 Gap=     0.231 Goal=   None    Shift=    0.000
 RMSDP=1.20D-09 MaxDP=1.38D-07 DE=-5.68D-12 OVMax= 5.49D-08

 SCF Done:  E(RB3LYP) =  -350.539714129     A.U. after    8 cycles
            NFock=  8  Conv=0.12D-08     -V/T= 2.0054
 KE= 3.486720789207D+02 PE=-1.534885705048D+03 EE= 4.755390991304D+02
 Leave Link  502 at Wed Feb  7 19:35:10 2024, MaxMem=  6710886400 cpu:             420.1 elap:              26.3
 (Enter /tmpu/scunam/7/gaussian-2016.03/g1/g16/l508.exe)
 QCSCF skips out because SCF is already converged.
 Leave Link  508 at Wed Feb  7 19:35:10 2024, MaxMem=  6710886400 cpu:               0.0 elap:               0.0
 (Enter /tmpu/scunam/7/gaussian-2016.03/g1/g16/l701.exe)
 ... and contract with generalized density number  0.
 Compute integral first derivatives.
   1 Symmetry operations used in ECPInt.
 ECPInt:  NShTT=   10440 NPrTT=   30108 LenC2=    9710 LenP2D=   21946.
 LDataN:  DoStor=T MaxTD1= 7 Len=  274
 Leave Link  701 at Wed Feb  7 19:35:11 2024, MaxMem=  6710886400 cpu:               3.4 elap:               0.2
 (Enter /tmpu/scunam/7/gaussian-2016.03/g1/g16/l702.exe)
 L702 exits ... SP integral derivatives will be done elsewhere.
 Leave Link  702 at Wed Feb  7 19:35:11 2024, MaxMem=  6710886400 cpu:               0.3 elap:               0.0
 (Enter /tmpu/scunam/7/gaussian-2016.03/g1/g16/l703.exe)
 Integral derivatives from FoFJK, PRISM(SPDF).
 Compute integral first derivatives, UseDBF=F ICtDFT=           0.
 Calling FoFJK, ICntrl=      2127 FMM=F ISym2X=0 I1Cent= 0 IOpClX= 0 NMat=1 NMatS=1 NMatT=0.
 FoFJK:  IHMeth= 1 ICntrl=    2127 DoSepK=F KAlg= 0 I1Cent=           0 FoldK=F
 IRaf=         0 NMat=       1 IRICut=       1 DoRegI=T DoRafI=F ISym2E= 0 IDoP0=0 IntGTp=1.
 FoFCou: FMM=F IPFlag=           0 FMFlag=      100000 FMFlg1=         800
         NFxFlg=           0 DoJE=F BraDBF=F KetDBF=F FulRan=T
         wScrn=  0.000000 ICntrl=      2127 IOpCl=  0 I1Cent=           0 NGrid=           0
         NMat0=    1 NMatS0=      1 NMatT0=    0 NMatD0=    1 NMtDS0=    0 NMtDT0=    0
 Symmetry not used in FoFCou.
 Leave Link  703 at Wed Feb  7 19:35:22 2024, MaxMem=  6710886400 cpu:             176.6 elap:              11.1
 (Enter /tmpu/scunam/7/gaussian-2016.03/g1/g16/l716.exe)
 Dipole        = 4.56076783D-01 9.72499871D-01 9.40333078D-03
 ***** Axes restored to original set *****
 -------------------------------------------------------------------
 Center     Atomic                   Forces (Hartrees/Bohr)
 Number     Number              X              Y              Z
 -------------------------------------------------------------------
      1        8           0.000346908    0.000916327    0.000697751
      2        6          -0.000068462   -0.000142501   -0.000007587
      3        6           0.000015183    0.000103551    0.000070928
      4        6           0.000049701    0.000120287    0.000043239
      5        6          -0.000057102   -0.000180006   -0.000077529
      6        6           0.000040372   -0.000312745    0.000600955
      7        6          -0.000053415    0.000098867   -0.000012992
      8        6          -0.000281734   -0.000674535   -0.001973347
      9        1          -0.000014248   -0.000019056    0.000041515
     10        1          -0.000004319    0.000001280    0.000021897
     11        1           0.000005140   -0.000049915    0.000031173
     12        1          -0.000016534   -0.000048893   -0.000072986
     13        1          -0.000006490   -0.000018122   -0.000004966
     14        1          -0.000028269   -0.000042892   -0.000002498
     15        1           0.000057947    0.000104283    0.000117013
     16        1           0.000013939    0.000097108   -0.000107766
     17        1           0.000111052    0.000129184    0.000063422
     18        1          -0.000251334   -0.000014836    0.000003638
     19        1           0.000156044    0.000113166    0.000005530
     20        1           0.000024405   -0.000122758    0.000145154
     21        1          -0.000014770   -0.000080616   -0.000130359
     22        1          -0.000024011    0.000022823    0.000547813
 -------------------------------------------------------------------
 Cartesian Forces:  Max     0.001973347 RMS     0.000325948
 Leave Link  716 at Wed Feb  7 19:35:22 2024, MaxMem=  6710886400 cpu:               0.3 elap:               0.0
 (Enter /tmpu/scunam/7/gaussian-2016.03/g1/g16/l103.exe)

 GradGradGradGradGradGradGradGradGradGradGradGradGradGradGradGradGradGrad
 Berny optimization.
 Search for a local minimum.
 Step number  11 out of a maximum of  132
 All quantities printed in internal units (Hartrees-Bohrs-Radians)
 Update second derivatives using D2CorN and points    2    3    4    7    5
                                                         11
 ITU=  0  0  0  0 -1  0  0  1  1  1  0
     Eigenvalues ---   -0.01186   0.00027   0.00128   0.00223   0.00248
     Eigenvalues ---    0.00532   0.00650   0.00912   0.01421   0.02061
     Eigenvalues ---    0.02411   0.03220   0.03450   0.03954   0.04643
     Eigenvalues ---    0.04710   0.05241   0.05299   0.05626   0.05787
     Eigenvalues ---    0.06131   0.06415   0.06881   0.07947   0.08004
     Eigenvalues ---    0.08536   0.09616   0.09956   0.11801   0.13059
     Eigenvalues ---    0.13075   0.13868   0.15031   0.15981   0.17827
     Eigenvalues ---    0.18046   0.20592   0.21428   0.23661   0.24829
     Eigenvalues ---    0.27353   0.39131   0.52199   0.58117   0.61991
     Eigenvalues ---    0.69044   0.69512   0.78309   0.87071   0.87852
     Eigenvalues ---    0.92894   0.92957   0.95638   0.98939   0.99652
     Eigenvalues ---    1.02389   1.04720   1.08381   1.12840   2.05902
 Eigenvalue     1 is  -1.19D-02 should be greater than     0.000000 Eigenvector:
                          Z9        Z10       Z18       Z17       Y9
   1                    0.30473   0.29650  -0.27512  -0.27313   0.24060
                          Z19       Z1        X21       Z22       Y17
   1                   -0.23258   0.22340  -0.21717  -0.19773   0.18854
 RFO step:  Lambda=-1.18634288D-02 EMin=-1.18606482D-02
 I=     1 Eig=   -1.19D-02 Dot1=  1.09D-04
 I=     1 Stepn=  6.00D-01 RXN=   6.00D-01 EDone=F
 Mixed    1 eigenvectors in step.  Raw Step.Grad=  1.09D-04.
 RFO eigenvector is Hessian eigenvector with negative curvature.
 Taking step of  6.00D-01 in eigenvector direction(s).  Step.Grad= -2.43D-04.
 Quartic linear search produced a step of  0.02174.
 Maximum step size (   0.353) exceeded in Quadratic search.
    -- Step size scaled by   0.589
 B after Tr=     0.001900   -0.001548    0.007229
         Rot=    0.999998   -0.001692    0.000570    0.000333 Ang=  -0.21 deg.
 Variable       Old X    -DE/DX   Delta X   Delta X   Delta X     New X
                                 (Linear)    (Quad)   (Total)
    X1        6.72013   0.00035  -0.00000   0.02299   0.02593   6.74606
    Y1        1.90692   0.00092   0.00000  -0.02700  -0.03364   1.87328
    Z1        0.09273   0.00070  -0.00002   0.07889   0.10013   0.19286
    X2       -0.98925  -0.00007  -0.00000   0.00450   0.00564  -0.98361
    Y2       -1.15448  -0.00014  -0.00000   0.03216   0.03122  -1.12326
    Z2       -0.04843  -0.00001   0.00001   0.06416   0.06647   0.01804
    X3       -3.26076   0.00002  -0.00000  -0.00753  -0.00525  -3.26601
    Y3        0.62966   0.00010  -0.00000   0.02158   0.02208   0.65174
    Z3        0.00874   0.00007   0.00000   0.03111   0.03683   0.04557
    X4        1.55258   0.00005  -0.00000   0.01280   0.01484   1.56742
    Y4        0.21652   0.00012  -0.00000   0.02370   0.02107   0.23759
    Z4        0.02172   0.00004   0.00000  -0.01190  -0.00207   0.01964
    X5       -5.80686  -0.00006  -0.00000   0.00224   0.00367  -5.80319
    Y5       -0.73604  -0.00018   0.00000  -0.00118   0.00119  -0.73485
    Z5       -0.03328  -0.00008  -0.00000   0.02110   0.01922  -0.01406
    X6        3.80011   0.00004   0.00000  -0.00271  -0.00179   3.79832
    Y6       -1.58273  -0.00031  -0.00000   0.00173  -0.00215  -1.58487
    Z6       -0.00681   0.00060   0.00000  -0.05229  -0.04608  -0.05290
    X7       -8.06855  -0.00005   0.00000  -0.02045  -0.01785  -8.08640
    Y7        1.05673   0.00010   0.00000  -0.02558  -0.02169   1.03503
    Z7        0.03011  -0.00001  -0.00000  -0.04034  -0.03883  -0.00873
    X8        6.35634  -0.00028  -0.00000   0.00877   0.01038   6.36673
    Y8       -0.33740  -0.00067   0.00000  -0.02932  -0.03522  -0.37261
    Z8        0.06422  -0.00197  -0.00001  -0.03436  -0.02113   0.04308
    X9       -1.11057  -0.00001   0.00000   0.02978   0.02821  -1.08236
    Y9       -2.45975  -0.00002   0.00000   0.08496   0.07852  -2.38123
    Z9        1.55593   0.00004   0.00001   0.10760   0.10556   1.66149
   X10       -1.09047  -0.00000  -0.00000  -0.01526  -0.01305  -1.10352
   Y10       -2.33237   0.00000  -0.00000  -0.02480  -0.02004  -2.35241
   Z10       -1.74996   0.00002   0.00001   0.10470   0.10271  -1.64725
   X11       -3.15370   0.00001   0.00000  -0.00552  -0.00052  -3.15422
   Y11        1.92597  -0.00005  -0.00000   0.00386   0.00978   1.93574
   Z11       -1.60329   0.00003   0.00000   0.01695   0.02713  -1.57616
   X12       -3.15251  -0.00002  -0.00000  -0.03047  -0.02929  -3.18180
   Y12        1.81718  -0.00005  -0.00000   0.04270   0.03744   1.85462
   Z12        1.70266  -0.00007   0.00000   0.01867   0.02856   1.73122
   X13        1.66249  -0.00001   0.00000   0.06113   0.06207   1.72456
   Y13        1.40563  -0.00002   0.00000   0.04053   0.03214   1.43777
   Z13        1.70807  -0.00000  -0.00000  -0.02691  -0.01284   1.69523
   X14        1.70116  -0.00003  -0.00000  -0.01862  -0.01388   1.68728
   Y14        1.50959  -0.00004  -0.00000   0.00789   0.01065   1.52024
   Z14       -1.58289  -0.00000  -0.00000  -0.02825  -0.01396  -1.59686
   X15       -5.91633   0.00006   0.00000   0.03727   0.03981  -5.87652
   Y15       -1.92226   0.00010   0.00000  -0.02715  -0.01903  -1.94129
   Z15       -1.72656   0.00012  -0.00000   0.03580   0.02975  -1.69682
   X16       -5.91016   0.00001  -0.00000  -0.01019  -0.01147  -5.92163
   Y16       -2.03111   0.00010  -0.00000   0.01966   0.01661  -2.01450
   Z16        1.57862  -0.00011  -0.00000   0.03766   0.03133   1.60995
   X17        3.77646   0.00011  -0.00000   0.00312   0.00524   3.78170
   Y17       -2.80158   0.00013  -0.00001   0.06658   0.06855  -2.73303
   Z17       -1.68800   0.00006   0.00001  -0.09645  -0.09415  -1.78215
   X18        3.73641  -0.00025   0.00000  -0.03098  -0.03276   3.70365
   Y18       -2.90580  -0.00001   0.00001  -0.05785  -0.06691  -2.97271
   Z18        1.59176   0.00000   0.00001  -0.09715  -0.09573   1.49602
   X19       -9.85276   0.00016  -0.00000  -0.00911  -0.00713  -9.85989
   Y19        0.02000   0.00011   0.00000  -0.04521  -0.03990  -0.01989
   Z19        0.00025   0.00001  -0.00001  -0.08213  -0.08622  -0.08597
   X20       -8.05718   0.00002   0.00000   0.00653   0.01184  -8.04534
   Y20        2.33192  -0.00012   0.00000  -0.03169  -0.02232   2.30960
   Z20       -1.59512   0.00015  -0.00000  -0.04537  -0.03951  -1.63463
   X21       -8.04907  -0.00001  -0.00000  -0.07669  -0.07525  -8.12432
   Y21        2.22255  -0.00008  -0.00000  -0.01886  -0.02072   2.20183
   Z21        1.73530  -0.00013  -0.00000  -0.04325  -0.03783   1.69747
   X22        7.97923  -0.00002   0.00000  -0.00018   0.00059   7.97982
   Y22       -1.67300   0.00002   0.00000  -0.04080  -0.04763  -1.72063
   Z22        0.06007   0.00055  -0.00000  -0.06982  -0.05931   0.00076
         Item               Value     Threshold  Converged?
 Maximum Force            0.001973     0.000450     NO 
 RMS     Force            0.000326     0.000300     NO 
 Maximum Displacement     0.105563     0.001800     NO 
 RMS     Displacement     0.043029     0.001200     NO 
 Predicted change in Energy=-8.025104D-04
 Lowest energy point so far.  Saving SCF results.
 GradGradGradGradGradGradGradGradGradGradGradGradGradGradGradGradGradGrad

 Leave Link  103 at Wed Feb  7 19:35:22 2024, MaxMem=  6710886400 cpu:               0.3 elap:               0.0
 (Enter /tmpu/scunam/7/gaussian-2016.03/g1/g16/l202.exe)
                          Input orientation:                          
 ---------------------------------------------------------------------
 Center     Atomic      Atomic             Coordinates (Angstroms)
 Number     Number       Type             X           Y           Z
 ---------------------------------------------------------------------
      1          8           0        3.569863    0.991295    0.102057
      2          6           0       -0.520505   -0.594405    0.009549
      3          6           0       -1.728298    0.344884    0.024116
      4          6           0        0.829444    0.125729    0.010394
      5          6           0       -3.070914   -0.388864   -0.007438
      6          6           0        2.009982   -0.838678   -0.027991
      7          6           0       -4.279137    0.547717   -0.004617
      8          6           0        3.369128   -0.197179    0.022799
      9          1           0       -0.572761   -1.260092    0.879225
     10          1           0       -0.583956   -1.244840   -0.871687
     11          1           0       -1.669143    1.024352   -0.834067
     12          1           0       -1.683737    0.981423    0.916121
     13          1           0        0.912598    0.760836    0.897076
     14          1           0        0.892869    0.804478   -0.845020
     15          1           0       -3.109720   -1.027287   -0.897917
     16          1           0       -3.133589   -1.066026    0.851947
     17          1           0        2.001188   -1.446259   -0.943071
     18          1           0        1.959890   -1.573088    0.791661
     19          1           0       -5.217628   -0.010528   -0.045493
     20          1           0       -4.257409    1.222189   -0.865009
     21          1           0       -4.299203    1.165159    0.898262
     22          1           0        4.222738   -0.910517    0.000404
 ---------------------------------------------------------------------
                    Distance matrix (angstroms):
                    1          2          3          4          5
     1  O    0.000000
     2  C    4.387951   0.000000
     3  C    5.338017   1.530111   0.000000
     4  C    2.875326   1.530019   2.567150   0.000000
     5  C    6.783564   2.558734   1.530359   3.934198   0.000000
     6  C    2.408099   2.542528   3.921514   1.524869   5.100810
     7  C    7.862247   3.928352   2.559052   5.126002   1.528722
     8  C    1.207911   3.909886   5.126167   2.560160   6.442965
     9  H    4.778501   1.096452   2.154628   2.154425   2.790336
    10  H    4.816917   1.097119   2.153881   2.157366   2.768499
    11  H    5.322086   2.156717   1.096200   2.786319   2.155333
    12  H    5.316306   2.158290   1.096741   2.805108   2.157523
    13  H    2.783204   2.162907   2.812367   1.093837   4.243621
    14  H    2.845724   2.164438   2.799489   1.093826   4.223410
    15  H    7.049216   2.777573   2.154373   4.203747   1.096377
    16  H    7.052033   2.785726   2.156575   4.223047   1.095910
    17  H    3.081348   2.827026   4.248848   2.180190   5.264952
    18  H    3.105420   2.778827   4.227348   2.185010   5.229716
    19  H    8.845644   4.733593   3.508075   6.048865   2.180130
    20  H    7.890165   4.246094   2.820746   5.276801   2.176853
    21  H    7.911155   4.261975   2.836642   5.307706   2.178066
    22  H    2.013323   4.753774   6.082057   3.548007   7.312287
                    6          7          8          9         10
     6  C    0.000000
     7  C    6.440159   0.000000
     8  C    1.503787   7.684502   0.000000
     9  H    2.769692   4.217412   4.171539   0.000000
    10  H    2.757772   4.197551   4.186236   1.751014   0.000000
    11  H    4.201976   2.779791   5.254572   3.058775   2.515607
    12  H    4.224651   2.787823   5.264843   2.502003   3.059743
    13  H    2.149057   5.273763   2.777894   2.508139   3.064463
    14  H    2.148357   5.246127   2.808609   3.063257   2.526150
    15  H    5.196508   2.155495   6.596383   3.106218   2.535251
    16  H    5.223247   2.156420   6.612693   2.568315   3.082778
    17  H    1.098456   6.655758   2.089106   3.159215   2.593961
    18  H    1.101680   6.637569   2.114291   2.553420   3.057062
    19  H    7.274922   1.092737   8.589056   4.898091   4.865906
    20  H    6.650411   1.093462   7.808129   4.772913   4.424990
    21  H    6.684245   1.093997   7.837455   4.446187   4.769054
    22  H    2.214104   8.626027   1.112656   4.887877   4.896593
                   11         12         13         14         15
    11  H    0.000000
    12  H    1.750776   0.000000
    13  H    3.119564   2.605759   0.000000
    14  H    2.571453   3.125992   1.742754   0.000000
    15  H    2.507701   3.059260   4.753780   4.402145   0.000000
    16  H    3.058910   2.509629   4.439718   4.752983   1.750455
    17  H    4.425735   4.788414   3.072855   2.510737   5.128251
    18  H    4.749691   4.451633   2.560300   3.077350   5.371547
    19  H    3.779494   3.794345   6.250049   6.216241   2.490723
    20  H    2.596001   3.139137   5.481492   5.167228   2.525553
    21  H    3.152462   2.621973   5.227461   5.488783   3.073752
    22  H    6.257341   6.269324   3.815032   3.839788   7.388204
                   16         17         18         19         20
    16  H    0.000000
    17  H    5.452761   0.000000
    18  H    5.119011   1.739853   0.000000
    19  H    2.502537   7.414734   7.393185   0.000000
    20  H    3.073571   6.804171   7.015193   1.764432   0.000000
    21  H    2.517735   7.064343   6.832687   1.765337   1.764688
    22  H    7.407082   2.472337   2.487081   9.483280   8.786937
                   21         22
    21  H    0.000000
    22  H    8.816919   0.000000
 Stoichiometry    C7H14O
 Framework group  C1[X(C7H14O)]
 Deg. of freedom    60
 Full point group                 C1      NOp   1
 RotChk:  IX=2 Diff= 2.24D-02
 Largest Abelian subgroup         C1      NOp   1
 Largest concise Abelian subgroup C1      NOp   1
                         Standard orientation:                         
 ---------------------------------------------------------------------
 Center     Atomic      Atomic             Coordinates (Angstroms)
 Number     Number       Type             X           Y           Z
 ---------------------------------------------------------------------
      1          8           0       -3.651841   -1.064568    0.018024
      2          6           0        0.411948    0.590632    0.024575
      3          6           0        1.635153   -0.328397    0.004668
      4          6           0       -0.925767   -0.150864   -0.016145
      5          6           0        2.965490    0.427969    0.015279
      6          6           0       -2.122000    0.794781   -0.018713
      7          6           0        4.189148   -0.487815   -0.016237
      8          6           0       -3.470519    0.129413   -0.006045
      9          1           0        0.447944    1.216965    0.923807
     10          1           0        0.469729    1.281314   -0.825889
     11          1           0        1.592421   -0.969129   -0.883752
     12          1           0        1.595963   -1.005376    0.866645
     13          1           0       -1.003536   -0.826805    0.840322
     14          1           0       -0.972796   -0.791074   -0.901795
     15          1           0        2.998885    1.106667   -0.845126
     16          1           0        3.011772    1.066402    0.904819
     17          1           0       -2.117952    1.443296   -0.905289
     18          1           0       -2.089020    1.491991    0.833642
     19          1           0        5.118410    0.087041   -0.025567
     20          1           0        4.183768   -1.122843   -0.906388
     21          1           0        4.214193   -1.145152    0.857897
     22          1           0       -4.335776    0.828923   -0.001823
 ---------------------------------------------------------------------
 Rotational constants (GHZ):           8.1235710           0.5640892           0.5378947
 Leave Link  202 at Wed Feb  7 19:35:22 2024, MaxMem=  6710886400 cpu:               0.2 elap:               0.0
 (Enter /tmpu/scunam/7/gaussian-2016.03/g1/g16/l301.exe)
 Standard basis: def2TZVP (5D, 7F)
 Ernie: Thresh=  0.10000D-02 Tol=  0.10000D-05 Strict=F.
 There are   372 symmetry adapted cartesian basis functions of A   symmetry.
 There are   332 symmetry adapted basis functions of A   symmetry.
   332 basis functions,   520 primitive gaussians,   372 cartesian basis functions
    32 alpha electrons       32 beta electrons
       nuclear repulsion energy       359.7922790214 Hartrees.
 IExCor=  402 DFT=T Ex+Corr=B3LYP ExCW=0 ScaHFX=  0.200000
 ScaDFX=  0.800000  0.720000  1.000000  0.810000 ScalE2=  1.000000  1.000000
 IRadAn=      5 IRanWt=     -1 IRanGd=            0 ICorTp=0 IEmpDi=  4
 NAtoms=   22 NActive=   22 NUniq=   22 SFac= 1.00D+00 NAtFMM=   60 NAOKFM=F Big=F
 Integral buffers will be    131072 words long.
 Raffenetti 2 integral format.
 Two-electron integral symmetry is turned on.
 Leave Link  301 at Wed Feb  7 19:35:22 2024, MaxMem=  6710886400 cpu:               0.7 elap:               0.1
 (Enter /tmpu/scunam/7/gaussian-2016.03/g1/g16/l302.exe)
 NPDir=0 NMtPBC=     1 NCelOv=     1 NCel=       1 NClECP=     1 NCelD=      1
         NCelK=      1 NCelE2=     1 NClLst=     1 CellRange=     0.0.
 One-electron integrals computed using PRISM.
 One-electron integral symmetry used in STVInt
   1 Symmetry operations used in ECPInt.
 ECPInt:  NShTT=   10440 NPrTT=   30108 LenC2=    9707 LenP2D=   21934.
 LDataN:  DoStor=T MaxTD1= 6 Len=  172
 NBasis=   332 RedAO= T EigKep=  8.45D-05  NBF=   332
 NBsUse=   332 1.00D-06 EigRej= -1.00D+00 NBFU=   332
 Precomputing XC quadrature grid using
 IXCGrd= 4 IRadAn=           5 IRanWt=          -1 IRanGd=           0 AccXCQ= 0.00D+00.
 Generated NRdTot=       0 NPtTot=           0 NUsed=           0 NTot=          32
 NSgBfM=   367   367   367   367   367 MxSgAt=    22 MxSgA2=    22.
 Leave Link  302 at Wed Feb  7 19:35:22 2024, MaxMem=  6710886400 cpu:               5.1 elap:               0.3
 (Enter /tmpu/scunam/7/gaussian-2016.03/g1/g16/l303.exe)
 DipDrv:  MaxL=1.
 Leave Link  303 at Wed Feb  7 19:35:22 2024, MaxMem=  6710886400 cpu:               0.7 elap:               0.1
 (Enter /tmpu/scunam/7/gaussian-2016.03/g1/g16/l401.exe)
 Initial guess from the checkpoint file:  "Heptanal.chk"
 B after Tr=     0.000000    0.000000    0.000000
         Rot=    0.999993   -0.003766   -0.000046   -0.000002 Ang=  -0.43 deg.
 Guess basis will be translated and rotated to current coordinates.
 JPrj=2 DoOrth=T DoCkMO=T.
 Generating alternative initial guess.
 ExpMin= 9.52D-02 ExpMax= 2.70D+04 ExpMxC= 9.22D+02 IAcc=2 IRadAn=         4 AccDes= 0.00D+00
 Harris functional with IExCor=  402 and IRadAn=       4 diagonalized for initial guess.
 HarFok:  IExCor=  402 AccDes= 0.00D+00 IRadAn=         4 IDoV= 1 UseB2=F ITyADJ=14
 ICtDFT=  3500011 ScaDFX=  1.000000  1.000000  1.000000  1.000000
 FoFCou: FMM=F IPFlag=           0 FMFlag=      100000 FMFlg1=           0
         NFxFlg=           0 DoJE=T BraDBF=F KetDBF=T FulRan=T
         wScrn=  0.000000 ICntrl=       500 IOpCl=  0 I1Cent=   200000004 NGrid=           0
         NMat0=    1 NMatS0=      1 NMatT0=    0 NMatD0=    1 NMtDS0=    0 NMtDT0=    0
 Petite list used in FoFCou.
 Harris En= -350.630192189024    
 Leave Link  401 at Wed Feb  7 19:35:23 2024, MaxMem=  6710886400 cpu:              13.5 elap:               0.9
 (Enter /tmpu/scunam/7/gaussian-2016.03/g1/g16/l502.exe)
 Integral symmetry usage will be decided dynamically.
 Closed shell SCF:
 Using DIIS extrapolation, IDIIS=  1040.
 NGot=  6710886400 LenX=  6710600118 LenY=  6710461293
 Requested convergence on RMS density matrix=1.00D-08 within 128 cycles.
 Requested convergence on MAX density matrix=1.00D-06.
 Requested convergence on             energy=1.00D-06.
 No special actions if energy rises.
 Fock matrices will be formed incrementally for  20 cycles.
 Integral accuracy reduced to 1.0D-05 until final iterations.

 Cycle   1  Pass 0  IDiag  1:
 FoFJK:  IHMeth= 1 ICntrl=       0 DoSepK=F KAlg= 0 I1Cent=           0 FoldK=F
 IRaf= 890000000 NMat=       1 IRICut=       1 DoRegI=T DoRafI=F ISym2E= 0 IDoP0=0 IntGTp=1.
 FoFCou: FMM=F IPFlag=           0 FMFlag=      100000 FMFlg1=           0
         NFxFlg=           0 DoJE=F BraDBF=F KetDBF=F FulRan=T
         wScrn=  0.000000 ICntrl=         0 IOpCl=  0 I1Cent=           0 NGrid=           0
         NMat0=    1 NMatS0=      1 NMatT0=    0 NMatD0=    1 NMtDS0=    0 NMtDT0=    0
 Symmetry not used in FoFCou.
 E= -350.536913288304    
 DIIS: error= 1.77D-03 at cycle   1 NSaved=   1.
 NSaved= 1 IEnMin= 1 EnMin= -350.536913288304     IErMin= 1 ErrMin= 1.77D-03
 ErrMax= 1.77D-03  0.00D+00 EMaxC= 1.00D-01 BMatC= 1.89D-03 BMatP= 1.89D-03
 IDIUse=3 WtCom= 9.82D-01 WtEn= 1.77D-02
 Coeff-Com:  0.100D+01
 Coeff-En:   0.100D+01
 Coeff:      0.100D+01
 Gap=     0.647 Goal=   None    Shift=    0.000
 GapD=    0.647 DampG=2.000 DampE=1.000 DampFc=2.0000 IDamp=-1.
 RMSDP=1.73D-04 MaxDP=7.70D-03              OVMax= 1.58D-02

 Cycle   2  Pass 0  IDiag  1:
 RMSU=  1.73D-04    CP:  1.00D+00
 E= -350.539549855910     Delta-E=       -0.002636567606 Rises=F Damp=F
 DIIS: error= 3.85D-04 at cycle   2 NSaved=   2.
 NSaved= 2 IEnMin= 2 EnMin= -350.539549855910     IErMin= 2 ErrMin= 3.85D-04
 ErrMax= 3.85D-04  0.00D+00 EMaxC= 1.00D-01 BMatC= 4.06D-05 BMatP= 1.89D-03
 IDIUse=3 WtCom= 9.96D-01 WtEn= 3.85D-03
 Coeff-Com: -0.479D-01 0.105D+01
 Coeff-En:   0.000D+00 0.100D+01
 Coeff:     -0.477D-01 0.105D+01
 Gap=     0.231 Goal=   None    Shift=    0.000
 RMSDP=5.47D-05 MaxDP=7.48D-03 DE=-2.64D-03 OVMax= 2.99D-03

 Cycle   3  Pass 0  IDiag  1:
 RMSU=  5.36D-05    CP:  9.98D-01  1.03D+00
 E= -350.539541886739     Delta-E=        0.000007969171 Rises=F Damp=F
 DIIS: error= 5.40D-04 at cycle   3 NSaved=   3.
 NSaved= 3 IEnMin= 2 EnMin= -350.539549855910     IErMin= 2 ErrMin= 3.85D-04
 ErrMax= 5.40D-04  0.00D+00 EMaxC= 1.00D-01 BMatC= 7.73D-05 BMatP= 4.06D-05
 IDIUse=3 WtCom= 3.01D-01 WtEn= 6.99D-01
 Coeff-Com: -0.429D-01 0.643D+00 0.400D+00
 Coeff-En:   0.000D+00 0.554D+00 0.446D+00
 Coeff:     -0.129D-01 0.580D+00 0.432D+00
 Gap=     0.230 Goal=   None    Shift=    0.000
 RMSDP=4.55D-05 MaxDP=6.57D-03 DE= 7.97D-06 OVMax= 3.02D-03

 Cycle   4  Pass 0  IDiag  1:
 RMSU=  1.60D-05    CP:  9.99D-01  1.04D+00  2.25D-01
 E= -350.539586968929     Delta-E=       -0.000045082190 Rises=F Damp=F
 DIIS: error= 2.23D-04 at cycle   4 NSaved=   4.
 NSaved= 4 IEnMin= 4 EnMin= -350.539586968929     IErMin= 4 ErrMin= 2.23D-04
 ErrMax= 2.23D-04  0.00D+00 EMaxC= 1.00D-01 BMatC= 1.40D-05 BMatP= 4.06D-05
 IDIUse=3 WtCom= 9.98D-01 WtEn= 2.23D-03
 Coeff-Com: -0.123D-01 0.151D+00 0.304D+00 0.558D+00
 Coeff-En:   0.000D+00 0.000D+00 0.200D+00 0.800D+00
 Coeff:     -0.123D-01 0.150D+00 0.303D+00 0.559D+00
 Gap=     0.230 Goal=   None    Shift=    0.000
 RMSDP=1.28D-05 MaxDP=1.76D-03 DE=-4.51D-05 OVMax= 1.00D-03

 Cycle   5  Pass 0  IDiag  1:
 RMSU=  3.23D-06    CP:  9.99D-01  1.05D+00  4.25D-01  6.52D-01
 E= -350.539597041963     Delta-E=       -0.000010073034 Rises=F Damp=F
 DIIS: error= 1.84D-05 at cycle   5 NSaved=   5.
 NSaved= 5 IEnMin= 5 EnMin= -350.539597041963     IErMin= 5 ErrMin= 1.84D-05
 ErrMax= 1.84D-05  0.00D+00 EMaxC= 1.00D-01 BMatC= 1.51D-07 BMatP= 1.40D-05
 IDIUse=1 WtCom= 1.00D+00 WtEn= 0.00D+00
 Coeff-Com: -0.124D-02 0.379D-02 0.776D-01 0.200D+00 0.720D+00
 Coeff:     -0.124D-02 0.379D-02 0.776D-01 0.200D+00 0.720D+00
 Gap=     0.230 Goal=   None    Shift=    0.000
 RMSDP=1.69D-06 MaxDP=1.60D-04 DE=-1.01D-05 OVMax= 1.24D-04

 Initial convergence to 1.0D-05 achieved.  Increase integral accuracy.
 Cycle   6  Pass 1  IDiag  1:
 E= -350.539571014293     Delta-E=        0.000026027670 Rises=F Damp=F
 DIIS: error= 1.22D-04 at cycle   1 NSaved=   1.
 NSaved= 1 IEnMin= 1 EnMin= -350.539571014293     IErMin= 1 ErrMin= 1.22D-04
 ErrMax= 1.22D-04  0.00D+00 EMaxC= 1.00D-01 BMatC= 1.28D-06 BMatP= 1.28D-06
 IDIUse=3 WtCom= 9.99D-01 WtEn= 1.22D-03
 Coeff-Com:  0.100D+01
 Coeff-En:   0.100D+01
 Coeff:      0.100D+01
 Gap=     0.230 Goal=   None    Shift=    0.000
 RMSDP=1.69D-06 MaxDP=1.60D-04 DE= 2.60D-05 OVMax= 3.11D-04

 Cycle   7  Pass 1  IDiag  1:
 RMSU=  6.60D-05    CP:  1.00D+00
 E= -350.539571873006     Delta-E=       -0.000000858713 Rises=F Damp=F
 DIIS: error= 6.07D-06 at cycle   2 NSaved=   2.
 NSaved= 2 IEnMin= 2 EnMin= -350.539571873006     IErMin= 2 ErrMin= 6.07D-06
 ErrMax= 6.07D-06  0.00D+00 EMaxC= 1.00D-01 BMatC= 2.12D-08 BMatP= 1.28D-06
 IDIUse=1 WtCom= 1.00D+00 WtEn= 0.00D+00
 Coeff-Com:  0.234D-01 0.977D+00
 Coeff:      0.234D-01 0.977D+00
 Gap=     0.230 Goal=   None    Shift=    0.000
 RMSDP=1.35D-06 MaxDP=6.64D-05 DE=-8.59D-07 OVMax= 4.66D-05

 Cycle   8  Pass 1  IDiag  1:
 RMSU=  9.25D-07    CP:  1.00D+00  1.01D+00
 E= -350.539571867717     Delta-E=        0.000000005289 Rises=F Damp=F
 DIIS: error= 7.00D-06 at cycle   3 NSaved=   3.
 NSaved= 3 IEnMin= 2 EnMin= -350.539571873006     IErMin= 2 ErrMin= 6.07D-06
 ErrMax= 7.00D-06  0.00D+00 EMaxC= 1.00D-01 BMatC= 2.70D-08 BMatP= 2.12D-08
 IDIUse=1 WtCom= 1.00D+00 WtEn= 0.00D+00
 Coeff-Com: -0.320D-02 0.531D+00 0.472D+00
 Coeff:     -0.320D-02 0.531D+00 0.472D+00
 Gap=     0.230 Goal=   None    Shift=    0.000
 RMSDP=4.22D-07 MaxDP=3.02D-05 DE= 5.29D-09 OVMax= 2.51D-05

 Cycle   9  Pass 1  IDiag  1:
 RMSU=  2.12D-07    CP:  1.00D+00  1.02D+00  6.12D-01
 E= -350.539571893182     Delta-E=       -0.000000025466 Rises=F Damp=F
 DIIS: error= 1.43D-06 at cycle   4 NSaved=   4.
 NSaved= 4 IEnMin= 4 EnMin= -350.539571893182     IErMin= 4 ErrMin= 1.43D-06
 ErrMax= 1.43D-06  0.00D+00 EMaxC= 1.00D-01 BMatC= 6.82D-10 BMatP= 2.12D-08
 IDIUse=1 WtCom= 1.00D+00 WtEn= 0.00D+00
 Coeff-Com: -0.232D-02 0.332D+00 0.303D+00 0.368D+00
 Coeff:     -0.232D-02 0.332D+00 0.303D+00 0.368D+00
 Gap=     0.230 Goal=   None    Shift=    0.000
 RMSDP=1.27D-07 MaxDP=1.83D-05 DE=-2.55D-08 OVMax= 7.25D-06

 Cycle  10  Pass 1  IDiag  1:
 RMSU=  1.11D-07    CP:  1.00D+00  1.02D+00  5.52D-01  9.97D-01
 E= -350.539571893673     Delta-E=       -0.000000000490 Rises=F Damp=F
 DIIS: error= 3.15D-07 at cycle   5 NSaved=   5.
 NSaved= 5 IEnMin= 5 EnMin= -350.539571893673     IErMin= 5 ErrMin= 3.15D-07
 ErrMax= 3.15D-07  0.00D+00 EMaxC= 1.00D-01 BMatC= 2.97D-11 BMatP= 6.82D-10
 IDIUse=1 WtCom= 1.00D+00 WtEn= 0.00D+00
 Coeff-Com: -0.897D-03 0.117D+00 0.109D+00 0.201D+00 0.574D+00
 Coeff:     -0.897D-03 0.117D+00 0.109D+00 0.201D+00 0.574D+00
 Gap=     0.230 Goal=   None    Shift=    0.000
 RMSDP=1.62D-08 MaxDP=1.13D-06 DE=-4.90D-10 OVMax= 1.45D-06

 Cycle  11  Pass 1  IDiag  1:
 RMSU=  1.35D-08    CP:  1.00D+00  1.02D+00  5.57D-01  1.02D+00  9.52D-01
 E= -350.539571893692     Delta-E=       -0.000000000020 Rises=F Damp=F
 DIIS: error= 6.77D-08 at cycle   6 NSaved=   6.
 NSaved= 6 IEnMin= 6 EnMin= -350.539571893692     IErMin= 6 ErrMin= 6.77D-08
 ErrMax= 6.77D-08  0.00D+00 EMaxC= 1.00D-01 BMatC= 2.15D-12 BMatP= 2.97D-11
 IDIUse=1 WtCom= 1.00D+00 WtEn= 0.00D+00
 Coeff-Com: -0.651D-04 0.464D-02 0.470D-02 0.314D-01 0.232D+00 0.728D+00
 Coeff:     -0.651D-04 0.464D-02 0.470D-02 0.314D-01 0.232D+00 0.728D+00
 Gap=     0.230 Goal=   None    Shift=    0.000
 RMSDP=6.32D-09 MaxDP=2.41D-07 DE=-1.96D-11 OVMax= 9.89D-07

 SCF Done:  E(RB3LYP) =  -350.539571894     A.U. after   11 cycles
            NFock= 11  Conv=0.63D-08     -V/T= 2.0055
 KE= 3.486342738384D+02 PE=-1.534174800215D+03 EE= 4.752086754614D+02
 Leave Link  502 at Wed Feb  7 19:35:55 2024, MaxMem=  6710886400 cpu:             509.4 elap:              31.9
 (Enter /tmpu/scunam/7/gaussian-2016.03/g1/g16/l508.exe)
 QCSCF skips out because SCF is already converged.
 Leave Link  508 at Wed Feb  7 19:35:55 2024, MaxMem=  6710886400 cpu:               0.0 elap:               0.0
 (Enter /tmpu/scunam/7/gaussian-2016.03/g1/g16/l701.exe)
 ... and contract with generalized density number  0.
 Compute integral first derivatives.
   1 Symmetry operations used in ECPInt.
 ECPInt:  NShTT=   10440 NPrTT=   30108 LenC2=    9707 LenP2D=   21934.
 LDataN:  DoStor=T MaxTD1= 7 Len=  274
 Leave Link  701 at Wed Feb  7 19:35:56 2024, MaxMem=  6710886400 cpu:               3.4 elap:               0.2
 (Enter /tmpu/scunam/7/gaussian-2016.03/g1/g16/l702.exe)
 L702 exits ... SP integral derivatives will be done elsewhere.
 Leave Link  702 at Wed Feb  7 19:35:56 2024, MaxMem=  6710886400 cpu:               0.3 elap:               0.0
 (Enter /tmpu/scunam/7/gaussian-2016.03/g1/g16/l703.exe)
 Integral derivatives from FoFJK, PRISM(SPDF).
 Compute integral first derivatives, UseDBF=F ICtDFT=           0.
 Calling FoFJK, ICntrl=      2127 FMM=F ISym2X=0 I1Cent= 0 IOpClX= 0 NMat=1 NMatS=1 NMatT=0.
 FoFJK:  IHMeth= 1 ICntrl=    2127 DoSepK=F KAlg= 0 I1Cent=           0 FoldK=F
 IRaf=         0 NMat=       1 IRICut=       1 DoRegI=T DoRafI=F ISym2E= 0 IDoP0=0 IntGTp=1.
 FoFCou: FMM=F IPFlag=           0 FMFlag=      100000 FMFlg1=         800
         NFxFlg=           0 DoJE=F BraDBF=F KetDBF=F FulRan=T
         wScrn=  0.000000 ICntrl=      2127 IOpCl=  0 I1Cent=           0 NGrid=           0
         NMat0=    1 NMatS0=      1 NMatT0=    0 NMatD0=    1 NMtDS0=    0 NMtDT0=    0
 Symmetry not used in FoFCou.
 Leave Link  703 at Wed Feb  7 19:36:07 2024, MaxMem=  6710886400 cpu:             176.0 elap:              11.0
 (Enter /tmpu/scunam/7/gaussian-2016.03/g1/g16/l716.exe)
 Dipole        = 4.63604653D-01 9.77028775D-01-1.85517327D-02
 ***** Axes restored to original set *****
 -------------------------------------------------------------------
 Center     Atomic                   Forces (Hartrees/Bohr)
 Number     Number              X              Y              Z
 -------------------------------------------------------------------
      1        8          -0.000061539   -0.006134466   -0.001423922
      2        6          -0.000082369   -0.000522294   -0.000421661
      3        6           0.000281750    0.000229019    0.000270981
      4        6          -0.000563067    0.000252592    0.000468293
      5        6          -0.000255095   -0.000436541   -0.000379282
      6        6          -0.000101484   -0.000971422   -0.000983117
      7        6           0.000290826    0.000285912    0.000346067
      8        6           0.000552373    0.006470922    0.004456300
      9        1          -0.000221298   -0.000107805   -0.000133827
     10        1          -0.000027902    0.000266209    0.000285391
     11        1           0.000037495   -0.000137104    0.000029110
     12        1           0.000060175   -0.000299418   -0.000346696
     13        1           0.000109071   -0.000358461   -0.000185466
     14        1          -0.000016541   -0.000301805    0.000170352
     15        1           0.000125395    0.000377673    0.000506923
     16        1           0.000155396    0.000283420   -0.000268740
     17        1          -0.001280702   -0.000932245    0.000024351
     18        1           0.000796978    0.001731871   -0.001303506
     19        1           0.000615809    0.000193616    0.000135214
     20        1          -0.000010624   -0.000185545    0.000311696
     21        1           0.000040785   -0.000325591   -0.000644674
     22        1          -0.000445433    0.000621461   -0.000913788
 -------------------------------------------------------------------
 Cartesian Forces:  Max     0.006470922 RMS     0.001333001
 Leave Link  716 at Wed Feb  7 19:36:07 2024, MaxMem=  6710886400 cpu:               0.3 elap:               0.0
 (Enter /tmpu/scunam/7/gaussian-2016.03/g1/g16/l103.exe)

 GradGradGradGradGradGradGradGradGradGradGradGradGradGradGradGradGradGrad
 Berny optimization.
 Search for a local minimum.
 Step number  12 out of a maximum of  132
 All quantities printed in internal units (Hartrees-Bohrs-Radians)
 Update second derivatives using D2CorN and points    2    3    4    7    5
                                                         12   11
 ITU=  0  0  0  0  0 -1  0  0  1  1  1  0
     Eigenvalues ---    0.00030   0.00125   0.00208   0.00239   0.00282
     Eigenvalues ---    0.00532   0.00655   0.00914   0.01420   0.02061
     Eigenvalues ---    0.02412   0.03221   0.03450   0.03948   0.04633
     Eigenvalues ---    0.04710   0.05242   0.05293   0.05628   0.05785
     Eigenvalues ---    0.06134   0.06416   0.06880   0.07947   0.08001
     Eigenvalues ---    0.08535   0.09608   0.09954   0.11802   0.13061
     Eigenvalues ---    0.13073   0.13867   0.15031   0.15982   0.17826
     Eigenvalues ---    0.18050   0.20590   0.21427   0.23989   0.24834
     Eigenvalues ---    0.27329   0.39128   0.52195   0.58119   0.61993
     Eigenvalues ---    0.69049   0.69516   0.78376   0.87076   0.87850
     Eigenvalues ---    0.92889   0.92972   0.95642   0.98915   0.99662
     Eigenvalues ---    1.02382   1.04718   1.08383   1.12839   2.05746
 RFO step:  Lambda=-1.34455916D-05 EMin= 2.97499902D-04
 Quartic linear search produced a step of -0.83021.
 B after Tr=    -0.000233    0.000305    0.001587
         Rot=    1.000000   -0.000527    0.000198   -0.000076 Ang=  -0.07 deg.
 Variable       Old X    -DE/DX   Delta X   Delta X   Delta X     New X
                                 (Linear)    (Quad)   (Total)
    X1        6.74606  -0.00006  -0.02153  -0.00122  -0.02332   6.72274
    Y1        1.87328  -0.00613   0.02793   0.00639   0.03550   1.90878
    Z1        0.19286  -0.00142  -0.08313   0.02062  -0.05625   0.13661
    X2       -0.98361  -0.00008  -0.00468  -0.00156  -0.00628  -0.98989
    Y2       -1.12326  -0.00052  -0.02592  -0.00804  -0.03377  -1.15703
    Z2        0.01804  -0.00042  -0.05518  -0.00090  -0.05611  -0.03806
    X3       -3.26601   0.00028   0.00435   0.00134   0.00537  -3.26064
    Y3        0.65174   0.00023  -0.01833  -0.00532  -0.02385   0.62788
    Z3        0.04557   0.00027  -0.03058  -0.00692  -0.03654   0.00903
    X4        1.56742  -0.00056  -0.01232  -0.00367  -0.01626   1.55116
    Y4        0.23759   0.00025  -0.01749  -0.00431  -0.02128   0.21631
    Z4        0.01964   0.00047   0.00172  -0.00010   0.00405   0.02369
    X5       -5.80319  -0.00026  -0.00305  -0.00057  -0.00372  -5.80691
    Y5       -0.73485  -0.00044  -0.00099  -0.00115  -0.00269  -0.73753
    Z5       -0.01406  -0.00038  -0.01596   0.00484  -0.01261  -0.02666
    X6        3.79832  -0.00010   0.00149  -0.00059   0.00091   3.79923
    Y6       -1.58487  -0.00097   0.00178   0.00034   0.00303  -1.58185
    Z6       -0.05290  -0.00098   0.03826  -0.00816   0.03152  -0.02137
    X7       -8.08640   0.00029   0.01482   0.00582   0.02024  -8.06616
    Y7        1.03503   0.00029   0.01801   0.00583   0.02289   1.05793
    Z7       -0.00873   0.00035   0.03224   0.00098   0.03272   0.02399
    X8        6.36673   0.00055  -0.00862  -0.00229  -0.01111   6.35562
    Y8       -0.37261   0.00647   0.02924   0.00631   0.03676  -0.33585
    Z8        0.04308   0.00446   0.01754  -0.00264   0.01866   0.06175
    X9       -1.08236  -0.00022  -0.02342  -0.00410  -0.02800  -1.11036
    Y9       -2.38123  -0.00011  -0.06519  -0.00528  -0.07199  -2.45322
    Z9        1.66149  -0.00013  -0.08764   0.00097  -0.08810   1.57339
   X10       -1.10352  -0.00003   0.01083   0.00016   0.01180  -1.09171
   Y10       -2.35241   0.00027   0.01663  -0.00978   0.00882  -2.34359
   Z10       -1.64725   0.00029  -0.08527   0.00061  -0.08597  -1.73323
   X11       -3.15422   0.00004   0.00044   0.00084   0.00140  -3.15283
   Y11        1.93574  -0.00014  -0.00812  -0.01490  -0.02149   1.91425
   Z11       -1.57616   0.00003  -0.02252  -0.01422  -0.03439  -1.61055
   X12       -3.18180   0.00006   0.02432   0.00593   0.02907  -3.15273
   Y12        1.85462  -0.00030  -0.03108   0.00350  -0.02954   1.82508
   Z12        1.73122  -0.00035  -0.02371  -0.01384  -0.03529   1.69593
   X13        1.72456   0.00011  -0.05153  -0.00353  -0.05618   1.66838
   Y13        1.43777  -0.00036  -0.02668  -0.00898  -0.03691   1.40086
   Z13        1.69523  -0.00019   0.01066   0.00283   0.01722   1.71245
   X14        1.68728  -0.00002   0.01152  -0.00848   0.00321   1.69048
   Y14        1.52024  -0.00030  -0.00884  -0.00070  -0.00732   1.51293
   Z14       -1.59686   0.00017   0.01159   0.00287   0.01832  -1.57854
   X15       -5.87652   0.00013  -0.03305  -0.00599  -0.03830  -5.91482
   Y15       -1.94129   0.00038   0.01580  -0.00899   0.00802  -1.93327
   Z15       -1.69682   0.00051  -0.02470   0.01131  -0.01618  -1.71300
   X16       -5.92163   0.00016   0.00952   0.00051   0.00947  -5.91216
   Y16       -2.01450   0.00028  -0.01379   0.00837  -0.00769  -2.02219
   Z16        1.60995  -0.00027  -0.02601   0.01182  -0.01707   1.59287
   X17        3.78170  -0.00128  -0.00435  -0.00175  -0.00523   3.77647
   Y17       -2.73303  -0.00093  -0.05691   0.00553  -0.04870  -2.78173
   Z17       -1.78215   0.00002   0.07816  -0.01170   0.06661  -1.71553
   X18        3.70365   0.00080   0.02719   0.00141   0.02820   3.73185
   Y18       -2.97271   0.00173   0.05555  -0.00260   0.05217  -2.92053
   Z18        1.49602  -0.00130   0.07948  -0.01223   0.06724   1.56326
   X19       -9.85989   0.00062   0.00592   0.00313   0.00881  -9.85108
   Y19       -0.01989   0.00019   0.03312   0.01157   0.04350   0.02361
   Z19       -0.08597   0.00014   0.07158   0.01501   0.08429  -0.00168
   X20       -8.04534  -0.00001  -0.00983   0.00407  -0.00571  -8.05104
   Y20        2.30960  -0.00019   0.01853  -0.00576   0.01355   2.32315
   Z20       -1.63463   0.00031   0.03281  -0.00734   0.02631  -1.60832
   X21       -8.12432   0.00004   0.06247   0.01595   0.07716  -8.04716
   Y21        2.20183  -0.00033   0.01721   0.01714   0.03162   2.23345
   Z21        1.69747  -0.00064   0.03141  -0.00744   0.02472   1.72219
   X22        7.97982  -0.00045  -0.00049  -0.00102  -0.00151   7.97831
   Y22       -1.72063   0.00062   0.03954   0.00835   0.04936  -1.67126
   Z22        0.00076  -0.00091   0.04924  -0.00537   0.04687   0.04763
         Item               Value     Threshold  Converged?
 Maximum Force            0.006471     0.000450     NO 
 RMS     Force            0.001333     0.000300     NO 
 Maximum Displacement     0.088101     0.001800     NO 
 RMS     Displacement     0.036395     0.001200     NO 
 Predicted change in Energy=-1.594057D-05
 GradGradGradGradGradGradGradGradGradGradGradGradGradGradGradGradGradGrad

 Leave Link  103 at Wed Feb  7 19:36:07 2024, MaxMem=  6710886400 cpu:               0.3 elap:               0.0
 (Enter /tmpu/scunam/7/gaussian-2016.03/g1/g16/l202.exe)
                          Input orientation:                          
 ---------------------------------------------------------------------
 Center     Atomic      Atomic             Coordinates (Angstroms)
 Number     Number       Type             X           Y           Z
 ---------------------------------------------------------------------
      1          8           0        3.557521    1.010083    0.072291
      2          6           0       -0.523828   -0.612274   -0.020141
      3          6           0       -1.725458    0.332262    0.004778
      4          6           0        0.820838    0.114468    0.012538
      5          6           0       -3.072884   -0.390285   -0.014110
      6          6           0        2.010464   -0.837076   -0.011310
      7          6           0       -4.268427    0.559830    0.012695
      8          6           0        3.363247   -0.177726    0.032674
      9          1           0       -0.587579   -1.298187    0.832604
     10          1           0       -0.577710   -1.240175   -0.917183
     11          1           0       -1.668404    1.012979   -0.852266
     12          1           0       -1.668354    0.965793    0.897446
     13          1           0        0.882866    0.741305    0.906188
     14          1           0        0.894566    0.800606   -0.835327
     15          1           0       -3.129986   -1.023041   -0.906480
     16          1           0       -3.128578   -1.070098    0.842912
     17          1           0        1.998421   -1.472028   -0.907821
     18          1           0        1.974811   -1.545480    0.827242
     19          1           0       -5.212965    0.012492   -0.000889
     20          1           0       -4.260428    1.229358   -0.851087
     21          1           0       -4.258371    1.181889    0.911344
     22          1           0        4.221939   -0.884394    0.025204
 ---------------------------------------------------------------------
                    Distance matrix (angstroms):
                    1          2          3          4          5
     1  O    0.000000
     2  C    4.392949   0.000000
     3  C    5.326713   1.528621   0.000000
     4  C    2.880128   1.528839   2.555605   0.000000
     5  C    6.777225   2.558711   1.529049   3.926392   0.000000
     6  C    2.410887   2.544259   3.914681   1.523554   5.102946
     7  C    7.839116   3.923892   2.553144   5.108714   1.527338
     8  C    1.204244   3.911646   5.114272   2.559224   6.439810
     9  H    4.805002   1.096227   2.153701   2.156789   2.778121
    10  H    4.810703   1.096289   2.154042   2.157632   2.786350
    11  H    5.307081   2.154979   1.095972   2.784158   2.155045
    12  H    5.290805   2.154577   1.096120   2.775589   2.154666
    13  H    2.814499   2.160798   2.789840   1.093336   4.216089
    14  H    2.821167   2.161620   2.790994   1.093205   4.222946
    15  H    7.057928   2.783233   2.154052   4.212782   1.095429
    16  H    7.044497   2.781939   2.153562   4.206020   1.095324
    17  H    3.090678   2.808718   4.237402   2.179617   5.261846
    18  H    3.099327   2.798594   4.230171   2.179638   5.246101
    19  H    8.827343   4.730614   3.502141   6.034680   2.177694
    20  H    7.875344   4.247853   2.821943   5.273338   2.175784
    21  H    7.862678   4.246586   2.821237   5.267410   2.175678
    22  H    2.008161   4.753778   6.070601   3.544767   7.311643
                    6          7          8          9         10
     6  C    0.000000
     7  C    6.432449   0.000000
     8  C    1.505556   7.667257   0.000000
     9  H    2.770314   4.203941   4.183819   0.000000
    10  H    2.771596   4.210236   4.190724   1.750776   0.000000
    11  H    4.202854   2.777340   5.245799   3.057525   2.504103
    12  H    4.196413   2.776322   5.231871   2.509559   3.057561
    13  H    2.145826   5.231356   2.785665   2.515383   3.063369
    14  H    2.146215   5.237710   2.793734   3.063279   2.517754
    15  H    5.221125   2.155554   6.615032   3.092564   2.561518
    16  H    5.214763   2.155269   6.602772   2.551236   3.103834
    17  H    1.098654   6.652006   2.102974   3.121970   2.586561
    18  H    1.098306   6.638813   2.104719   2.574300   3.106701
    19  H    7.273225   1.091749   8.578387   4.879220   4.888186
    20  H    6.655785   1.092910   7.802650   4.765829   4.434566
    21  H    6.650249   1.092990   7.791641   4.430767   4.770448
    22  H    2.212282   8.612331   1.112109   4.894341   4.904213
                   11         12         13         14         15
    11  H    0.000000
    12  H    1.750349   0.000000
    13  H    3.110458   2.561093   0.000000
    14  H    2.571809   3.098120   1.742564   0.000000
    15  H    2.506898   3.057119   4.743592   4.419024   0.000000
    16  H    3.056951   2.506008   4.401916   4.743596   1.750026
    17  H    4.429893   4.758908   3.071471   2.527572   5.148024
    18  H    4.758096   4.425390   2.535342   3.071675   5.416427
    19  H    3.780176   3.778896   6.205894   6.214446   2.496242
    20  H    2.601040   3.137783   5.457077   5.172817   2.520767
    21  H    3.137958   2.599053   5.160084   5.454264   3.072369
    22  H    6.250289   6.235347   3.816862   3.827682   7.412021
                   16         17         18         19         20
    16  H    0.000000
    17  H    5.432562   0.000000
    18  H    5.125506   1.736777   0.000000
    19  H    2.495731   7.418249   7.401162   0.000000
    20  H    3.072168   6.817177   7.028138   1.763782   0.000000
    21  H    2.520429   7.035630   6.804276   1.763776   1.763071
    22  H    7.398191   2.481910   2.475860   9.477473   8.785578
                   21         22
    21  H    0.000000
    22  H    8.773279   0.000000
 Stoichiometry    C7H14O
 Framework group  C1[X(C7H14O)]
 Deg. of freedom    60
 Full point group                 C1      NOp   1
 RotChk:  IX=2 Diff= 1.12D-02
 Largest Abelian subgroup         C1      NOp   1
 Largest concise Abelian subgroup C1      NOp   1
                         Standard orientation:                         
 ---------------------------------------------------------------------
 Center     Atomic      Atomic             Coordinates (Angstroms)
 Number     Number       Type             X           Y           Z
 ---------------------------------------------------------------------
      1          8           0       -3.642450   -1.075366    0.002787
      2          6           0        0.414204    0.610309   -0.005250
      3          6           0        1.629900   -0.316379   -0.008889
      4          6           0       -0.919417   -0.137219   -0.007592
      5          6           0        2.966273    0.426481    0.007091
      6          6           0       -2.123224    0.796611   -0.002551
      7          6           0        4.175958   -0.505945    0.005094
      8          6           0       -3.466042    0.115872    0.008887
      9          1           0        0.463109    1.264547    0.872985
     10          1           0        0.463184    1.272239   -0.877775
     11          1           0        1.587634   -0.965162   -0.891187
     12          1           0        1.577807   -0.983817    0.859035
     13          1           0       -0.976541   -0.798080    0.861536
     14          1           0       -0.978320   -0.792015   -0.881016
     15          1           0        3.018375    1.093134   -0.860563
     16          1           0        3.007193    1.074341    0.889326
     17          1           0       -2.116187    1.464938   -0.874520
     18          1           0       -2.102680    1.473433    0.862184
     19          1           0        5.112129    0.055613    0.017485
     20          1           0        4.182606   -1.142559   -0.883236
     21          1           0        4.170701   -1.161440    0.879694
     22          1           0       -4.335321    0.809371    0.023006
 ---------------------------------------------------------------------
 Rotational constants (GHZ):           8.0323766           0.5662606           0.5394186
 Leave Link  202 at Wed Feb  7 19:36:07 2024, MaxMem=  6710886400 cpu:               0.2 elap:               0.0
 (Enter /tmpu/scunam/7/gaussian-2016.03/g1/g16/l301.exe)
 Standard basis: def2TZVP (5D, 7F)
 Ernie: Thresh=  0.10000D-02 Tol=  0.10000D-05 Strict=F.
 There are   372 symmetry adapted cartesian basis functions of A   symmetry.
 There are   332 symmetry adapted basis functions of A   symmetry.
   332 basis functions,   520 primitive gaussians,   372 cartesian basis functions
    32 alpha electrons       32 beta electrons
       nuclear repulsion energy       360.1218466538 Hartrees.
 IExCor=  402 DFT=T Ex+Corr=B3LYP ExCW=0 ScaHFX=  0.200000
 ScaDFX=  0.800000  0.720000  1.000000  0.810000 ScalE2=  1.000000  1.000000
 IRadAn=      5 IRanWt=     -1 IRanGd=            0 ICorTp=0 IEmpDi=  4
 NAtoms=   22 NActive=   22 NUniq=   22 SFac= 1.00D+00 NAtFMM=   60 NAOKFM=F Big=F
 Integral buffers will be    131072 words long.
 Raffenetti 2 integral format.
 Two-electron integral symmetry is turned on.
 Leave Link  301 at Wed Feb  7 19:36:07 2024, MaxMem=  6710886400 cpu:               0.7 elap:               0.1
 (Enter /tmpu/scunam/7/gaussian-2016.03/g1/g16/l302.exe)
 NPDir=0 NMtPBC=     1 NCelOv=     1 NCel=       1 NClECP=     1 NCelD=      1
         NCelK=      1 NCelE2=     1 NClLst=     1 CellRange=     0.0.
 One-electron integrals computed using PRISM.
 One-electron integral symmetry used in STVInt
   1 Symmetry operations used in ECPInt.
 ECPInt:  NShTT=   10440 NPrTT=   30108 LenC2=    9709 LenP2D=   21946.
 LDataN:  DoStor=T MaxTD1= 6 Len=  172
 NBasis=   332 RedAO= T EigKep=  8.35D-05  NBF=   332
 NBsUse=   332 1.00D-06 EigRej= -1.00D+00 NBFU=   332
 Precomputing XC quadrature grid using
 IXCGrd= 4 IRadAn=           5 IRanWt=          -1 IRanGd=           0 AccXCQ= 0.00D+00.
 Generated NRdTot=       0 NPtTot=           0 NUsed=           0 NTot=          32
 NSgBfM=   367   367   367   367   367 MxSgAt=    22 MxSgA2=    22.
 Leave Link  302 at Wed Feb  7 19:36:07 2024, MaxMem=  6710886400 cpu:               5.1 elap:               0.3
 (Enter /tmpu/scunam/7/gaussian-2016.03/g1/g16/l303.exe)
 DipDrv:  MaxL=1.
 Leave Link  303 at Wed Feb  7 19:36:07 2024, MaxMem=  6710886400 cpu:               0.7 elap:               0.1
 (Enter /tmpu/scunam/7/gaussian-2016.03/g1/g16/l401.exe)
 Lowest energy guess from the checkpoint file:  "Heptanal.chk"
 B after Tr=    -0.000000    0.000000    0.000000
         Rot=    0.999998   -0.002022    0.000022    0.000067 Ang=  -0.23 deg.
 Guess basis will be translated and rotated to current coordinates.
 B after Tr=    -0.000000    0.000000    0.000000
         Rot=    0.999998    0.001755    0.000066    0.000069 Ang=   0.20 deg.
 Guess basis will be translated and rotated to current coordinates.
 CkInt1:  FT= 1.70D-01
 Max alpha theta=  1.594 degrees.
 JPrj=2 DoOrth=T DoCkMO=T.
 Leave Link  401 at Wed Feb  7 19:36:08 2024, MaxMem=  6710886400 cpu:               4.6 elap:               0.3
 (Enter /tmpu/scunam/7/gaussian-2016.03/g1/g16/l502.exe)
 Integral symmetry usage will be decided dynamically.
 Closed shell SCF:
 Using DIIS extrapolation, IDIIS=  1040.
 NGot=  6710886400 LenX=  6710600118 LenY=  6710461293
 Requested convergence on RMS density matrix=1.00D-08 within 128 cycles.
 Requested convergence on MAX density matrix=1.00D-06.
 Requested convergence on             energy=1.00D-06.
 No special actions if energy rises.
 Fock matrices will be formed incrementally for  20 cycles.
 Integral accuracy reduced to 1.0D-05 until final iterations.

 Cycle   1  Pass 0  IDiag  1:
 FoFJK:  IHMeth= 1 ICntrl=       0 DoSepK=F KAlg= 0 I1Cent=           0 FoldK=F
 IRaf= 890000000 NMat=       1 IRICut=       1 DoRegI=T DoRafI=F ISym2E= 0 IDoP0=0 IntGTp=1.
 FoFCou: FMM=F IPFlag=           0 FMFlag=      100000 FMFlg1=           0
         NFxFlg=           0 DoJE=F BraDBF=F KetDBF=F FulRan=T
         wScrn=  0.000000 ICntrl=         0 IOpCl=  0 I1Cent=           0 NGrid=           0
         NMat0=    1 NMatS0=      1 NMatT0=    0 NMatD0=    1 NMtDS0=    0 NMtDT0=    0
 Symmetry not used in FoFCou.
 E= -350.539648926268    
 DIIS: error= 4.39D-04 at cycle   1 NSaved=   1.
 NSaved= 1 IEnMin= 1 EnMin= -350.539648926268     IErMin= 1 ErrMin= 4.39D-04
 ErrMax= 4.39D-04  0.00D+00 EMaxC= 1.00D-01 BMatC= 7.46D-05 BMatP= 7.46D-05
 IDIUse=3 WtCom= 9.96D-01 WtEn= 4.39D-03
 Coeff-Com:  0.100D+01
 Coeff-En:   0.100D+01
 Coeff:      0.100D+01
 Gap=    12.731 Goal=   None    Shift=    0.000
 RMSDP=7.31D-05 MaxDP=2.51D-03              OVMax= 3.21D-03

 Cycle   2  Pass 0  IDiag  1:
 RMSU=  7.31D-05    CP:  1.00D+00
 E= -350.539750830469     Delta-E=       -0.000101904201 Rises=F Damp=F
 DIIS: error= 7.07D-05 at cycle   2 NSaved=   2.
 NSaved= 2 IEnMin= 2 EnMin= -350.539750830469     IErMin= 2 ErrMin= 7.07D-05
 ErrMax= 7.07D-05  0.00D+00 EMaxC= 1.00D-01 BMatC= 1.04D-06 BMatP= 7.46D-05
 IDIUse=1 WtCom= 1.00D+00 WtEn= 0.00D+00
 Coeff-Com: -0.630D-01 0.106D+01
 Coeff:     -0.630D-01 0.106D+01
 Gap=     0.231 Goal=   None    Shift=    0.000
 RMSDP=6.27D-06 MaxDP=2.21D-04 DE=-1.02D-04 OVMax= 3.84D-04

 Initial convergence to 1.0D-05 achieved.  Increase integral accuracy.
 Cycle   3  Pass 1  IDiag  1:
 E= -350.539724799864     Delta-E=        0.000026030605 Rises=F Damp=F
 DIIS: error= 1.27D-04 at cycle   1 NSaved=   1.
 NSaved= 1 IEnMin= 1 EnMin= -350.539724799864     IErMin= 1 ErrMin= 1.27D-04
 ErrMax= 1.27D-04  0.00D+00 EMaxC= 1.00D-01 BMatC= 1.56D-06 BMatP= 1.56D-06
 IDIUse=3 WtCom= 9.99D-01 WtEn= 1.27D-03
 Coeff-Com:  0.100D+01
 Coeff-En:   0.100D+01
 Coeff:      0.100D+01
 Gap=     0.231 Goal=   None    Shift=    0.000
 RMSDP=6.27D-06 MaxDP=2.21D-04 DE= 2.60D-05 OVMax= 3.58D-04

 Cycle   4  Pass 1  IDiag  1:
 RMSU=  6.88D-05    CP:  1.00D+00
 E= -350.539725381346     Delta-E=       -0.000000581482 Rises=F Damp=F
 DIIS: error= 3.31D-05 at cycle   2 NSaved=   2.
 NSaved= 2 IEnMin= 2 EnMin= -350.539725381346     IErMin= 2 ErrMin= 3.31D-05
 ErrMax= 3.31D-05  0.00D+00 EMaxC= 1.00D-01 BMatC= 6.64D-07 BMatP= 1.56D-06
 IDIUse=1 WtCom= 1.00D+00 WtEn= 0.00D+00
 Coeff-Com:  0.351D+00 0.649D+00
 Coeff:      0.351D+00 0.649D+00
 Gap=     0.231 Goal=   None    Shift=    0.000
 RMSDP=5.62D-06 MaxDP=7.73D-04 DE=-5.81D-07 OVMax= 3.64D-04

 Cycle   5  Pass 1  IDiag  1:
 RMSU=  5.49D-06    CP:  1.00D+00  1.00D+00
 E= -350.539725479608     Delta-E=       -0.000000098262 Rises=F Damp=F
 DIIS: error= 4.04D-05 at cycle   3 NSaved=   3.
 NSaved= 3 IEnMin= 3 EnMin= -350.539725479608     IErMin= 2 ErrMin= 3.31D-05
 ErrMax= 4.04D-05  0.00D+00 EMaxC= 1.00D-01 BMatC= 5.97D-07 BMatP= 6.64D-07
 IDIUse=1 WtCom= 1.00D+00 WtEn= 0.00D+00
 Coeff-Com:  0.422D-01 0.478D+00 0.480D+00
 Coeff:      0.422D-01 0.478D+00 0.480D+00
 Gap=     0.231 Goal=   None    Shift=    0.000
 RMSDP=3.17D-06 MaxDP=4.47D-04 DE=-9.83D-08 OVMax= 2.23D-04

 Cycle   6  Pass 1  IDiag  1:
 RMSU=  8.23D-07    CP:  1.00D+00  1.01D+00  4.69D-01
 E= -350.539725894882     Delta-E=       -0.000000415273 Rises=F Damp=F
 DIIS: error= 9.94D-06 at cycle   4 NSaved=   4.
 NSaved= 4 IEnMin= 4 EnMin= -350.539725894882     IErMin= 4 ErrMin= 9.94D-06
 ErrMax= 9.94D-06  0.00D+00 EMaxC= 1.00D-01 BMatC= 3.43D-08 BMatP= 5.97D-07
 IDIUse=1 WtCom= 1.00D+00 WtEn= 0.00D+00
 Coeff-Com:  0.769D-03 0.246D+00 0.293D+00 0.461D+00
 Coeff:      0.769D-03 0.246D+00 0.293D+00 0.461D+00
 Gap=     0.231 Goal=   None    Shift=    0.000
 RMSDP=4.56D-07 MaxDP=4.74D-05 DE=-4.15D-07 OVMax= 3.85D-05

 Cycle   7  Pass 1  IDiag  1:
 RMSU=  1.91D-07    CP:  1.00D+00  1.01D+00  5.11D-01  5.90D-01
 E= -350.539725923604     Delta-E=       -0.000000028722 Rises=F Damp=F
 DIIS: error= 6.40D-07 at cycle   5 NSaved=   5.
 NSaved= 5 IEnMin= 5 EnMin= -350.539725923604     IErMin= 5 ErrMin= 6.40D-07
 ErrMax= 6.40D-07  0.00D+00 EMaxC= 1.00D-01 BMatC= 2.80D-10 BMatP= 3.43D-08
 IDIUse=1 WtCom= 1.00D+00 WtEn= 0.00D+00
 Coeff-Com: -0.952D-03 0.791D-01 0.972D-01 0.180D+00 0.645D+00
 Coeff:     -0.952D-03 0.791D-01 0.972D-01 0.180D+00 0.645D+00
 Gap=     0.231 Goal=   None    Shift=    0.000
 RMSDP=5.81D-08 MaxDP=2.59D-06 DE=-2.87D-08 OVMax= 3.39D-06

 Cycle   8  Pass 1  IDiag  1:
 RMSU=  4.64D-08    CP:  1.00D+00  1.01D+00  5.09D-01  5.87D-01  8.37D-01
 E= -350.539725923840     Delta-E=       -0.000000000236 Rises=F Damp=F
 DIIS: error= 1.45D-07 at cycle   6 NSaved=   6.
 NSaved= 6 IEnMin= 6 EnMin= -350.539725923840     IErMin= 6 ErrMin= 1.45D-07
 ErrMax= 1.45D-07  0.00D+00 EMaxC= 1.00D-01 BMatC= 4.88D-12 BMatP= 2.80D-10
 IDIUse=1 WtCom= 1.00D+00 WtEn= 0.00D+00
 Coeff-Com: -0.330D-03 0.236D-01 0.292D-01 0.563D-01 0.238D+00 0.653D+00
 Coeff:     -0.330D-03 0.236D-01 0.292D-01 0.563D-01 0.238D+00 0.653D+00
 Gap=     0.231 Goal=   None    Shift=    0.000
 RMSDP=7.91D-09 MaxDP=2.42D-07 DE=-2.36D-10 OVMax= 5.35D-07

 SCF Done:  E(RB3LYP) =  -350.539725924     A.U. after    8 cycles
            NFock=  8  Conv=0.79D-08     -V/T= 2.0054
 KE= 3.486715723378D+02 PE=-1.534859123764D+03 EE= 4.755259788483D+02
 Leave Link  502 at Wed Feb  7 19:36:34 2024, MaxMem=  6710886400 cpu:             425.1 elap:              26.6
 (Enter /tmpu/scunam/7/gaussian-2016.03/g1/g16/l508.exe)
 QCSCF skips out because SCF is already converged.
 Leave Link  508 at Wed Feb  7 19:36:34 2024, MaxMem=  6710886400 cpu:               0.0 elap:               0.0
 (Enter /tmpu/scunam/7/gaussian-2016.03/g1/g16/l701.exe)
 ... and contract with generalized density number  0.
 Compute integral first derivatives.
   1 Symmetry operations used in ECPInt.
 ECPInt:  NShTT=   10440 NPrTT=   30108 LenC2=    9709 LenP2D=   21946.
 LDataN:  DoStor=T MaxTD1= 7 Len=  274
 Leave Link  701 at Wed Feb  7 19:36:34 2024, MaxMem=  6710886400 cpu:               3.4 elap:               0.2
 (Enter /tmpu/scunam/7/gaussian-2016.03/g1/g16/l702.exe)
 L702 exits ... SP integral derivatives will be done elsewhere.
 Leave Link  702 at Wed Feb  7 19:36:34 2024, MaxMem=  6710886400 cpu:               0.3 elap:               0.0
 (Enter /tmpu/scunam/7/gaussian-2016.03/g1/g16/l703.exe)
 Integral derivatives from FoFJK, PRISM(SPDF).
 Compute integral first derivatives, UseDBF=F ICtDFT=           0.
 Calling FoFJK, ICntrl=      2127 FMM=F ISym2X=0 I1Cent= 0 IOpClX= 0 NMat=1 NMatS=1 NMatT=0.
 FoFJK:  IHMeth= 1 ICntrl=    2127 DoSepK=F KAlg= 0 I1Cent=           0 FoldK=F
 IRaf=         0 NMat=       1 IRICut=       1 DoRegI=T DoRafI=F ISym2E= 0 IDoP0=0 IntGTp=1.
 FoFCou: FMM=F IPFlag=           0 FMFlag=      100000 FMFlg1=         800
         NFxFlg=           0 DoJE=F BraDBF=F KetDBF=F FulRan=T
         wScrn=  0.000000 ICntrl=      2127 IOpCl=  0 I1Cent=           0 NGrid=           0
         NMat0=    1 NMatS0=      1 NMatT0=    0 NMatD0=    1 NMtDS0=    0 NMtDT0=    0
 Symmetry not used in FoFCou.
 Leave Link  703 at Wed Feb  7 19:36:46 2024, MaxMem=  6710886400 cpu:             176.2 elap:              11.0
 (Enter /tmpu/scunam/7/gaussian-2016.03/g1/g16/l716.exe)
 Dipole        = 4.58922145D-01 9.74341811D-01 1.27899300D-03
 ***** Axes restored to original set *****
 -------------------------------------------------------------------
 Center     Atomic                   Forces (Hartrees/Bohr)
 Number     Number              X              Y              Z
 -------------------------------------------------------------------
      1        8          -0.000280873   -0.000683314    0.000029844
      2        6           0.000020383    0.000117101   -0.000064293
      3        6          -0.000042319   -0.000064828    0.000106117
      4        6           0.000006539   -0.000077081    0.000058529
      5        6           0.000070968    0.000019623   -0.000061005
      6        6           0.000092367    0.000343128   -0.000126050
      7        6          -0.000032705    0.000048769    0.000029319
      8        6           0.000155277    0.000493311   -0.000024862
      9        1           0.000000878   -0.000069036    0.000077750
     10        1           0.000009069   -0.000050170   -0.000038528
     11        1           0.000012299    0.000022567   -0.000016805
     12        1          -0.000013309   -0.000021136   -0.000033140
     13        1          -0.000005213    0.000018261    0.000025665
     14        1          -0.000020845    0.000050488   -0.000067944
     15        1           0.000007186    0.000037801    0.000063758
     16        1           0.000000740   -0.000006159   -0.000024856
     17        1           0.000016783   -0.000077616    0.000013093
     18        1           0.000088106   -0.000065923    0.000131104
     19        1          -0.000051100    0.000012923   -0.000007807
     20        1          -0.000000136   -0.000004283    0.000015865
     21        1          -0.000000053   -0.000026044   -0.000057511
     22        1          -0.000034043   -0.000018380   -0.000028243
 -------------------------------------------------------------------
 Cartesian Forces:  Max     0.000683314 RMS     0.000128680
 Leave Link  716 at Wed Feb  7 19:36:46 2024, MaxMem=  6710886400 cpu:               0.3 elap:               0.0
 (Enter /tmpu/scunam/7/gaussian-2016.03/g1/g16/l103.exe)

 GradGradGradGradGradGradGradGradGradGradGradGradGradGradGradGradGradGrad
 Berny optimization.
 Search for a local minimum.
 Step number  13 out of a maximum of  132
 All quantities printed in internal units (Hartrees-Bohrs-Radians)
 Update second derivatives using D2CorN and points    2    3    4    7   12
                                                         11   13
 DE= -1.18D-05 DEPred=-1.59D-05 R= 7.40D-01
 TightC=F SS=  1.41D+00  RLast= 8.49D-02 DXNew= 5.9386D-01 2.5464D-01
 Trust test= 7.40D-01 RLast= 8.49D-02 DXMaxT set to 3.53D-01
 ITU=  1  0  0  0  0  0 -1  0  0  1  1  1  0
     Eigenvalues ---    0.00047   0.00110   0.00184   0.00207   0.00237
     Eigenvalues ---    0.00532   0.00653   0.00918   0.01424   0.02065
     Eigenvalues ---    0.02414   0.03220   0.03449   0.03948   0.04632
     Eigenvalues ---    0.04712   0.05241   0.05293   0.05634   0.05785
     Eigenvalues ---    0.06134   0.06414   0.06882   0.07948   0.08002
     Eigenvalues ---    0.08536   0.09618   0.09955   0.11802   0.13060
     Eigenvalues ---    0.13075   0.13868   0.15032   0.15982   0.17826
     Eigenvalues ---    0.18049   0.20591   0.21431   0.24203   0.24840
     Eigenvalues ---    0.27356   0.39130   0.52200   0.58118   0.61994
     Eigenvalues ---    0.69050   0.69507   0.78314   0.87071   0.87856
     Eigenvalues ---    0.92897   0.92959   0.95640   0.98947   0.99655
     Eigenvalues ---    1.02387   1.04720   1.08382   1.12839   2.05815
 RFO step:  Lambda=-3.30918678D-06 EMin= 4.67715601D-04
 Quartic linear search produced a step of -0.09317.
 B after Tr=    -0.000348    0.000072   -0.000855
         Rot=    1.000000    0.000277   -0.000114   -0.000027 Ang=   0.03 deg.
 Variable       Old X    -DE/DX   Delta X   Delta X   Delta X     New X
                                 (Linear)    (Quad)   (Total)
    X1        6.72274  -0.00028  -0.00024  -0.00619  -0.00686   6.71588
    Y1        1.90878  -0.00068  -0.00017   0.00242   0.00275   1.91153
    Z1        0.13661   0.00003  -0.00409  -0.00905  -0.01659   0.12003
    X2       -0.98989   0.00002   0.00006   0.00034   0.00011  -0.98979
    Y2       -1.15703   0.00012   0.00024  -0.00268  -0.00245  -1.15948
    Z2       -0.03806  -0.00006  -0.00097   0.00416   0.00321  -0.03486
    X3       -3.26064  -0.00004  -0.00001   0.00043   0.00004  -3.26060
    Y3        0.62788  -0.00006   0.00017  -0.00198  -0.00191   0.62597
    Z3        0.00903   0.00011  -0.00003   0.00582   0.00533   0.01436
    X4        1.55116   0.00001   0.00013   0.00040   0.00018   1.55134
    Y4        0.21631  -0.00008   0.00002  -0.00247  -0.00228   0.21404
    Z4        0.02369   0.00006  -0.00018   0.00486   0.00335   0.02704
    X5       -5.80691   0.00007   0.00000  -0.00075  -0.00106  -5.80797
    Y5       -0.73753   0.00002   0.00014   0.00073   0.00061  -0.73692
    Z5       -0.02666  -0.00006  -0.00062  -0.00327  -0.00300  -0.02967
    X6        3.79923   0.00009   0.00008   0.00192   0.00173   3.80096
    Y6       -1.58185   0.00034  -0.00008  -0.00108  -0.00089  -1.58274
    Z6       -0.02137  -0.00013   0.00136   0.00395   0.00446  -0.01692
    X7       -8.06616  -0.00003  -0.00022   0.00039  -0.00023  -8.06639
    Y7        1.05793   0.00005  -0.00011   0.00274   0.00227   1.06020
    Z7        0.02399   0.00003   0.00057  -0.00400  -0.00303   0.02096
    X8        6.35562   0.00016   0.00007   0.00001  -0.00024   6.35537
    Y8       -0.33585   0.00049  -0.00014   0.00181   0.00212  -0.33373
    Z8        0.06175  -0.00002   0.00023  -0.00693  -0.00883   0.05292
    X9       -1.11036   0.00000  -0.00002   0.00034   0.00047  -1.10990
    Y9       -2.45322  -0.00007  -0.00061  -0.00439  -0.00411  -2.45733
    Z9        1.57339   0.00008  -0.00163   0.00316   0.00229   1.57569
   X10       -1.09171   0.00001   0.00012   0.00040  -0.00010  -1.09181
   Y10       -2.34359  -0.00005   0.00105  -0.00122  -0.00112  -2.34471
   Z10       -1.73323  -0.00004  -0.00156   0.00293   0.00207  -1.73116
   X11       -3.15283   0.00001  -0.00008   0.00424   0.00334  -3.14949
   Y11        1.91425   0.00002   0.00109   0.00269   0.00280   1.91705
   Z11       -1.61055  -0.00002   0.00068   0.00977   0.00925  -1.60130
   X12       -3.15273  -0.00001   0.00002  -0.00204  -0.00208  -3.15481
   Y12        1.82508  -0.00002  -0.00074  -0.00688  -0.00678   1.81831
   Z12        1.69593  -0.00003   0.00063   0.00920   0.00869   1.70461
   X13        1.66838  -0.00001  -0.00055   0.00005  -0.00053   1.66785
   Y13        1.40086   0.00002   0.00044  -0.00238  -0.00082   1.40004
   Z13        1.71245   0.00003  -0.00041   0.00490   0.00248   1.71493
   X14        1.69048  -0.00002   0.00099  -0.00053  -0.00033   1.69016
   Y14        1.51293   0.00005  -0.00031  -0.00207  -0.00309   1.50983
   Z14       -1.57854  -0.00007  -0.00041   0.00484   0.00236  -1.57618
   X15       -5.91482   0.00001  -0.00014   0.00199   0.00121  -5.91361
   Y15       -1.93327   0.00004   0.00103   0.00522   0.00505  -1.92822
   Z15       -1.71300   0.00006  -0.00126  -0.00629  -0.00599  -1.71899
   X16       -5.91216   0.00000   0.00019  -0.00576  -0.00544  -5.91760
   Y16       -2.02219  -0.00001  -0.00083  -0.00333  -0.00353  -2.02572
   Z16        1.59287  -0.00002  -0.00133  -0.00703  -0.00674   1.58613
   X17        3.77647   0.00002  -0.00000  -0.00100  -0.00158   3.77489
   Y17       -2.78173  -0.00008  -0.00185  -0.00547  -0.00799  -2.78972
   Z17       -1.71553   0.00001   0.00257   0.00711   0.00950  -1.70603
   X18        3.73185   0.00009   0.00042   0.00838   0.00897   3.74083
   Y18       -2.92053  -0.00007   0.00137   0.00281   0.00533  -2.91520
   Z18        1.56326   0.00013   0.00265   0.00774   0.01030   1.57356
   X19       -9.85108  -0.00005  -0.00016  -0.00081  -0.00132  -9.85239
   Y19        0.02361   0.00001  -0.00034   0.00497   0.00416   0.02777
   Z19       -0.00168  -0.00001   0.00018  -0.01075  -0.00919  -0.01087
   X20       -8.05104  -0.00000  -0.00057   0.00548   0.00406  -8.04698
   Y20        2.32315  -0.00000   0.00082   0.00669   0.00625   2.32940
   Z20       -1.60832   0.00002   0.00123  -0.00070   0.00023  -1.60809
   X21       -8.04716  -0.00000  -0.00018  -0.00250  -0.00276  -8.04991
   Y21        2.23345  -0.00003  -0.00101  -0.00141  -0.00183   2.23161
   Z21        1.72219  -0.00006   0.00122  -0.00133  -0.00035   1.72184
   X22        7.97831  -0.00003   0.00009   0.00258   0.00241   7.98072
   Y22       -1.67126  -0.00002  -0.00016   0.00509   0.00545  -1.66581
   Z22        0.04763  -0.00003   0.00116  -0.00921  -0.00981   0.03782
         Item               Value     Threshold  Converged?
 Maximum Force            0.000683     0.000450     NO 
 RMS     Force            0.000129     0.000300     YES
 Maximum Displacement     0.016585     0.001800     NO 
 RMS     Displacement     0.004970     0.001200     NO 
 Predicted change in Energy=-1.892078D-06
 Lowest energy point so far.  Saving SCF results.
 GradGradGradGradGradGradGradGradGradGradGradGradGradGradGradGradGradGrad

 Leave Link  103 at Wed Feb  7 19:36:46 2024, MaxMem=  6710886400 cpu:               0.3 elap:               0.0
 (Enter /tmpu/scunam/7/gaussian-2016.03/g1/g16/l202.exe)
                          Input orientation:                          
 ---------------------------------------------------------------------
 Center     Atomic      Atomic             Coordinates (Angstroms)
 Number     Number       Type             X           Y           Z
 ---------------------------------------------------------------------
      1          8           0        3.553890    1.011540    0.063515
      2          6           0       -0.523772   -0.613568   -0.018445
      3          6           0       -1.725436    0.331249    0.007600
      4          6           0        0.820933    0.113263    0.014311
      5          6           0       -3.073447   -0.389960   -0.015699
      6          6           0        2.011381   -0.837548   -0.008952
      7          6           0       -4.268548    0.561034    0.011094
      8          6           0        3.363119   -0.176605    0.028004
      9          1           0       -0.587332   -1.300364    0.833818
     10          1           0       -0.577762   -1.240766   -0.916089
     11          1           0       -1.666636    1.014459   -0.847373
     12          1           0       -1.669452    0.962208    0.902043
     13          1           0        0.882586    0.740871    0.907501
     14          1           0        0.894392    0.798970   -0.834078
     15          1           0       -3.129346   -1.020371   -0.909649
     16          1           0       -3.131459   -1.071967    0.839345
     17          1           0        1.997584   -1.476257   -0.902792
     18          1           0        1.979559   -1.542657    0.832693
     19          1           0       -5.213661    0.014696   -0.005751
     20          1           0       -4.258278    1.232664   -0.850967
     21          1           0       -4.259830    1.180920    0.911156
     22          1           0        4.223215   -0.881508    0.020014
 ---------------------------------------------------------------------
                    Distance matrix (angstroms):
                    1          2          3          4          5
     1  O    0.000000
     2  C    4.390332   0.000000
     3  C    5.323270   1.528841   0.000000
     4  C    2.877216   1.528918   2.555692   0.000000
     5  C    6.774369   2.559463   1.528992   3.926873   0.000000
     6  C    2.409090   2.545045   3.915375   1.523729   5.104493
     7  C    7.835576   3.924782   2.553475   5.109142   1.527539
     8  C    1.203886   3.911651   5.113876   2.558694   6.440249
     9  H    4.804996   1.096394   2.154084   2.157115   2.780518
    10  H    4.806563   1.096384   2.154435   2.157635   2.786219
    11  H    5.299398   2.154932   1.095998   2.782563   2.154807
    12  H    5.290451   2.154750   1.096025   2.776832   2.154485
    13  H    2.814505   2.160954   2.789156   1.093380   4.216784
    14  H    2.814922   2.161414   2.791180   1.093323   4.222209
    15  H    7.052755   2.783658   2.153877   4.212308   1.095304
    16  H    7.045339   2.783157   2.153536   4.207952   1.095262
    17  H    3.089493   2.807764   4.237543   2.179945   5.261400
    18  H    3.097430   2.802554   4.233119   2.180421   5.251795
    19  H    8.824310   4.731801   3.502584   6.035433   2.178156
    20  H    7.868617   4.248317   2.822228   5.272585   2.175869
    21  H    7.861387   4.247643   2.821614   5.268622   2.175828
    22  H    2.008362   4.754699   6.071029   3.544732   7.313287
                    6          7          8          9         10
     6  C    0.000000
     7  C    6.433813   0.000000
     8  C    1.505127   7.667251   0.000000
     9  H    2.770879   4.206309   4.185479   0.000000
    10  H    2.772930   4.210470   4.189784   1.750947   0.000000
    11  H    4.202462   2.777140   5.242456   3.057729   2.505277
    12  H    4.197328   2.776694   5.233317   2.508958   3.057856
    13  H    2.146036   5.231641   2.787171   2.516491   3.063491
    14  H    2.146320   5.237068   2.790975   3.063427   2.516840
    15  H    5.222236   2.155549   6.613866   3.095142   2.561093
    16  H    5.217601   2.155381   6.606019   2.554364   3.103452
    17  H    1.098676   6.652079   2.102418   3.119061   2.586124
    18  H    1.098434   6.643749   2.104248   2.578302   3.112759
    19  H    7.275133   1.091791   8.578979   4.882333   4.888401
    20  H    6.656078   1.092859   7.800276   4.767659   4.434895
    21  H    6.651985   1.092907   7.793085   4.432831   4.770851
    22  H    2.212461   8.613423   1.112078   4.896845   4.904563
                   11         12         13         14         15
    11  H    0.000000
    12  H    1.750198   0.000000
    13  H    3.106922   2.561624   0.000000
    14  H    2.570112   3.100655   1.742588   0.000000
    15  H    2.506778   3.056818   4.743375   4.416580   0.000000
    16  H    3.056779   2.505845   4.404950   4.744284   1.749757
    17  H    4.430941   4.759274   3.071813   2.529508   5.147163
    18  H    4.759854   4.426561   2.534452   3.072285   5.423048
    19  H    3.780112   3.779323   6.206898   6.213656   2.496551
    20  H    2.600814   3.138185   5.455506   5.170917   2.520733
    21  H    3.137641   2.599611   5.161211   5.455065   3.072297
    22  H    6.247991   6.237050   3.818318   3.825512   7.412403
                   16         17         18         19         20
    16  H    0.000000
    17  H    5.431903   0.000000
    18  H    5.132651   1.736849   0.000000
    19  H    2.496115   7.418199   7.407480   0.000000
    20  H    3.072165   6.817385   7.031908   1.763688   0.000000
    21  H    2.520690   7.036066   6.808378   1.763686   1.762884
    22  H    7.402622   2.481680   2.476199   9.479372   8.784307
                   21         22
    21  H    0.000000
    22  H    8.775523   0.000000
 Stoichiometry    C7H14O
 Framework group  C1[X(C7H14O)]
 Deg. of freedom    60
 Full point group                 C1      NOp   1
 RotChk:  IX=2 Diff= 4.73D-03
 Largest Abelian subgroup         C1      NOp   1
 Largest concise Abelian subgroup C1      NOp   1
                         Standard orientation:                         
 ---------------------------------------------------------------------
 Center     Atomic      Atomic             Coordinates (Angstroms)
 Number     Number       Type             X           Y           Z
 ---------------------------------------------------------------------
      1          8           0       -3.639064   -1.076662    0.000292
      2          6           0        0.413697    0.611567   -0.004843
      3          6           0        1.629485   -0.315370   -0.004918
      4          6           0       -0.919914   -0.136142   -0.003960
      5          6           0        2.966443    0.426447    0.003475
      6          6           0       -2.124591    0.796860   -0.000842
      7          6           0        4.175760   -0.506788    0.003902
      8          6           0       -3.466258    0.114741    0.006458
      9          1           0        0.462804    1.269606    0.870745
     10          1           0        0.462312    1.269929   -0.880202
     11          1           0        1.585095   -0.969660   -0.883067
     12          1           0        1.578948   -0.977410    0.867103
     13          1           0       -0.976164   -0.794875    0.866894
     14          1           0       -0.978954   -0.793373   -0.875691
     15          1           0        3.016901    1.087921   -0.868073
     16          1           0        3.010063    1.079520    0.881650
     17          1           0       -2.116357    1.465987   -0.872214
     18          1           0       -2.107448    1.473084    0.864598
     19          1           0        5.112505    0.053987    0.010670
     20          1           0        4.179750   -1.148531   -0.880683
     21          1           0        4.172287   -1.157243    0.882163
     22          1           0       -4.336950    0.806462    0.018137
 ---------------------------------------------------------------------
 Rotational constants (GHZ):           8.0246709           0.5664473           0.5395490
 Leave Link  202 at Wed Feb  7 19:36:46 2024, MaxMem=  6710886400 cpu:               0.2 elap:               0.0
 (Enter /tmpu/scunam/7/gaussian-2016.03/g1/g16/l301.exe)
 Standard basis: def2TZVP (5D, 7F)
 Ernie: Thresh=  0.10000D-02 Tol=  0.10000D-05 Strict=F.
 There are   372 symmetry adapted cartesian basis functions of A   symmetry.
 There are   332 symmetry adapted basis functions of A   symmetry.
   332 basis functions,   520 primitive gaussians,   372 cartesian basis functions
    32 alpha electrons       32 beta electrons
       nuclear repulsion energy       360.1412484480 Hartrees.
 IExCor=  402 DFT=T Ex+Corr=B3LYP ExCW=0 ScaHFX=  0.200000
 ScaDFX=  0.800000  0.720000  1.000000  0.810000 ScalE2=  1.000000  1.000000
 IRadAn=      5 IRanWt=     -1 IRanGd=            0 ICorTp=0 IEmpDi=  4
 NAtoms=   22 NActive=   22 NUniq=   22 SFac= 1.00D+00 NAtFMM=   60 NAOKFM=F Big=F
 Integral buffers will be    131072 words long.
 Raffenetti 2 integral format.
 Two-electron integral symmetry is turned on.
 Leave Link  301 at Wed Feb  7 19:36:46 2024, MaxMem=  6710886400 cpu:               0.7 elap:               0.1
 (Enter /tmpu/scunam/7/gaussian-2016.03/g1/g16/l302.exe)
 NPDir=0 NMtPBC=     1 NCelOv=     1 NCel=       1 NClECP=     1 NCelD=      1
         NCelK=      1 NCelE2=     1 NClLst=     1 CellRange=     0.0.
 One-electron integrals computed using PRISM.
 One-electron integral symmetry used in STVInt
   1 Symmetry operations used in ECPInt.
 ECPInt:  NShTT=   10440 NPrTT=   30108 LenC2=    9710 LenP2D=   21946.
 LDataN:  DoStor=T MaxTD1= 6 Len=  172
 NBasis=   332 RedAO= T EigKep=  8.36D-05  NBF=   332
 NBsUse=   332 1.00D-06 EigRej= -1.00D+00 NBFU=   332
 Precomputing XC quadrature grid using
 IXCGrd= 4 IRadAn=           5 IRanWt=          -1 IRanGd=           0 AccXCQ= 0.00D+00.
 Generated NRdTot=       0 NPtTot=           0 NUsed=           0 NTot=          32
 NSgBfM=   367   367   367   367   367 MxSgAt=    22 MxSgA2=    22.
 Leave Link  302 at Wed Feb  7 19:36:46 2024, MaxMem=  6710886400 cpu:               5.1 elap:               0.3
 (Enter /tmpu/scunam/7/gaussian-2016.03/g1/g16/l303.exe)
 DipDrv:  MaxL=1.
 Leave Link  303 at Wed Feb  7 19:36:46 2024, MaxMem=  6710886400 cpu:               0.7 elap:               0.1
 (Enter /tmpu/scunam/7/gaussian-2016.03/g1/g16/l401.exe)
 Initial guess from the checkpoint file:  "Heptanal.chk"
 B after Tr=     0.000000   -0.000000    0.000000
         Rot=    1.000000    0.000824   -0.000017   -0.000077 Ang=   0.09 deg.
 Guess basis will be translated and rotated to current coordinates.
 JPrj=2 DoOrth=T DoCkMO=T.
 Leave Link  401 at Wed Feb  7 19:36:46 2024, MaxMem=  6710886400 cpu:               2.8 elap:               0.2
 (Enter /tmpu/scunam/7/gaussian-2016.03/g1/g16/l502.exe)
 Integral symmetry usage will be decided dynamically.
 Closed shell SCF:
 Using DIIS extrapolation, IDIIS=  1040.
 NGot=  6710886400 LenX=  6710600118 LenY=  6710461293
 Requested convergence on RMS density matrix=1.00D-08 within 128 cycles.
 Requested convergence on MAX density matrix=1.00D-06.
 Requested convergence on             energy=1.00D-06.
 No special actions if energy rises.
 Fock matrices will be formed incrementally for  20 cycles.

 Cycle   1  Pass 1  IDiag  1:
 FoFJK:  IHMeth= 1 ICntrl=       0 DoSepK=F KAlg= 0 I1Cent=           0 FoldK=F
 IRaf= 890000000 NMat=       1 IRICut=       1 DoRegI=T DoRafI=F ISym2E= 0 IDoP0=0 IntGTp=1.
 FoFCou: FMM=F IPFlag=           0 FMFlag=      100000 FMFlg1=           0
         NFxFlg=           0 DoJE=F BraDBF=F KetDBF=F FulRan=T
         wScrn=  0.000000 ICntrl=         0 IOpCl=  0 I1Cent=           0 NGrid=           0
         NMat0=    1 NMatS0=      1 NMatT0=    0 NMatD0=    1 NMtDS0=    0 NMtDT0=    0
 Symmetry not used in FoFCou.
 E= -350.539697533321    
 DIIS: error= 2.62D-04 at cycle   1 NSaved=   1.
 NSaved= 1 IEnMin= 1 EnMin= -350.539697533321     IErMin= 1 ErrMin= 2.62D-04
 ErrMax= 2.62D-04  0.00D+00 EMaxC= 1.00D-01 BMatC= 2.17D-05 BMatP= 2.17D-05
 IDIUse=3 WtCom= 9.97D-01 WtEn= 2.62D-03
 Coeff-Com:  0.100D+01
 Coeff-En:   0.100D+01
 Coeff:      0.100D+01
 Gap=     0.648 Goal=   None    Shift=    0.000
 RMSDP=1.59D-05 MaxDP=4.41D-04              OVMax= 1.37D-03

 Cycle   2  Pass 1  IDiag  1:
 RMSU=  1.59D-05    CP:  1.00D+00
 E= -350.539727467986     Delta-E=       -0.000029934665 Rises=F Damp=F
 DIIS: error= 2.43D-05 at cycle   2 NSaved=   2.
 NSaved= 2 IEnMin= 2 EnMin= -350.539727467986     IErMin= 2 ErrMin= 2.43D-05
 ErrMax= 2.43D-05  0.00D+00 EMaxC= 1.00D-01 BMatC= 2.39D-07 BMatP= 2.17D-05
 IDIUse=1 WtCom= 1.00D+00 WtEn= 0.00D+00
 Coeff-Com: -0.585D-01 0.106D+01
 Coeff:     -0.585D-01 0.106D+01
 Gap=     0.231 Goal=   None    Shift=    0.000
 RMSDP=3.19D-06 MaxDP=3.24D-04 DE=-2.99D-05 OVMax= 2.98D-04

 Cycle   3  Pass 1  IDiag  1:
 RMSU=  3.03D-06    CP:  1.00D+00  1.06D+00
 E= -350.539727753575     Delta-E=       -0.000000285589 Rises=F Damp=F
 DIIS: error= 1.84D-05 at cycle   3 NSaved=   3.
 NSaved= 3 IEnMin= 3 EnMin= -350.539727753575     IErMin= 3 ErrMin= 1.84D-05
 ErrMax= 1.84D-05  0.00D+00 EMaxC= 1.00D-01 BMatC= 1.16D-07 BMatP= 2.39D-07
 IDIUse=1 WtCom= 1.00D+00 WtEn= 0.00D+00
 Coeff-Com: -0.310D-01 0.468D+00 0.563D+00
 Coeff:     -0.310D-01 0.468D+00 0.563D+00
 Gap=     0.231 Goal=   None    Shift=    0.000
 RMSDP=2.37D-06 MaxDP=3.41D-04 DE=-2.86D-07 OVMax= 1.12D-04

 Cycle   4  Pass 1  IDiag  1:
 RMSU=  1.27D-06    CP:  1.00D+00  1.09D+00  3.80D-01
 E= -350.539727823275     Delta-E=       -0.000000069699 Rises=F Damp=F
 DIIS: error= 1.05D-05 at cycle   4 NSaved=   4.
 NSaved= 4 IEnMin= 4 EnMin= -350.539727823275     IErMin= 4 ErrMin= 1.05D-05
 ErrMax= 1.05D-05  0.00D+00 EMaxC= 1.00D-01 BMatC= 3.67D-08 BMatP= 1.16D-07
 IDIUse=1 WtCom= 1.00D+00 WtEn= 0.00D+00
 Coeff-Com: -0.109D-01 0.148D+00 0.364D+00 0.499D+00
 Coeff:     -0.109D-01 0.148D+00 0.364D+00 0.499D+00
 Gap=     0.231 Goal=   None    Shift=    0.000
 RMSDP=8.52D-07 MaxDP=1.21D-04 DE=-6.97D-08 OVMax= 6.17D-05

 Cycle   5  Pass 1  IDiag  1:
 RMSU=  3.19D-07    CP:  1.00D+00  1.08D+00  5.82D-01  6.38D-01
 E= -350.539727847617     Delta-E=       -0.000000024343 Rises=F Damp=F
 DIIS: error= 4.37D-06 at cycle   5 NSaved=   5.
 NSaved= 5 IEnMin= 5 EnMin= -350.539727847617     IErMin= 5 ErrMin= 4.37D-06
 ErrMax= 4.37D-06  0.00D+00 EMaxC= 1.00D-01 BMatC= 4.42D-09 BMatP= 3.67D-08
 IDIUse=1 WtCom= 1.00D+00 WtEn= 0.00D+00
 Coeff-Com: -0.168D-02 0.138D-01 0.132D+00 0.309D+00 0.547D+00
 Coeff:     -0.168D-02 0.138D-01 0.132D+00 0.309D+00 0.547D+00
 Gap=     0.231 Goal=   None    Shift=    0.000
 RMSDP=1.52D-07 MaxDP=8.67D-06 DE=-2.43D-08 OVMax= 1.78D-05

 Cycle   6  Pass 1  IDiag  1:
 RMSU=  1.11D-07    CP:  1.00D+00  1.08D+00  5.82D-01  7.00D-01  8.05D-01
 E= -350.539727851257     Delta-E=       -0.000000003640 Rises=F Damp=F
 DIIS: error= 5.82D-07 at cycle   6 NSaved=   6.
 NSaved= 6 IEnMin= 6 EnMin= -350.539727851257     IErMin= 6 ErrMin= 5.82D-07
 ErrMax= 5.82D-07  0.00D+00 EMaxC= 1.00D-01 BMatC= 2.28D-10 BMatP= 4.42D-09
 IDIUse=1 WtCom= 1.00D+00 WtEn= 0.00D+00
 Coeff-Com:  0.743D-03-0.157D-01 0.927D-02 0.726D-01 0.240D+00 0.693D+00
 Coeff:      0.743D-03-0.157D-01 0.927D-02 0.726D-01 0.240D+00 0.693D+00
 Gap=     0.231 Goal=   None    Shift=    0.000
 RMSDP=5.46D-08 MaxDP=2.14D-06 DE=-3.64D-09 OVMax= 8.64D-06

 Cycle   7  Pass 1  IDiag  1:
 RMSU=  3.81D-08    CP:  1.00D+00  1.08D+00  5.89D-01  7.20D-01  8.40D-01
                    CP:  8.40D-01
 E= -350.539727851499     Delta-E=       -0.000000000242 Rises=F Damp=F
 DIIS: error= 1.93D-07 at cycle   7 NSaved=   7.
 NSaved= 7 IEnMin= 7 EnMin= -350.539727851499     IErMin= 7 ErrMin= 1.93D-07
 ErrMax= 1.93D-07  0.00D+00 EMaxC= 1.00D-01 BMatC= 1.77D-11 BMatP= 2.28D-10
 IDIUse=1 WtCom= 1.00D+00 WtEn= 0.00D+00
 Coeff-Com:  0.421D-03-0.746D-02-0.512D-02 0.880D-02 0.624D-01 0.285D+00
 Coeff-Com:  0.656D+00
 Coeff:      0.421D-03-0.746D-02-0.512D-02 0.880D-02 0.624D-01 0.285D+00
 Coeff:      0.656D+00
 Gap=     0.231 Goal=   None    Shift=    0.000
 RMSDP=2.09D-08 MaxDP=1.89D-06 DE=-2.42D-10 OVMax= 2.99D-06

 Cycle   8  Pass 1  IDiag  1:
 RMSU=  1.35D-08    CP:  1.00D+00  1.08D+00  5.87D-01  7.29D-01  8.58D-01
                    CP:  8.77D-01  9.02D-01
 E= -350.539727851520     Delta-E=       -0.000000000021 Rises=F Damp=F
 DIIS: error= 6.49D-08 at cycle   8 NSaved=   8.
 NSaved= 8 IEnMin= 8 EnMin= -350.539727851520     IErMin= 8 ErrMin= 6.49D-08
 ErrMax= 6.49D-08  0.00D+00 EMaxC= 1.00D-01 BMatC= 1.91D-12 BMatP= 1.77D-11
 IDIUse=1 WtCom= 1.00D+00 WtEn= 0.00D+00
 Coeff-Com:  0.145D-04 0.397D-03-0.323D-02-0.101D-01-0.231D-01-0.341D-01
 Coeff-Com:  0.224D+00 0.847D+00
 Coeff:      0.145D-04 0.397D-03-0.323D-02-0.101D-01-0.231D-01-0.341D-01
 Coeff:      0.224D+00 0.847D+00
 Gap=     0.231 Goal=   None    Shift=    0.000
 RMSDP=8.11D-09 MaxDP=5.85D-07 DE=-2.08D-11 OVMax= 1.74D-06

 SCF Done:  E(RB3LYP) =  -350.539727852     A.U. after    8 cycles
            NFock=  8  Conv=0.81D-08     -V/T= 2.0054
 KE= 3.486724262941D+02 PE=-1.534899756536D+03 EE= 4.755463539427D+02
 Leave Link  502 at Wed Feb  7 19:37:16 2024, MaxMem=  6710886400 cpu:             476.5 elap:              29.8
 (Enter /tmpu/scunam/7/gaussian-2016.03/g1/g16/l508.exe)
 QCSCF skips out because SCF is already converged.
 Leave Link  508 at Wed Feb  7 19:37:16 2024, MaxMem=  6710886400 cpu:               0.0 elap:               0.0
 (Enter /tmpu/scunam/7/gaussian-2016.03/g1/g16/l701.exe)
 ... and contract with generalized density number  0.
 Compute integral first derivatives.
   1 Symmetry operations used in ECPInt.
 ECPInt:  NShTT=   10440 NPrTT=   30108 LenC2=    9710 LenP2D=   21946.
 LDataN:  DoStor=T MaxTD1= 7 Len=  274
 Leave Link  701 at Wed Feb  7 19:37:16 2024, MaxMem=  6710886400 cpu:               3.4 elap:               0.2
 (Enter /tmpu/scunam/7/gaussian-2016.03/g1/g16/l702.exe)
 L702 exits ... SP integral derivatives will be done elsewhere.
 Leave Link  702 at Wed Feb  7 19:37:16 2024, MaxMem=  6710886400 cpu:               0.3 elap:               0.0
 (Enter /tmpu/scunam/7/gaussian-2016.03/g1/g16/l703.exe)
 Integral derivatives from FoFJK, PRISM(SPDF).
 Compute integral first derivatives, UseDBF=F ICtDFT=           0.
 Calling FoFJK, ICntrl=      2127 FMM=F ISym2X=0 I1Cent= 0 IOpClX= 0 NMat=1 NMatS=1 NMatT=0.
 FoFJK:  IHMeth= 1 ICntrl=    2127 DoSepK=F KAlg= 0 I1Cent=           0 FoldK=F
 IRaf=         0 NMat=       1 IRICut=       1 DoRegI=T DoRafI=F ISym2E= 0 IDoP0=0 IntGTp=1.
 FoFCou: FMM=F IPFlag=           0 FMFlag=      100000 FMFlg1=         800
         NFxFlg=           0 DoJE=F BraDBF=F KetDBF=F FulRan=T
         wScrn=  0.000000 ICntrl=      2127 IOpCl=  0 I1Cent=           0 NGrid=           0
         NMat0=    1 NMatS0=      1 NMatT0=    0 NMatD0=    1 NMtDS0=    0 NMtDT0=    0
 Symmetry not used in FoFCou.
 Leave Link  703 at Wed Feb  7 19:37:28 2024, MaxMem=  6710886400 cpu:             176.5 elap:              11.1
 (Enter /tmpu/scunam/7/gaussian-2016.03/g1/g16/l716.exe)
 Dipole        = 4.55226168D-01 9.74193609D-01 2.19473735D-03
 ***** Axes restored to original set *****
 -------------------------------------------------------------------
 Center     Atomic                   Forces (Hartrees/Bohr)
 Number     Number              X              Y              Z
 -------------------------------------------------------------------
      1        8           0.000123171   -0.000076641    0.000018434
      2        6          -0.000024238    0.000004006    0.000025752
      3        6           0.000026922   -0.000024168    0.000006749
      4        6           0.000004359   -0.000049000    0.000013857
      5        6           0.000001556   -0.000001705   -0.000025729
      6        6          -0.000059840    0.000047961   -0.000156143
      7        6           0.000038276    0.000005206    0.000013333
      8        6          -0.000091380    0.000231291    0.000075005
      9        1          -0.000004109   -0.000006830   -0.000000096
     10        1          -0.000005098   -0.000004843    0.000008660
     11        1           0.000014448    0.000020927   -0.000014391
     12        1           0.000013729    0.000005186    0.000016136
     13        1          -0.000000394   -0.000007254    0.000005708
     14        1           0.000001516   -0.000000164   -0.000005805
     15        1           0.000000318    0.000000285   -0.000007446
     16        1          -0.000003082   -0.000024084    0.000018001
     17        1          -0.000047987   -0.000087395    0.000015559
     18        1           0.000005680   -0.000023618    0.000071608
     19        1          -0.000000786   -0.000010926   -0.000005393
     20        1           0.000007090    0.000013691   -0.000015728
     21        1           0.000008171   -0.000002746   -0.000006951
     22        1          -0.000008322   -0.000009179   -0.000051121
 -------------------------------------------------------------------
 Cartesian Forces:  Max     0.000231291 RMS     0.000047469
 Leave Link  716 at Wed Feb  7 19:37:28 2024, MaxMem=  6710886400 cpu:               0.3 elap:               0.0
 (Enter /tmpu/scunam/7/gaussian-2016.03/g1/g16/l103.exe)

 GradGradGradGradGradGradGradGradGradGradGradGradGradGradGradGradGradGrad
 Berny optimization.
 Search for a local minimum.
 Step number  14 out of a maximum of  132
 All quantities printed in internal units (Hartrees-Bohrs-Radians)
 Update second derivatives using D2CorN and points    2    3    4    7   12
                                                         11   13   14
 DE= -1.93D-06 DEPred=-1.89D-06 R= 1.02D+00
 TightC=F SS=  1.41D+00  RLast= 4.04D-02 DXNew= 5.9386D-01 1.2112D-01
 Trust test= 1.02D+00 RLast= 4.04D-02 DXMaxT set to 3.53D-01
 ITU=  1  1  0  0  0  0  0 -1  0  0  1  1  1  0
     Eigenvalues ---    0.00042   0.00080   0.00159   0.00197   0.00236
     Eigenvalues ---    0.00526   0.00610   0.00921   0.01427   0.02068
     Eigenvalues ---    0.02417   0.03220   0.03445   0.03938   0.04622
     Eigenvalues ---    0.04717   0.05241   0.05290   0.05642   0.05784
     Eigenvalues ---    0.06135   0.06413   0.06885   0.07952   0.08001
     Eigenvalues ---    0.08537   0.09636   0.09955   0.11802   0.13061
     Eigenvalues ---    0.13075   0.13868   0.15033   0.15985   0.17827
     Eigenvalues ---    0.18054   0.20588   0.21432   0.24489   0.24867
     Eigenvalues ---    0.27360   0.39132   0.52201   0.58119   0.61994
     Eigenvalues ---    0.69056   0.69508   0.78314   0.87070   0.87856
     Eigenvalues ---    0.92899   0.92958   0.95640   0.98949   0.99656
     Eigenvalues ---    1.02386   1.04720   1.08382   1.12840   2.05846
 RFO step:  Lambda=-1.84929600D-06 EMin= 4.22580963D-04
 Quartic linear search produced a step of  0.07502.
 B after Tr=    -0.000085    0.000172   -0.000288
         Rot=    1.000000    0.000117   -0.000041   -0.000033 Ang=   0.01 deg.
 Variable       Old X    -DE/DX   Delta X   Delta X   Delta X     New X
                                 (Linear)    (Quad)   (Total)
    X1        6.71588   0.00012  -0.00051  -0.00029  -0.00101   6.71487
    Y1        1.91153  -0.00008   0.00021   0.00294   0.00378   1.91532
    Z1        0.12003   0.00002  -0.00124  -0.00338  -0.00591   0.11411
    X2       -0.98979  -0.00002   0.00001  -0.00048  -0.00049  -0.99027
    Y2       -1.15948   0.00000  -0.00018  -0.00291  -0.00300  -1.16247
    Z2       -0.03486   0.00003   0.00024   0.00338   0.00369  -0.03117
    X3       -3.26060   0.00003   0.00000   0.00042   0.00030  -3.26031
    Y3        0.62597  -0.00002  -0.00014  -0.00216  -0.00235   0.62362
    Z3        0.01436   0.00001   0.00040   0.00320   0.00343   0.01779
    X4        1.55134   0.00000   0.00001  -0.00115  -0.00123   1.55010
    Y4        0.21404  -0.00005  -0.00017  -0.00185  -0.00174   0.21229
    Z4        0.02704   0.00001   0.00025   0.00356   0.00335   0.03039
    X5       -5.80797   0.00000  -0.00008  -0.00042  -0.00054  -5.80852
    Y5       -0.73692  -0.00000   0.00005  -0.00024  -0.00042  -0.73734
    Z5       -0.02967  -0.00003  -0.00023  -0.00199  -0.00185  -0.03152
    X6        3.80096  -0.00006   0.00013  -0.00010   0.00005   3.80101
    Y6       -1.58274   0.00005  -0.00007   0.00003   0.00039  -1.58235
    Z6       -0.01692  -0.00016   0.00033   0.00166   0.00176  -0.01516
    X7       -8.06639   0.00004  -0.00002   0.00172   0.00155  -8.06484
    Y7        1.06020   0.00001   0.00017   0.00232   0.00213   1.06233
    Z7        0.02096   0.00001  -0.00023  -0.00296  -0.00306   0.01791
    X8        6.35537  -0.00009  -0.00002  -0.00068  -0.00076   6.35462
    Y8       -0.33373   0.00023   0.00016   0.00252   0.00328  -0.33045
    Z8        0.05292   0.00008  -0.00066  -0.00461  -0.00601   0.04691
    X9       -1.10990  -0.00000   0.00003  -0.00080  -0.00056  -1.11046
    Y9       -2.45733  -0.00001  -0.00031  -0.00341  -0.00325  -2.46058
    Z9        1.57569  -0.00000   0.00017   0.00298   0.00353   1.57921
   X10       -1.09181  -0.00001  -0.00001  -0.00032  -0.00040  -1.09221
   Y10       -2.34471  -0.00000  -0.00008  -0.00231  -0.00269  -2.34740
   Z10       -1.73116   0.00001   0.00016   0.00295   0.00346  -1.72770
   X11       -3.14949   0.00001   0.00025   0.00340   0.00331  -3.14617
   Y11        1.91705   0.00002   0.00021   0.00012  -0.00008   1.91697
   Z11       -1.60130  -0.00001   0.00069   0.00514   0.00536  -1.59595
   X12       -3.15481   0.00001  -0.00016  -0.00065  -0.00087  -3.15568
   Y12        1.81831   0.00001  -0.00051  -0.00462  -0.00477   1.81354
   Z12        1.70461   0.00002   0.00065   0.00503   0.00524   1.70985
   X13        1.66785  -0.00000  -0.00004  -0.00126  -0.00134   1.66651
   Y13        1.40004  -0.00001  -0.00006  -0.00254  -0.00192   1.39813
   Z13        1.71493   0.00001   0.00019   0.00402   0.00346   1.71839
   X14        1.69016   0.00000  -0.00002  -0.00238  -0.00272   1.68743
   Y14        1.50983  -0.00000  -0.00023  -0.00117  -0.00148   1.50835
   Z14       -1.57618  -0.00001   0.00018   0.00402   0.00342  -1.57276
   X15       -5.91361   0.00000   0.00009   0.00066   0.00065  -5.91296
   Y15       -1.92822   0.00000   0.00038   0.00204   0.00180  -1.92642
   Z15       -1.71899  -0.00001  -0.00045  -0.00370  -0.00349  -1.72248
   X16       -5.91760  -0.00000  -0.00041  -0.00404  -0.00427  -5.92187
   Y16       -2.02572  -0.00002  -0.00027  -0.00214  -0.00226  -2.02798
   Z16        1.58613   0.00002  -0.00051  -0.00365  -0.00348   1.58265
   X17        3.77489  -0.00005  -0.00012  -0.00342  -0.00358   3.77130
   Y17       -2.78972  -0.00009  -0.00060  -0.00372  -0.00430  -2.79402
   Z17       -1.70603   0.00002   0.00071   0.00424   0.00501  -1.70102
   X18        3.74083   0.00001   0.00067   0.00427   0.00518   3.74601
   Y18       -2.91520  -0.00002   0.00040   0.00296   0.00415  -2.91105
   Z18        1.57356   0.00007   0.00077   0.00445   0.00530   1.57887
   X19       -9.85239  -0.00000  -0.00010   0.00054   0.00035  -9.85204
   Y19        0.02777  -0.00001   0.00031   0.00439   0.00422   0.03199
   Z19       -0.01087  -0.00001  -0.00069  -0.00596  -0.00613  -0.01699
   X20       -8.04698   0.00001   0.00030   0.00520   0.00513  -8.04184
   Y20        2.32940   0.00001   0.00047   0.00378   0.00352   2.33291
   Z20       -1.60809  -0.00002   0.00002  -0.00189  -0.00203  -1.61013
   X21       -8.04991   0.00001  -0.00021   0.00125   0.00096  -8.04896
   Y21        2.23161  -0.00000  -0.00014   0.00079   0.00070   2.23231
   Z21        1.72184  -0.00001  -0.00003  -0.00188  -0.00204   1.71979
   X22        7.98072  -0.00001   0.00018   0.00009   0.00029   7.98101
   Y22       -1.66581  -0.00001   0.00041   0.00317   0.00428  -1.66153
   Z22        0.03782  -0.00005  -0.00074  -0.01167  -0.01297   0.02485
         Item               Value     Threshold  Converged?
 Maximum Force            0.000231     0.000450     YES
 RMS     Force            0.000047     0.000300     YES
 Maximum Displacement     0.012970     0.001800     NO 
 RMS     Displacement     0.003524     0.001200     NO 
 Predicted change in Energy=-8.332346D-07
 Lowest energy point so far.  Saving SCF results.
 GradGradGradGradGradGradGradGradGradGradGradGradGradGradGradGradGradGrad

 Leave Link  103 at Wed Feb  7 19:37:28 2024, MaxMem=  6710886400 cpu:               0.3 elap:               0.0
 (Enter /tmpu/scunam/7/gaussian-2016.03/g1/g16/l202.exe)
                          Input orientation:                          
 ---------------------------------------------------------------------
 Center     Atomic      Atomic             Coordinates (Angstroms)
 Number     Number       Type             X           Y           Z
 ---------------------------------------------------------------------
      1          8           0        3.553357    1.013542    0.060386
      2          6           0       -0.524029   -0.615154   -0.016492
      3          6           0       -1.725280    0.330007    0.009417
      4          6           0        0.820280    0.112341    0.016084
      5          6           0       -3.073735   -0.390181   -0.016679
      6          6           0        2.011406   -0.837344   -0.008022
      7          6           0       -4.267729    0.562162    0.009475
      8          6           0        3.362718   -0.174867    0.024822
      9          1           0       -0.587628   -1.302083    0.835683
     10          1           0       -0.577973   -1.242191   -0.914260
     11          1           0       -1.664884    1.014417   -0.844539
     12          1           0       -1.669912    0.959685    0.904814
     13          1           0        0.881879    0.739857    0.909331
     14          1           0        0.892950    0.798185   -0.832270
     15          1           0       -3.129004   -1.019420   -0.911498
     16          1           0       -3.133718   -1.073163    0.837502
     17          1           0        1.995688   -1.478531   -0.900142
     18          1           0        1.982302   -1.540460    0.835500
     19          1           0       -5.213475    0.016927   -0.008992
     20          1           0       -4.255561    1.234524   -0.852043
     21          1           0       -4.259325    1.181289    0.910074
     22          1           0        4.223371   -0.879242    0.013150
 ---------------------------------------------------------------------
                    Distance matrix (angstroms):
                    1          2          3          4          5
     1  O    0.000000
     2  C    4.391315   0.000000
     3  C    5.322953   1.528726   0.000000
     4  C    2.878166   1.528881   2.554858   0.000000
     5  C    6.774565   2.559611   1.528948   3.926443   0.000000
     6  C    2.409995   2.545166   3.914822   1.523569   5.104771
     7  C    7.834266   3.924542   2.553026   5.107858   1.527502
     8  C    1.204129   3.911824   5.113009   2.558624   6.440187
     9  H    4.807386   1.096412   2.154225   2.157439   2.781872
    10  H    4.806887   1.096391   2.154367   2.157640   2.785749
    11  H    5.296124   2.154695   1.096040   2.780369   2.154787
    12  H    5.291361   2.154523   1.096037   2.776489   2.154531
    13  H    2.816453   2.160967   2.788387   1.093371   4.216795
    14  H    2.814424   2.161215   2.789759   1.093328   4.220425
    15  H    7.052053   2.783947   2.153945   4.211667   1.095308
    16  H    7.048065   2.783802   2.153673   4.208830   1.095302
    17  H    3.091824   2.806285   4.236002   2.179892   5.259664
    18  H    3.097086   2.804243   4.234055   2.180249   5.254793
    19  H    8.823571   4.731859   3.502266   6.034562   2.178138
    20  H    7.865149   4.247797   2.821805   5.270399   2.175825
    21  H    7.860541   4.247136   2.820859   5.267281   2.175779
    22  H    2.008428   4.754832   6.070317   3.544612   7.313537
                    6          7          8          9         10
     6  C    0.000000
     7  C    6.433231   0.000000
     8  C    1.505323   7.665975   0.000000
     9  H    2.771786   4.207276   4.187284   0.000000
    10  H    2.773095   4.209902   4.189284   1.750995   0.000000
    11  H    4.200462   2.776450   5.238985   3.057744   2.505696
    12  H    4.196985   2.776384   5.233446   2.508329   3.057715
    13  H    2.145910   5.230657   2.788125   2.516822   3.063522
    14  H    2.145992   5.234200   2.789479   3.063544   2.516639
    15  H    5.222378   2.155525   6.613049   3.096956   2.560740
    16  H    5.219466   2.155434   6.608409   2.556361   3.103075
    17  H    1.098747   6.649979   2.103299   3.117330   2.584529
    18  H    1.098521   6.645767   2.104184   2.580961   3.115386
    19  H    7.275210   1.091815   8.578404   4.883823   4.888023
    20  H    6.654313   1.092901   7.797015   4.768284   4.434257
    21  H    6.651304   1.092917   7.792199   4.433286   4.770094
    22  H    2.212463   8.612574   1.112207   4.899088   4.903542
                   11         12         13         14         15
    11  H    0.000000
    12  H    1.750216   0.000000
    13  H    3.104423   2.561246   0.000000
    14  H    2.566987   3.100291   1.742612   0.000000
    15  H    2.506915   3.056926   4.743169   4.414304   0.000000
    16  H    3.056914   2.505939   4.406497   4.743852   1.749832
    17  H    4.429184   4.758087   3.071809   2.530627   5.145229
    18  H    4.759399   4.426533   2.533027   3.072035   5.426687
    19  H    3.779633   3.778978   6.206391   6.211005   2.496709
    20  H    2.600022   3.138099   5.453478   5.167006   2.520502
    21  H    3.136501   2.598883   5.160120   5.452382   3.072275
    22  H    6.244447   6.237588   3.819711   3.823637   7.411615
                   16         17         18         19         20
    16  H    0.000000
    17  H    5.430887   0.000000
    18  H    5.137317   1.736797   0.000000
    19  H    2.496044   7.416373   7.410656   0.000000
    20  H    3.072216   6.814770   7.032728   1.763768   0.000000
    21  H    2.520875   7.033968   6.809653   1.763753   1.762926
    22  H    7.405668   2.481092   2.477066   9.479329   8.781164
                   21         22
    21  H    0.000000
    22  H    8.775328   0.000000
 Stoichiometry    C7H14O
 Framework group  C1[X(C7H14O)]
 Deg. of freedom    60
 Full point group                 C1      NOp   1
 RotChk:  IX=2 Diff= 1.87D-03
 Largest Abelian subgroup         C1      NOp   1
 Largest concise Abelian subgroup C1      NOp   1
                         Standard orientation:                         
 ---------------------------------------------------------------------
 Center     Atomic      Atomic             Coordinates (Angstroms)
 Number     Number       Type             X           Y           Z
 ---------------------------------------------------------------------
      1          8           0       -3.638774   -1.077809   -0.000524
      2          6           0        0.413913    0.613154   -0.003416
      3          6           0        1.629140   -0.314330   -0.002669
      4          6           0       -0.919415   -0.134984   -0.001512
      5          6           0        2.966694    0.426354    0.001684
      6          6           0       -2.124594    0.797112   -0.000257
      7          6           0        4.174773   -0.508424    0.002403
      8          6           0       -3.465905    0.113837    0.004021
      9          1           0        0.463332    1.272454    0.871227
     10          1           0        0.462429    1.270216   -0.879766
     11          1           0        1.582893   -0.971006   -0.878993
     12          1           0        1.579251   -0.973974    0.871217
     13          1           0       -0.975557   -0.792489    0.870265
     14          1           0       -0.977937   -0.793461   -0.872345
     15          1           0        3.016489    1.085539   -0.871640
     16          1           0        3.012549    1.081588    0.878183
     17          1           0       -2.114538    1.467559   -0.870686
     18          1           0       -2.109871    1.472360    0.866099
     19          1           0        5.112270    0.051165    0.006612
     20          1           0        4.176601   -1.152091   -0.880843
     21          1           0        4.171659   -1.156995    0.882069
     22          1           0       -4.337012    0.805302    0.011270
 ---------------------------------------------------------------------
 Rotational constants (GHZ):           8.0146975           0.5665703           0.5396142
 Leave Link  202 at Wed Feb  7 19:37:28 2024, MaxMem=  6710886400 cpu:               0.2 elap:               0.0
 (Enter /tmpu/scunam/7/gaussian-2016.03/g1/g16/l301.exe)
 Standard basis: def2TZVP (5D, 7F)
 Ernie: Thresh=  0.10000D-02 Tol=  0.10000D-05 Strict=F.
 There are   372 symmetry adapted cartesian basis functions of A   symmetry.
 There are   332 symmetry adapted basis functions of A   symmetry.
   332 basis functions,   520 primitive gaussians,   372 cartesian basis functions
    32 alpha electrons       32 beta electrons
       nuclear repulsion energy       360.1389775961 Hartrees.
 IExCor=  402 DFT=T Ex+Corr=B3LYP ExCW=0 ScaHFX=  0.200000
 ScaDFX=  0.800000  0.720000  1.000000  0.810000 ScalE2=  1.000000  1.000000
 IRadAn=      5 IRanWt=     -1 IRanGd=            0 ICorTp=0 IEmpDi=  4
 NAtoms=   22 NActive=   22 NUniq=   22 SFac= 1.00D+00 NAtFMM=   60 NAOKFM=F Big=F
 Integral buffers will be    131072 words long.
 Raffenetti 2 integral format.
 Two-electron integral symmetry is turned on.
 Leave Link  301 at Wed Feb  7 19:37:28 2024, MaxMem=  6710886400 cpu:               0.7 elap:               0.1
 (Enter /tmpu/scunam/7/gaussian-2016.03/g1/g16/l302.exe)
 NPDir=0 NMtPBC=     1 NCelOv=     1 NCel=       1 NClECP=     1 NCelD=      1
         NCelK=      1 NCelE2=     1 NClLst=     1 CellRange=     0.0.
 One-electron integrals computed using PRISM.
 One-electron integral symmetry used in STVInt
   1 Symmetry operations used in ECPInt.
 ECPInt:  NShTT=   10440 NPrTT=   30108 LenC2=    9710 LenP2D=   21945.
 LDataN:  DoStor=T MaxTD1= 6 Len=  172
 NBasis=   332 RedAO= T EigKep=  8.35D-05  NBF=   332
 NBsUse=   332 1.00D-06 EigRej= -1.00D+00 NBFU=   332
 Precomputing XC quadrature grid using
 IXCGrd= 4 IRadAn=           5 IRanWt=          -1 IRanGd=           0 AccXCQ= 0.00D+00.
 Generated NRdTot=       0 NPtTot=           0 NUsed=           0 NTot=          32
 NSgBfM=   367   367   367   367   367 MxSgAt=    22 MxSgA2=    22.
 Leave Link  302 at Wed Feb  7 19:37:28 2024, MaxMem=  6710886400 cpu:               5.2 elap:               0.3
 (Enter /tmpu/scunam/7/gaussian-2016.03/g1/g16/l303.exe)
 DipDrv:  MaxL=1.
 Leave Link  303 at Wed Feb  7 19:37:28 2024, MaxMem=  6710886400 cpu:               0.7 elap:               0.1
 (Enter /tmpu/scunam/7/gaussian-2016.03/g1/g16/l401.exe)
 Initial guess from the checkpoint file:  "Heptanal.chk"
 B after Tr=    -0.000000    0.000000   -0.000000
         Rot=    1.000000    0.000307   -0.000006    0.000018 Ang=   0.04 deg.
 Guess basis will be translated and rotated to current coordinates.
 JPrj=2 DoOrth=T DoCkMO=T.
 Leave Link  401 at Wed Feb  7 19:37:28 2024, MaxMem=  6710886400 cpu:               2.9 elap:               0.2
 (Enter /tmpu/scunam/7/gaussian-2016.03/g1/g16/l502.exe)
 Integral symmetry usage will be decided dynamically.
 Closed shell SCF:
 Using DIIS extrapolation, IDIIS=  1040.
 NGot=  6710886400 LenX=  6710600118 LenY=  6710461293
 Requested convergence on RMS density matrix=1.00D-08 within 128 cycles.
 Requested convergence on MAX density matrix=1.00D-06.
 Requested convergence on             energy=1.00D-06.
 No special actions if energy rises.
 Fock matrices will be formed incrementally for  20 cycles.

 Cycle   1  Pass 1  IDiag  1:
 FoFJK:  IHMeth= 1 ICntrl=       0 DoSepK=F KAlg= 0 I1Cent=           0 FoldK=F
 IRaf= 890000000 NMat=       1 IRICut=       1 DoRegI=T DoRafI=F ISym2E= 0 IDoP0=0 IntGTp=1.
 FoFCou: FMM=F IPFlag=           0 FMFlag=      100000 FMFlg1=           0
         NFxFlg=           0 DoJE=F BraDBF=F KetDBF=F FulRan=T
         wScrn=  0.000000 ICntrl=         0 IOpCl=  0 I1Cent=           0 NGrid=           0
         NMat0=    1 NMatS0=      1 NMatT0=    0 NMatD0=    1 NMtDS0=    0 NMtDT0=    0
 Symmetry not used in FoFCou.
 E= -350.539718696090    
 DIIS: error= 1.32D-04 at cycle   1 NSaved=   1.
 NSaved= 1 IEnMin= 1 EnMin= -350.539718696090     IErMin= 1 ErrMin= 1.32D-04
 ErrMax= 1.32D-04  0.00D+00 EMaxC= 1.00D-01 BMatC= 6.37D-06 BMatP= 6.37D-06
 IDIUse=3 WtCom= 9.99D-01 WtEn= 1.32D-03
 Coeff-Com:  0.100D+01
 Coeff-En:   0.100D+01
 Coeff:      0.100D+01
 Gap=     0.648 Goal=   None    Shift=    0.000
 RMSDP=9.38D-06 MaxDP=3.30D-04              OVMax= 1.35D-03

 Cycle   2  Pass 1  IDiag  1:
 RMSU=  9.38D-06    CP:  1.00D+00
 E= -350.539728722976     Delta-E=       -0.000010026886 Rises=F Damp=F
 DIIS: error= 1.24D-05 at cycle   2 NSaved=   2.
 NSaved= 2 IEnMin= 2 EnMin= -350.539728722976     IErMin= 2 ErrMin= 1.24D-05
 ErrMax= 1.24D-05  0.00D+00 EMaxC= 1.00D-01 BMatC= 7.64D-08 BMatP= 6.37D-06
 IDIUse=1 WtCom= 1.00D+00 WtEn= 0.00D+00
 Coeff-Com: -0.639D-01 0.106D+01
 Coeff:     -0.639D-01 0.106D+01
 Gap=     0.231 Goal=   None    Shift=    0.000
 RMSDP=1.72D-06 MaxDP=8.08D-05 DE=-1.00D-05 OVMax= 3.37D-04

 Cycle   3  Pass 1  IDiag  1:
 RMSU=  1.25D-06    CP:  1.00D+00  1.13D+00
 E= -350.539728860696     Delta-E=       -0.000000137720 Rises=F Damp=F
 DIIS: error= 1.47D-05 at cycle   3 NSaved=   3.
 NSaved= 3 IEnMin= 3 EnMin= -350.539728860696     IErMin= 2 ErrMin= 1.24D-05
 ErrMax= 1.47D-05  0.00D+00 EMaxC= 1.00D-01 BMatC= 5.10D-08 BMatP= 7.64D-08
 IDIUse=1 WtCom= 1.00D+00 WtEn= 0.00D+00
 Coeff-Com: -0.368D-01 0.526D+00 0.511D+00
 Coeff:     -0.368D-01 0.526D+00 0.511D+00
 Gap=     0.231 Goal=   None    Shift=    0.000
 RMSDP=7.74D-07 MaxDP=8.49D-05 DE=-1.38D-07 OVMax= 8.74D-05

 Cycle   4  Pass 1  IDiag  1:
 RMSU=  7.38D-07    CP:  1.00D+00  1.14D+00  8.58D-01
 E= -350.539728893095     Delta-E=       -0.000000032399 Rises=F Damp=F
 DIIS: error= 7.84D-06 at cycle   4 NSaved=   4.
 NSaved= 4 IEnMin= 4 EnMin= -350.539728893095     IErMin= 4 ErrMin= 7.84D-06
 ErrMax= 7.84D-06  0.00D+00 EMaxC= 1.00D-01 BMatC= 1.72D-08 BMatP= 5.10D-08
 IDIUse=1 WtCom= 1.00D+00 WtEn= 0.00D+00
 Coeff-Com: -0.894D-02 0.946D-01 0.356D+00 0.558D+00
 Coeff:     -0.894D-02 0.946D-01 0.356D+00 0.558D+00
 Gap=     0.231 Goal=   None    Shift=    0.000
 RMSDP=6.28D-07 MaxDP=8.92D-05 DE=-3.24D-08 OVMax= 4.78D-05

 Cycle   5  Pass 1  IDiag  1:
 RMSU=  3.82D-07    CP:  1.00D+00  1.15D+00  9.77D-01  3.96D-01
 E= -350.539728905449     Delta-E=       -0.000000012354 Rises=F Damp=F
 DIIS: error= 2.05D-06 at cycle   5 NSaved=   5.
 NSaved= 5 IEnMin= 5 EnMin= -350.539728905449     IErMin= 5 ErrMin= 2.05D-06
 ErrMax= 2.05D-06  0.00D+00 EMaxC= 1.00D-01 BMatC= 1.74D-09 BMatP= 1.72D-08
 IDIUse=1 WtCom= 1.00D+00 WtEn= 0.00D+00
 Coeff-Com:  0.167D-02-0.418D-01 0.119D+00 0.313D+00 0.609D+00
 Coeff:      0.167D-02-0.418D-01 0.119D+00 0.313D+00 0.609D+00
 Gap=     0.231 Goal=   None    Shift=    0.000
 RMSDP=2.49D-07 MaxDP=3.42D-05 DE=-1.24D-08 OVMax= 2.27D-05

 Cycle   6  Pass 1  IDiag  1:
 RMSU=  8.14D-08    CP:  1.00D+00  1.15D+00  1.02D+00  6.37D-01  6.48D-01
 E= -350.539728907084     Delta-E=       -0.000000001635 Rises=F Damp=F
 DIIS: error= 3.53D-07 at cycle   6 NSaved=   6.
 NSaved= 6 IEnMin= 6 EnMin= -350.539728907084     IErMin= 6 ErrMin= 3.53D-07
 ErrMax= 3.53D-07  0.00D+00 EMaxC= 1.00D-01 BMatC= 7.00D-11 BMatP= 1.74D-09
 IDIUse=1 WtCom= 1.00D+00 WtEn= 0.00D+00
 Coeff-Com:  0.148D-02-0.251D-01 0.863D-02 0.574D-01 0.220D+00 0.738D+00
 Coeff:      0.148D-02-0.251D-01 0.863D-02 0.574D-01 0.220D+00 0.738D+00
 Gap=     0.231 Goal=   None    Shift=    0.000
 RMSDP=4.38D-08 MaxDP=3.48D-06 DE=-1.64D-09 OVMax= 7.78D-06

 Cycle   7  Pass 1  IDiag  1:
 RMSU=  2.45D-08    CP:  1.00D+00  1.15D+00  1.04D+00  6.27D-01  7.14D-01
                    CP:  9.47D-01
 E= -350.539728907178     Delta-E=       -0.000000000093 Rises=F Damp=F
 DIIS: error= 1.21D-07 at cycle   7 NSaved=   7.
 NSaved= 7 IEnMin= 7 EnMin= -350.539728907178     IErMin= 7 ErrMin= 1.21D-07
 ErrMax= 1.21D-07  0.00D+00 EMaxC= 1.00D-01 BMatC= 9.56D-12 BMatP= 7.00D-11
 IDIUse=1 WtCom= 1.00D+00 WtEn= 0.00D+00
 Coeff-Com:  0.468D-03-0.633D-02-0.100D-01-0.101D-01 0.238D-01 0.309D+00
 Coeff-Com:  0.693D+00
 Coeff:      0.468D-03-0.633D-02-0.100D-01-0.101D-01 0.238D-01 0.309D+00
 Coeff:      0.693D+00
 Gap=     0.231 Goal=   None    Shift=    0.000
 RMSDP=1.35D-08 MaxDP=6.39D-07 DE=-9.35D-11 OVMax= 2.60D-06

 Cycle   8  Pass 1  IDiag  1:
 RMSU=  8.17D-09    CP:  1.00D+00  1.15D+00  1.04D+00  6.28D-01  7.34D-01
                    CP:  9.98D-01  8.78D-01
 E= -350.539728907188     Delta-E=       -0.000000000010 Rises=F Damp=F
 DIIS: error= 4.54D-08 at cycle   8 NSaved=   8.
 NSaved= 8 IEnMin= 8 EnMin= -350.539728907188     IErMin= 8 ErrMin= 4.54D-08
 ErrMax= 4.54D-08  0.00D+00 EMaxC= 1.00D-01 BMatC= 9.86D-13 BMatP= 9.56D-12
 IDIUse=1 WtCom= 1.00D+00 WtEn= 0.00D+00
 Coeff-Com:  0.581D-05 0.724D-03-0.501D-02-0.112D-01-0.196D-01 0.253D-01
 Coeff-Com:  0.277D+00 0.733D+00
 Coeff:      0.581D-05 0.724D-03-0.501D-02-0.112D-01-0.196D-01 0.253D-01
 Coeff:      0.277D+00 0.733D+00
 Gap=     0.231 Goal=   None    Shift=    0.000
 RMSDP=5.32D-09 MaxDP=4.83D-07 DE=-9.78D-12 OVMax= 7.58D-07

 SCF Done:  E(RB3LYP) =  -350.539728907     A.U. after    8 cycles
            NFock=  8  Conv=0.53D-08     -V/T= 2.0054
 KE= 3.486711381226D+02 PE=-1.534893855687D+03 EE= 4.755440110607D+02
 Leave Link  502 at Wed Feb  7 19:37:58 2024, MaxMem=  6710886400 cpu:             478.5 elap:              29.9
 (Enter /tmpu/scunam/7/gaussian-2016.03/g1/g16/l508.exe)
 QCSCF skips out because SCF is already converged.
 Leave Link  508 at Wed Feb  7 19:37:58 2024, MaxMem=  6710886400 cpu:               0.0 elap:               0.0
 (Enter /tmpu/scunam/7/gaussian-2016.03/g1/g16/l701.exe)
 ... and contract with generalized density number  0.
 Compute integral first derivatives.
   1 Symmetry operations used in ECPInt.
 ECPInt:  NShTT=   10440 NPrTT=   30108 LenC2=    9710 LenP2D=   21945.
 LDataN:  DoStor=T MaxTD1= 7 Len=  274
 Leave Link  701 at Wed Feb  7 19:37:59 2024, MaxMem=  6710886400 cpu:               3.4 elap:               0.2
 (Enter /tmpu/scunam/7/gaussian-2016.03/g1/g16/l702.exe)
 L702 exits ... SP integral derivatives will be done elsewhere.
 Leave Link  702 at Wed Feb  7 19:37:59 2024, MaxMem=  6710886400 cpu:               0.3 elap:               0.0
 (Enter /tmpu/scunam/7/gaussian-2016.03/g1/g16/l703.exe)
 Integral derivatives from FoFJK, PRISM(SPDF).
 Compute integral first derivatives, UseDBF=F ICtDFT=           0.
 Calling FoFJK, ICntrl=      2127 FMM=F ISym2X=0 I1Cent= 0 IOpClX= 0 NMat=1 NMatS=1 NMatT=0.
 FoFJK:  IHMeth= 1 ICntrl=    2127 DoSepK=F KAlg= 0 I1Cent=           0 FoldK=F
 IRaf=         0 NMat=       1 IRICut=       1 DoRegI=T DoRafI=F ISym2E= 0 IDoP0=0 IntGTp=1.
 FoFCou: FMM=F IPFlag=           0 FMFlag=      100000 FMFlg1=         800
         NFxFlg=           0 DoJE=F BraDBF=F KetDBF=F FulRan=T
         wScrn=  0.000000 ICntrl=      2127 IOpCl=  0 I1Cent=           0 NGrid=           0
         NMat0=    1 NMatS0=      1 NMatT0=    0 NMatD0=    1 NMtDS0=    0 NMtDT0=    0
 Symmetry not used in FoFCou.
 Leave Link  703 at Wed Feb  7 19:38:10 2024, MaxMem=  6710886400 cpu:             176.5 elap:              11.1
 (Enter /tmpu/scunam/7/gaussian-2016.03/g1/g16/l716.exe)
 Dipole        = 4.55627759D-01 9.74849373D-01 1.82171376D-03
 ***** Axes restored to original set *****
 -------------------------------------------------------------------
 Center     Atomic                   Forces (Hartrees/Bohr)
 Number     Number              X              Y              Z
 -------------------------------------------------------------------
      1        8          -0.000088410   -0.000491073    0.000022624
      2        6          -0.000003811    0.000017756    0.000011719
      3        6           0.000004414   -0.000024140    0.000001387
      4        6           0.000008110   -0.000040957   -0.000000134
      5        6          -0.000001603    0.000016439   -0.000002233
      6        6           0.000003629    0.000071471   -0.000085438
      7        6          -0.000009521   -0.000000422    0.000001135
      8        6           0.000108776    0.000401593   -0.000024489
      9        1           0.000006709    0.000011653   -0.000006251
     10        1           0.000004735   -0.000002727    0.000010555
     11        1          -0.000001360    0.000004357    0.000002569
     12        1          -0.000006660    0.000006513    0.000006729
     13        1          -0.000006973    0.000001743    0.000004307
     14        1          -0.000010199    0.000010124   -0.000003032
     15        1           0.000009793    0.000002027   -0.000002199
     16        1           0.000005451   -0.000006959   -0.000001256
     17        1           0.000020556   -0.000004795    0.000040162
     18        1           0.000017167   -0.000001672    0.000046354
     19        1           0.000005554    0.000006245   -0.000005375
     20        1           0.000002986   -0.000002546    0.000006837
     21        1           0.000001353   -0.000008472   -0.000012017
     22        1          -0.000070696    0.000033842   -0.000011955
 -------------------------------------------------------------------
 Cartesian Forces:  Max     0.000491073 RMS     0.000082660
 Leave Link  716 at Wed Feb  7 19:38:10 2024, MaxMem=  6710886400 cpu:               0.3 elap:               0.0
 (Enter /tmpu/scunam/7/gaussian-2016.03/g1/g16/l103.exe)

 GradGradGradGradGradGradGradGradGradGradGradGradGradGradGradGradGradGrad
 Berny optimization.
 Search for a local minimum.
 Step number  15 out of a maximum of  132
 All quantities printed in internal units (Hartrees-Bohrs-Radians)
 Update second derivatives using D2CorN and points    2    3    4    7    6
                                                          8    9   10   12   11

                                                         13   14   15
 DE= -1.06D-06 DEPred=-8.33D-07 R= 1.27D+00
 TightC=F SS=  1.41D+00  RLast= 2.86D-02 DXNew= 5.9386D-01 8.5883D-02
 Trust test= 1.27D+00 RLast= 2.86D-02 DXMaxT set to 3.53D-01
 ITU=  1  1  1  0  0  0  0  0 -1  0  0  1  1  1  0
     Eigenvalues ---    0.00021   0.00073   0.00161   0.00194   0.00236
     Eigenvalues ---    0.00518   0.00584   0.00917   0.01429   0.02065
     Eigenvalues ---    0.02415   0.03219   0.03440   0.03926   0.04612
     Eigenvalues ---    0.04719   0.05240   0.05286   0.05648   0.05783
     Eigenvalues ---    0.06135   0.06412   0.06884   0.07953   0.08000
     Eigenvalues ---    0.08537   0.09630   0.09954   0.11801   0.13061
     Eigenvalues ---    0.13075   0.13869   0.15033   0.15985   0.17828
     Eigenvalues ---    0.18054   0.20588   0.21432   0.24762   0.24930
     Eigenvalues ---    0.27361   0.39132   0.52201   0.58118   0.61993
     Eigenvalues ---    0.69064   0.69505   0.78304   0.87069   0.87850
     Eigenvalues ---    0.92892   0.92958   0.95639   0.98948   0.99657
     Eigenvalues ---    1.02385   1.04719   1.08381   1.12837   2.05415
 RFO step:  Lambda=-2.79236330D-06 EMin= 2.13176838D-04
 Quartic linear search produced a step of  0.21232.
 B after Tr=    -0.000336   -0.000043   -0.001856
         Rot=    1.000000    0.000655   -0.000269   -0.000010 Ang=   0.08 deg.
 Variable       Old X    -DE/DX   Delta X   Delta X   Delta X     New X
                                 (Linear)    (Quad)   (Total)
    X1        6.71487  -0.00009  -0.00021  -0.00615  -0.00669   6.70818
    Y1        1.91532  -0.00049   0.00080   0.00090   0.00191   1.91723
    Z1        0.11411   0.00002  -0.00126  -0.02091  -0.03014   0.08397
    X2       -0.99027  -0.00000  -0.00010   0.00026  -0.00016  -0.99044
    Y2       -1.16247   0.00002  -0.00064  -0.00170  -0.00241  -1.16488
    Z2       -0.03117   0.00001   0.00078   0.01723   0.01821  -0.01295
    X3       -3.26031   0.00000   0.00006   0.00026  -0.00001  -3.26031
    Y3        0.62362  -0.00002  -0.00050  -0.00130  -0.00186   0.62176
    Z3        0.01779   0.00000   0.00073   0.01662   0.01644   0.03423
    X4        1.55010   0.00001  -0.00026   0.00059   0.00001   1.55011
    Y4        0.21229  -0.00004  -0.00037  -0.00209  -0.00242   0.20987
    Z4        0.03039  -0.00000   0.00071   0.01146   0.00921   0.03960
    X5       -5.80852  -0.00000  -0.00012  -0.00014  -0.00060  -5.80911
    Y5       -0.73734   0.00002  -0.00009   0.00096   0.00066  -0.73667
    Z5       -0.03152  -0.00000  -0.00039  -0.00862  -0.00678  -0.03830
    X6        3.80101   0.00000   0.00001   0.00152   0.00122   3.80222
    Y6       -1.58235   0.00007   0.00008  -0.00102  -0.00092  -1.58327
    Z6       -0.01516  -0.00009   0.00037   0.00548   0.00403  -0.01113
    X7       -8.06484  -0.00001   0.00033   0.00027   0.00024  -8.06460
    Y7        1.06233  -0.00000   0.00045   0.00194   0.00220   1.06453
    Z7        0.01791   0.00000  -0.00065  -0.01252  -0.01208   0.00583
    X8        6.35462   0.00011  -0.00016   0.00002  -0.00045   6.35416
    Y8       -0.33045   0.00040   0.00070   0.00119   0.00200  -0.32845
    Z8        0.04691  -0.00002  -0.00128  -0.01696  -0.02308   0.02383
    X9       -1.11046   0.00001  -0.00012   0.00198   0.00243  -1.10802
    Y9       -2.46058   0.00001  -0.00069   0.00020   0.00154  -2.45904
    Z9        1.57921  -0.00001   0.00075   0.01874   0.02145   1.60067
   X10       -1.09221   0.00000  -0.00008  -0.00141  -0.00270  -1.09491
   Y10       -2.34740  -0.00000  -0.00057  -0.00365  -0.00653  -2.35393
   Z10       -1.72770   0.00001   0.00073   0.01878   0.02133  -1.70638
   X11       -3.14617  -0.00000   0.00070   0.01014   0.00963  -3.13655
   Y11        1.91697   0.00000  -0.00002   0.00917   0.00699   1.92396
   Z11       -1.59595   0.00000   0.00114   0.02582   0.02427  -1.57168
   X12       -3.15568  -0.00001  -0.00018  -0.00941  -0.00903  -3.16471
   Y12        1.81354   0.00001  -0.00101  -0.01227  -0.01111   1.80243
   Z12        1.70985   0.00001   0.00111   0.02478   0.02337   1.73322
   X13        1.66651  -0.00001  -0.00028   0.00457   0.00485   1.67136
   Y13        1.39813   0.00000  -0.00041  -0.00106   0.00079   1.39892
   Z13        1.71839   0.00000   0.00073   0.01040   0.00655   1.72493
   X14        1.68743  -0.00001  -0.00058  -0.00399  -0.00577   1.68166
   Y14        1.50835   0.00001  -0.00031  -0.00255  -0.00493   1.50342
   Z14       -1.57276  -0.00000   0.00073   0.01061   0.00661  -1.56615
   X15       -5.91296   0.00001   0.00014   0.01085   0.00976  -5.90320
   Y15       -1.92642   0.00000   0.00038   0.01257   0.01052  -1.91591
   Z15       -1.72248  -0.00000  -0.00074  -0.01714  -0.01405  -1.73654
   X16       -5.92187   0.00001  -0.00091  -0.01210  -0.01246  -5.93433
   Y16       -2.02798  -0.00001  -0.00048  -0.00993  -0.00852  -2.03650
   Z16        1.58265  -0.00000  -0.00074  -0.01839  -0.01512   1.56753
   X17        3.77130   0.00002  -0.00076  -0.00741  -0.00936   3.76195
   Y17       -2.79402  -0.00000  -0.00091  -0.00883  -0.01192  -2.80594
   Z17       -1.70102   0.00004   0.00106   0.01164   0.01250  -1.68852
   X18        3.74601   0.00002   0.00110   0.01352   0.01520   3.76121
   Y18       -2.91105  -0.00000   0.00088   0.00644   0.00944  -2.90161
   Z18        1.57887   0.00005   0.00113   0.01213   0.01318   1.59205
   X19       -9.85204   0.00001   0.00007   0.00002  -0.00027  -9.85231
   Y19        0.03199   0.00001   0.00090   0.00376   0.00435   0.03634
   Z19       -0.01699  -0.00001  -0.00130  -0.03623  -0.03414  -0.05113
   X20       -8.04184   0.00000   0.00109   0.01479   0.01463  -8.02721
   Y20        2.33291  -0.00000   0.00075   0.01509   0.01352   2.34643
   Z20       -1.61013   0.00001  -0.00043  -0.00164  -0.00269  -1.61282
   X21       -8.04896   0.00000   0.00020  -0.01359  -0.01284  -8.06180
   Y21        2.23231  -0.00001   0.00015  -0.01213  -0.00994   2.22237
   Z21        1.71979  -0.00001  -0.00043  -0.00327  -0.00414   1.71565
   X22        7.98101  -0.00007   0.00006   0.00263   0.00238   7.98339
   Y22       -1.66153   0.00003   0.00091   0.00562   0.00663  -1.65489
   Z22        0.02485  -0.00001  -0.00275  -0.02820  -0.03493  -0.01008
         Item               Value     Threshold  Converged?
 Maximum Force            0.000491     0.000450     NO 
 RMS     Force            0.000083     0.000300     YES
 Maximum Displacement     0.034932     0.001800     NO 
 RMS     Displacement     0.012256     0.001200     NO 
 Predicted change in Energy=-1.307961D-06
 Lowest energy point so far.  Saving SCF results.
 GradGradGradGradGradGradGradGradGradGradGradGradGradGradGradGradGradGrad

 Leave Link  103 at Wed Feb  7 19:38:10 2024, MaxMem=  6710886400 cpu:               0.3 elap:               0.0
 (Enter /tmpu/scunam/7/gaussian-2016.03/g1/g16/l202.exe)
                          Input orientation:                          
 ---------------------------------------------------------------------
 Center     Atomic      Atomic             Coordinates (Angstroms)
 Number     Number       Type             X           Y           Z
 ---------------------------------------------------------------------
      1          8           0        3.549817    1.014555    0.044435
      2          6           0       -0.524117   -0.616429   -0.006854
      3          6           0       -1.725284    0.329024    0.018114
      4          6           0        0.820283    0.111060    0.020957
      5          6           0       -3.074050   -0.389832   -0.020266
      6          6           0        2.012050   -0.837830   -0.005890
      7          6           0       -4.267600    0.563325    0.003083
      8          6           0        3.362478   -0.173808    0.012611
      9          1           0       -0.586340   -1.301268    0.847036
     10          1           0       -0.579402   -1.245645   -0.902975
     11          1           0       -1.659789    1.018116   -0.831698
     12          1           0       -1.674690    0.953805    0.917183
     13          1           0        0.884447    0.740276    0.912796
     14          1           0        0.889896    0.795578   -0.828773
     15          1           0       -3.123842   -1.013854   -0.918936
     16          1           0       -3.140312   -1.077672    0.829501
     17          1           0        1.990736   -1.484841   -0.893527
     18          1           0        1.990345   -1.535466    0.842475
     19          1           0       -5.213619    0.019230   -0.027056
     20          1           0       -4.247818    1.241679   -0.853465
     21          1           0       -4.266120    1.176029    0.907885
     22          1           0        4.224630   -0.875732   -0.005335
 ---------------------------------------------------------------------
                    Distance matrix (angstroms):
                    1          2          3          4          5
     1  O    0.000000
     2  C    4.388585   0.000000
     3  C    5.319524   1.528826   0.000000
     4  C    2.875276   1.528864   2.554883   0.000000
     5  C    6.771418   2.560017   1.528854   3.926630   0.000000
     6  C    2.408026   2.545812   3.915327   1.523621   5.105812
     7  C    7.830539   3.924995   2.553135   5.107976   1.527618
     8  C    1.203460   3.911766   5.112553   2.558120   6.440236
     9  H    4.807806   1.096359   2.154566   2.157699   2.787764
    10  H    4.801723   1.096359   2.154306   2.157178   2.781161
    11  H    5.282766   2.154497   1.096047   2.774982   2.154268
    12  H    5.297250   2.154831   1.096009   2.781786   2.154617
    13  H    2.816643   2.161123   2.789315   1.093346   4.221071
    14  H    2.808135   2.160729   2.788200   1.093367   4.215655
    15  H    7.041324   2.783597   2.153451   4.207725   1.095213
    16  H    7.053479   2.785088   2.153937   4.213448   1.095271
    17  H    3.091519   2.804427   4.234383   2.180170   5.254873
    18  H    3.093772   2.808649   4.238136   2.180593   5.263544
    19  H    8.820068   4.732431   3.502356   6.034792   2.178333
    20  H    7.852447   4.246795   2.820597   5.265792   2.175725
    21  H    7.865144   4.248794   2.822226   5.271840   2.175872
    22  H    2.007744   4.755822   6.070706   3.544578   7.314852
                    6          7          8          9         10
     6  C    0.000000
     7  C    6.434075   0.000000
     8  C    1.504967   7.665609   0.000000
     9  H    2.773785   4.211964   4.190537   0.000000
    10  H    2.772489   4.206676   4.186353   1.750908   0.000000
    11  H    4.196295   2.775676   5.230364   3.057773   2.509368
    12  H    4.201674   2.776911   5.240499   2.504951   3.057812
    13  H    2.146134   5.234738   2.790435   2.517030   3.063292
    14  H    2.145783   5.229312   2.785911   3.063392   2.516135
    15  H    5.219388   2.155411   6.606497   3.104863   2.555025
    16  H    5.225154   2.155601   6.615932   2.563801   3.096441
    17  H    1.098625   6.645726   2.102753   3.115217   2.581262
    18  H    1.098586   6.653675   2.103696   2.587311   3.119967
    19  H    7.276351   1.091741   8.578362   4.890753   4.882941
    20  H    6.650465   1.092809   7.789115   4.771237   4.432438
    21  H    6.656277   1.092738   7.798660   4.436382   4.768187
    22  H    2.212906   8.613300   1.111902   4.904391   4.901155
                   11         12         13         14         15
    11  H    0.000000
    12  H    1.750126   0.000000
    13  H    3.097352   2.568033   0.000000
    14  H    2.559380   3.106526   1.742456   0.000000
    15  H    2.505986   3.056641   4.743268   4.403665   0.000000
    16  H    3.056772   2.506518   4.417075   4.743577   1.749679
    17  H    4.426618   4.760359   3.072104   2.533052   5.136281
    18  H    4.758898   4.431088   2.531197   3.072104   5.434110
    19  H    3.778218   3.780084   6.212056   6.204705   2.495974
    20  H    2.597759   3.136727   5.450800   5.157104   2.520921
    21  H    3.137523   2.600958   5.168969   5.453919   3.072079
    22  H    6.236660   6.245016   3.822470   3.819919   7.406334
                   16         17         18         19         20
    16  H    0.000000
    17  H    5.427915   0.000000
    18  H    5.151057   1.736739   0.000000
    19  H    2.497096   7.410515   7.420935   0.000000
    20  H    3.072187   6.808456   7.035868   1.763549   0.000000
    21  H    2.520468   7.033745   6.819080   1.763535   1.762668
    22  H    7.414857   2.479956   2.479125   9.480611   8.774118
                   21         22
    21  H    0.000000
    22  H    8.782741   0.000000
 Stoichiometry    C7H14O
 Framework group  C1[X(C7H14O)]
 Deg. of freedom    60
 Full point group                 C1      NOp   1
 RotChk:  IX=0 Diff= 9.25D-03
 Largest Abelian subgroup         C1      NOp   1
 Largest concise Abelian subgroup C1      NOp   1
                         Standard orientation:                         
 ---------------------------------------------------------------------
 Center     Atomic      Atomic             Coordinates (Angstroms)
 Number     Number       Type             X           Y           Z
 ---------------------------------------------------------------------
      1          8           0       -3.635440   -1.078704   -0.004287
      2          6           0        0.413502    0.614128    0.003364
      3          6           0        1.628744   -0.313490    0.007905
      4          6           0       -0.919824   -0.133972    0.006706
      5          6           0        2.966603    0.426327   -0.006215
      6          6           0       -2.125711    0.797273    0.000414
      7          6           0        4.174351   -0.509062   -0.003526
      8          6           0       -3.465995    0.112767   -0.003892
      9          1           0        0.462406    1.276913    0.875332
     10          1           0        0.462358    1.267674   -0.875552
     11          1           0        1.576620   -0.980683   -0.860112
     12          1           0        1.584503   -0.962611    0.889903
     13          1           0       -0.977541   -0.787537    0.881307
     14          1           0       -0.976135   -0.796657   -0.861124
     15          1           0        3.010053    1.074668   -0.887837
     16          1           0        3.019514    1.092282    0.861727
     17          1           0       -2.111123    1.467870   -0.869679
     18          1           0       -2.117497    1.472387    0.867042
     19          1           0        5.112128    0.049801   -0.015591
     20          1           0        4.167795   -1.164657   -0.877816
     21          1           0        4.179015   -1.145526    0.884713
     22          1           0       -4.338601    0.801880   -0.006558
 ---------------------------------------------------------------------
 Rotational constants (GHZ):           8.0095003           0.5668003           0.5398002
 Leave Link  202 at Wed Feb  7 19:38:10 2024, MaxMem=  6710886400 cpu:               0.2 elap:               0.0
 (Enter /tmpu/scunam/7/gaussian-2016.03/g1/g16/l301.exe)
 Standard basis: def2TZVP (5D, 7F)
 Ernie: Thresh=  0.10000D-02 Tol=  0.10000D-05 Strict=F.
 There are   372 symmetry adapted cartesian basis functions of A   symmetry.
 There are   332 symmetry adapted basis functions of A   symmetry.
   332 basis functions,   520 primitive gaussians,   372 cartesian basis functions
    32 alpha electrons       32 beta electrons
       nuclear repulsion energy       360.1825901970 Hartrees.
 IExCor=  402 DFT=T Ex+Corr=B3LYP ExCW=0 ScaHFX=  0.200000
 ScaDFX=  0.800000  0.720000  1.000000  0.810000 ScalE2=  1.000000  1.000000
 IRadAn=      5 IRanWt=     -1 IRanGd=            0 ICorTp=0 IEmpDi=  4
 NAtoms=   22 NActive=   22 NUniq=   22 SFac= 1.00D+00 NAtFMM=   60 NAOKFM=F Big=F
 Integral buffers will be    131072 words long.
 Raffenetti 2 integral format.
 Two-electron integral symmetry is turned on.
 Leave Link  301 at Wed Feb  7 19:38:10 2024, MaxMem=  6710886400 cpu:               0.7 elap:               0.1
 (Enter /tmpu/scunam/7/gaussian-2016.03/g1/g16/l302.exe)
 NPDir=0 NMtPBC=     1 NCelOv=     1 NCel=       1 NClECP=     1 NCelD=      1
         NCelK=      1 NCelE2=     1 NClLst=     1 CellRange=     0.0.
 One-electron integrals computed using PRISM.
 One-electron integral symmetry used in STVInt
   1 Symmetry operations used in ECPInt.
 ECPInt:  NShTT=   10440 NPrTT=   30108 LenC2=    9711 LenP2D=   21950.
 LDataN:  DoStor=T MaxTD1= 6 Len=  172
 NBasis=   332 RedAO= T EigKep=  8.35D-05  NBF=   332
 NBsUse=   332 1.00D-06 EigRej= -1.00D+00 NBFU=   332
 Precomputing XC quadrature grid using
 IXCGrd= 4 IRadAn=           5 IRanWt=          -1 IRanGd=           0 AccXCQ= 0.00D+00.
 Generated NRdTot=       0 NPtTot=           0 NUsed=           0 NTot=          32
 NSgBfM=   367   367   367   367   367 MxSgAt=    22 MxSgA2=    22.
 Leave Link  302 at Wed Feb  7 19:38:10 2024, MaxMem=  6710886400 cpu:               5.1 elap:               0.3
 (Enter /tmpu/scunam/7/gaussian-2016.03/g1/g16/l303.exe)
 DipDrv:  MaxL=1.
 Leave Link  303 at Wed Feb  7 19:38:10 2024, MaxMem=  6710886400 cpu:               0.7 elap:               0.1
 (Enter /tmpu/scunam/7/gaussian-2016.03/g1/g16/l401.exe)
 Initial guess from the checkpoint file:  "Heptanal.chk"
 B after Tr=     0.000000   -0.000000    0.000000
         Rot=    0.999999    0.001613   -0.000044   -0.000073 Ang=   0.19 deg.
 Guess basis will be translated and rotated to current coordinates.
 JPrj=2 DoOrth=T DoCkMO=T.
 Generating alternative initial guess.
 ExpMin= 9.52D-02 ExpMax= 2.70D+04 ExpMxC= 9.22D+02 IAcc=2 IRadAn=         4 AccDes= 0.00D+00
 Harris functional with IExCor=  402 and IRadAn=       4 diagonalized for initial guess.
 HarFok:  IExCor=  402 AccDes= 0.00D+00 IRadAn=         4 IDoV= 1 UseB2=F ITyADJ=14
 ICtDFT=  3500011 ScaDFX=  1.000000  1.000000  1.000000  1.000000
 FoFCou: FMM=F IPFlag=           0 FMFlag=      100000 FMFlg1=           0
         NFxFlg=           0 DoJE=T BraDBF=F KetDBF=T FulRan=T
         wScrn=  0.000000 ICntrl=       500 IOpCl=  0 I1Cent=   200000004 NGrid=           0
         NMat0=    1 NMatS0=      1 NMatT0=    0 NMatD0=    1 NMtDS0=    0 NMtDT0=    0
 Petite list used in FoFCou.
 Harris En= -350.631669431609    
 Leave Link  401 at Wed Feb  7 19:38:11 2024, MaxMem=  6710886400 cpu:              13.6 elap:               0.9
 (Enter /tmpu/scunam/7/gaussian-2016.03/g1/g16/l502.exe)
 Integral symmetry usage will be decided dynamically.
 Closed shell SCF:
 Using DIIS extrapolation, IDIIS=  1040.
 NGot=  6710886400 LenX=  6710600118 LenY=  6710461293
 Requested convergence on RMS density matrix=1.00D-08 within 128 cycles.
 Requested convergence on MAX density matrix=1.00D-06.
 Requested convergence on             energy=1.00D-06.
 No special actions if energy rises.
 Fock matrices will be formed incrementally for  20 cycles.
 Integral accuracy reduced to 1.0D-05 until final iterations.

 Cycle   1  Pass 0  IDiag  1:
 FoFJK:  IHMeth= 1 ICntrl=       0 DoSepK=F KAlg= 0 I1Cent=           0 FoldK=F
 IRaf= 890000000 NMat=       1 IRICut=       1 DoRegI=T DoRafI=F ISym2E= 0 IDoP0=0 IntGTp=1.
 FoFCou: FMM=F IPFlag=           0 FMFlag=      100000 FMFlg1=           0
         NFxFlg=           0 DoJE=F BraDBF=F KetDBF=F FulRan=T
         wScrn=  0.000000 ICntrl=         0 IOpCl=  0 I1Cent=           0 NGrid=           0
         NMat0=    1 NMatS0=      1 NMatT0=    0 NMatD0=    1 NMtDS0=    0 NMtDT0=    0
 Symmetry not used in FoFCou.
 E= -350.539624213189    
 DIIS: error= 6.16D-04 at cycle   1 NSaved=   1.
 NSaved= 1 IEnMin= 1 EnMin= -350.539624213189     IErMin= 1 ErrMin= 6.16D-04
 ErrMax= 6.16D-04  0.00D+00 EMaxC= 1.00D-01 BMatC= 8.80D-05 BMatP= 8.80D-05
 IDIUse=3 WtCom= 9.94D-01 WtEn= 6.16D-03
 Coeff-Com:  0.100D+01
 Coeff-En:   0.100D+01
 Coeff:      0.100D+01
 Gap=     0.648 Goal=   None    Shift=    0.000
 RMSDP=7.52D-05 MaxDP=2.57D-03              OVMax= 3.44D-03

 Cycle   2  Pass 0  IDiag  1:
 RMSU=  7.52D-05    CP:  1.00D+00
 E= -350.539752363207     Delta-E=       -0.000128150018 Rises=F Damp=F
 DIIS: error= 5.26D-05 at cycle   2 NSaved=   2.
 NSaved= 2 IEnMin= 2 EnMin= -350.539752363207     IErMin= 2 ErrMin= 5.26D-05
 ErrMax= 5.26D-05  0.00D+00 EMaxC= 1.00D-01 BMatC= 7.66D-07 BMatP= 8.80D-05
 IDIUse=1 WtCom= 1.00D+00 WtEn= 0.00D+00
 Coeff-Com: -0.656D-01 0.107D+01
 Coeff:     -0.656D-01 0.107D+01
 Gap=     0.231 Goal=   None    Shift=    0.000
 RMSDP=6.62D-06 MaxDP=2.81D-04 DE=-1.28D-04 OVMax= 8.54D-04

 Initial convergence to 1.0D-05 achieved.  Increase integral accuracy.
 Cycle   3  Pass 1  IDiag  1:
 E= -350.539726596811     Delta-E=        0.000025766396 Rises=F Damp=F
 DIIS: error= 1.26D-04 at cycle   1 NSaved=   1.
 NSaved= 1 IEnMin= 1 EnMin= -350.539726596811     IErMin= 1 ErrMin= 1.26D-04
 ErrMax= 1.26D-04  0.00D+00 EMaxC= 1.00D-01 BMatC= 1.41D-06 BMatP= 1.41D-06
 IDIUse=3 WtCom= 9.99D-01 WtEn= 1.26D-03
 Coeff-Com:  0.100D+01
 Coeff-En:   0.100D+01
 Coeff:      0.100D+01
 Gap=     0.231 Goal=   None    Shift=    0.000
 RMSDP=6.62D-06 MaxDP=2.81D-04 DE= 2.58D-05 OVMax= 4.15D-04

 Cycle   4  Pass 1  IDiag  1:
 RMSU=  6.80D-05    CP:  1.00D+00
 E= -350.539727386245     Delta-E=       -0.000000789434 Rises=F Damp=F
 DIIS: error= 2.93D-05 at cycle   2 NSaved=   2.
 NSaved= 2 IEnMin= 2 EnMin= -350.539727386245     IErMin= 2 ErrMin= 2.93D-05
 ErrMax= 2.93D-05  0.00D+00 EMaxC= 1.00D-01 BMatC= 2.72D-07 BMatP= 1.41D-06
 IDIUse=1 WtCom= 1.00D+00 WtEn= 0.00D+00
 Coeff-Com:  0.219D+00 0.781D+00
 Coeff:      0.219D+00 0.781D+00
 Gap=     0.231 Goal=   None    Shift=    0.000
 RMSDP=5.82D-06 MaxDP=8.41D-04 DE=-7.89D-07 OVMax= 2.53D-04

 Cycle   5  Pass 1  IDiag  1:
 RMSU=  5.63D-06    CP:  1.00D+00  1.01D+00
 E= -350.539727300390     Delta-E=        0.000000085855 Rises=F Damp=F
 DIIS: error= 3.62D-05 at cycle   3 NSaved=   3.
 NSaved= 3 IEnMin= 2 EnMin= -350.539727386245     IErMin= 2 ErrMin= 2.93D-05
 ErrMax= 3.62D-05  0.00D+00 EMaxC= 1.00D-01 BMatC= 4.12D-07 BMatP= 2.72D-07
 IDIUse=1 WtCom= 1.00D+00 WtEn= 0.00D+00
 Coeff-Com:  0.182D-01 0.548D+00 0.434D+00
 Coeff:      0.182D-01 0.548D+00 0.434D+00
 Gap=     0.231 Goal=   None    Shift=    0.000
 RMSDP=2.89D-06 MaxDP=4.22D-04 DE= 8.59D-08 OVMax= 1.82D-04

 Cycle   6  Pass 1  IDiag  1:
 RMSU=  5.68D-07    CP:  1.00D+00  1.02D+00  5.09D-01
 E= -350.539727582990     Delta-E=       -0.000000282600 Rises=F Damp=F
 DIIS: error= 9.81D-06 at cycle   4 NSaved=   4.
 NSaved= 4 IEnMin= 4 EnMin= -350.539727582990     IErMin= 4 ErrMin= 9.81D-06
 ErrMax= 9.81D-06  0.00D+00 EMaxC= 1.00D-01 BMatC= 2.12D-08 BMatP= 2.72D-07
 IDIUse=1 WtCom= 1.00D+00 WtEn= 0.00D+00
 Coeff-Com: -0.231D-02 0.289D+00 0.273D+00 0.440D+00
 Coeff:     -0.231D-02 0.289D+00 0.273D+00 0.440D+00
 Gap=     0.231 Goal=   None    Shift=    0.000
 RMSDP=2.69D-07 MaxDP=1.49D-05 DE=-2.83D-07 OVMax= 3.54D-05

 Cycle   7  Pass 1  IDiag  1:
 RMSU=  1.69D-07    CP:  1.00D+00  1.02D+00  5.12D-01  6.40D-01
 E= -350.539727600884     Delta-E=       -0.000000017894 Rises=F Damp=F
 DIIS: error= 4.63D-07 at cycle   5 NSaved=   5.
 NSaved= 5 IEnMin= 5 EnMin= -350.539727600884     IErMin= 5 ErrMin= 4.63D-07
 ErrMax= 4.63D-07  0.00D+00 EMaxC= 1.00D-01 BMatC= 1.28D-10 BMatP= 2.12D-08
 IDIUse=1 WtCom= 1.00D+00 WtEn= 0.00D+00
 Coeff-Com: -0.125D-02 0.101D+00 0.977D-01 0.171D+00 0.632D+00
 Coeff:     -0.125D-02 0.101D+00 0.977D-01 0.171D+00 0.632D+00
 Gap=     0.231 Goal=   None    Shift=    0.000
 RMSDP=4.17D-08 MaxDP=1.25D-06 DE=-1.79D-08 OVMax= 6.06D-06

 Cycle   8  Pass 1  IDiag  1:
 RMSU=  4.10D-08    CP:  1.00D+00  1.02D+00  5.13D-01  6.42D-01  1.01D+00
 E= -350.539727601029     Delta-E=       -0.000000000145 Rises=F Damp=F
 DIIS: error= 2.02D-07 at cycle   6 NSaved=   6.
 NSaved= 6 IEnMin= 6 EnMin= -350.539727601029     IErMin= 6 ErrMin= 2.02D-07
 ErrMax= 2.02D-07  0.00D+00 EMaxC= 1.00D-01 BMatC= 1.92D-11 BMatP= 1.28D-10
 IDIUse=1 WtCom= 1.00D+00 WtEn= 0.00D+00
 Coeff-Com: -0.277D-04-0.156D-01-0.135D-01-0.159D-01 0.240D+00 0.805D+00
 Coeff:     -0.277D-04-0.156D-01-0.135D-01-0.159D-01 0.240D+00 0.805D+00
 Gap=     0.231 Goal=   None    Shift=    0.000
 RMSDP=2.53D-08 MaxDP=1.83D-06 DE=-1.45D-10 OVMax= 4.84D-06

 Cycle   9  Pass 1  IDiag  1:
 RMSU=  1.78D-08    CP:  1.00D+00  1.02D+00  5.15D-01  6.55D-01  1.07D+00
                    CP:  1.04D+00
 E= -350.539727601057     Delta-E=       -0.000000000028 Rises=F Damp=F
 DIIS: error= 6.76D-08 at cycle   7 NSaved=   7.
 NSaved= 7 IEnMin= 7 EnMin= -350.539727601057     IErMin= 7 ErrMin= 6.76D-08
 ErrMax= 6.76D-08  0.00D+00 EMaxC= 1.00D-01 BMatC= 2.68D-12 BMatP= 1.92D-11
 IDIUse=1 WtCom= 1.00D+00 WtEn= 0.00D+00
 Coeff-Com:  0.178D-03-0.221D-01-0.210D-01-0.329D-01 0.805D-02 0.343D+00
 Coeff-Com:  0.725D+00
 Coeff:      0.178D-03-0.221D-01-0.210D-01-0.329D-01 0.805D-02 0.343D+00
 Coeff:      0.725D+00
 Gap=     0.231 Goal=   None    Shift=    0.000
 RMSDP=8.66D-09 MaxDP=5.66D-07 DE=-2.79D-11 OVMax= 1.66D-06

 SCF Done:  E(RB3LYP) =  -350.539727601     A.U. after    9 cycles
            NFock=  9  Conv=0.87D-08     -V/T= 2.0053
 KE= 3.486754376129D+02 PE=-1.534985498540D+03 EE= 4.755877431295D+02
 Leave Link  502 at Wed Feb  7 19:38:41 2024, MaxMem=  6710886400 cpu:             481.6 elap:              30.1
 (Enter /tmpu/scunam/7/gaussian-2016.03/g1/g16/l508.exe)
 QCSCF skips out because SCF is already converged.
 Leave Link  508 at Wed Feb  7 19:38:41 2024, MaxMem=  6710886400 cpu:               0.0 elap:               0.0
 (Enter /tmpu/scunam/7/gaussian-2016.03/g1/g16/l701.exe)
 ... and contract with generalized density number  0.
 Compute integral first derivatives.
   1 Symmetry operations used in ECPInt.
 ECPInt:  NShTT=   10440 NPrTT=   30108 LenC2=    9711 LenP2D=   21950.
 LDataN:  DoStor=T MaxTD1= 7 Len=  274
 Leave Link  701 at Wed Feb  7 19:38:42 2024, MaxMem=  6710886400 cpu:               3.5 elap:               0.2
 (Enter /tmpu/scunam/7/gaussian-2016.03/g1/g16/l702.exe)
 L702 exits ... SP integral derivatives will be done elsewhere.
 Leave Link  702 at Wed Feb  7 19:38:42 2024, MaxMem=  6710886400 cpu:               0.3 elap:               0.0
 (Enter /tmpu/scunam/7/gaussian-2016.03/g1/g16/l703.exe)
 Integral derivatives from FoFJK, PRISM(SPDF).
 Compute integral first derivatives, UseDBF=F ICtDFT=           0.
 Calling FoFJK, ICntrl=      2127 FMM=F ISym2X=0 I1Cent= 0 IOpClX= 0 NMat=1 NMatS=1 NMatT=0.
 FoFJK:  IHMeth= 1 ICntrl=    2127 DoSepK=F KAlg= 0 I1Cent=           0 FoldK=F
 IRaf=         0 NMat=       1 IRICut=       1 DoRegI=T DoRafI=F ISym2E= 0 IDoP0=0 IntGTp=1.
 FoFCou: FMM=F IPFlag=           0 FMFlag=      100000 FMFlg1=         800
         NFxFlg=           0 DoJE=F BraDBF=F KetDBF=F FulRan=T
         wScrn=  0.000000 ICntrl=      2127 IOpCl=  0 I1Cent=           0 NGrid=           0
         NMat0=    1 NMatS0=      1 NMatT0=    0 NMatD0=    1 NMtDS0=    0 NMtDT0=    0
 Symmetry not used in FoFCou.
 Leave Link  703 at Wed Feb  7 19:38:53 2024, MaxMem=  6710886400 cpu:             176.7 elap:              11.1
 (Enter /tmpu/scunam/7/gaussian-2016.03/g1/g16/l716.exe)
 Dipole        = 4.51885648D-01 9.74188439D-01 1.07552572D-03
 ***** Axes restored to original set *****
 -------------------------------------------------------------------
 Center     Atomic                   Forces (Hartrees/Bohr)
 Number     Number              X              Y              Z
 -------------------------------------------------------------------
      1        8           0.000336418    0.000676089   -0.000003837
      2        6          -0.000007036   -0.000024171    0.000008529
      3        6           0.000056040    0.000036843   -0.000030769
      4        6           0.000010762    0.000031353   -0.000036900
      5        6          -0.000059269   -0.000007625    0.000028588
      6        6          -0.000083858   -0.000229713   -0.000050233
      7        6           0.000072214   -0.000063622   -0.000028701
      8        6          -0.000259276   -0.000201359    0.000121865
      9        1          -0.000014478   -0.000014024    0.000004529
     10        1          -0.000013341   -0.000005587   -0.000023014
     11        1           0.000003619    0.000002834   -0.000010993
     12        1           0.000020642    0.000018548    0.000013955
     13        1           0.000009583    0.000000892    0.000021562
     14        1           0.000004439   -0.000006986    0.000008151
     15        1          -0.000004535   -0.000034970   -0.000048739
     16        1           0.000008819   -0.000012977    0.000025168
     17        1          -0.000068875   -0.000048511   -0.000023265
     18        1          -0.000031231   -0.000011789    0.000015777
     19        1          -0.000019178   -0.000042116    0.000007990
     20        1           0.000005719    0.000032702   -0.000047124
     21        1           0.000014346    0.000051977    0.000083008
     22        1           0.000018476   -0.000147788   -0.000035547
 -------------------------------------------------------------------
 Cartesian Forces:  Max     0.000676089 RMS     0.000112382
 Leave Link  716 at Wed Feb  7 19:38:53 2024, MaxMem=  6710886400 cpu:               0.3 elap:               0.0
 (Enter /tmpu/scunam/7/gaussian-2016.03/g1/g16/l103.exe)

 GradGradGradGradGradGradGradGradGradGradGradGradGradGradGradGradGradGrad
 Berny optimization.
 Search for a local minimum.
 Step number  16 out of a maximum of  132
 All quantities printed in internal units (Hartrees-Bohrs-Radians)
 Update second derivatives using D2CorN and points    2    3    4    7    6
                                                          8    9   10   12   11

                                                         13   14   16   15
 DE=  1.31D-06 DEPred=-1.31D-06 R=-9.99D-01
 Trust test=-9.99D-01 RLast= 9.96D-02 DXMaxT set to 1.77D-01
 ITU= -1  1  1  1  0  0  0  0  0 -1  0  0  1  1  1  0
     Eigenvalues ---    0.00051   0.00078   0.00160   0.00201   0.00236
     Eigenvalues ---    0.00505   0.00563   0.00918   0.01430   0.02067
     Eigenvalues ---    0.02415   0.03219   0.03433   0.03914   0.04600
     Eigenvalues ---    0.04721   0.05240   0.05282   0.05653   0.05782
     Eigenvalues ---    0.06132   0.06411   0.06886   0.07955   0.07998
     Eigenvalues ---    0.08538   0.09640   0.09953   0.11800   0.13062
     Eigenvalues ---    0.13074   0.13869   0.15034   0.15986   0.17829
     Eigenvalues ---    0.18055   0.20589   0.21431   0.24808   0.25122
     Eigenvalues ---    0.27368   0.39132   0.52203   0.58121   0.61993
     Eigenvalues ---    0.69068   0.69505   0.78298   0.87068   0.87846
     Eigenvalues ---    0.92891   0.92956   0.95639   0.98947   0.99657
     Eigenvalues ---    1.02383   1.04717   1.08381   1.12832   2.04967
 RFO step:  Lambda=-4.26262174D-07 EMin= 5.12375745D-04
 Quartic linear search produced a step of -0.66597.
 B after Tr=     0.000115    0.000009    0.000154
         Rot=    1.000000   -0.000034    0.000016    0.000004 Ang=  -0.00 deg.
 Variable       Old X    -DE/DX   Delta X   Delta X   Delta X     New X
                                 (Linear)    (Quad)   (Total)
    X1        6.70818   0.00034   0.00446   0.00216   0.00675   6.71493
    Y1        1.91723   0.00068  -0.00127  -0.00058  -0.00190   1.91533
    Z1        0.08397  -0.00000   0.02007   0.00164   0.02222   0.10619
    X2       -0.99044  -0.00001   0.00011  -0.00008   0.00014  -0.99030
    Y2       -1.16488  -0.00002   0.00160   0.00053   0.00216  -1.16272
    Z2       -0.01295   0.00001  -0.01213   0.00060  -0.01149  -0.02444
    X3       -3.26031   0.00006   0.00000  -0.00016  -0.00003  -3.26035
    Y3        0.62176   0.00004   0.00124   0.00023   0.00150   0.62327
    Z3        0.03423  -0.00003  -0.01095   0.00037  -0.01049   0.02374
    X4        1.55011   0.00001  -0.00000  -0.00027  -0.00016   1.54995
    Y4        0.20987   0.00003   0.00161   0.00072   0.00233   0.21220
    Z4        0.03960  -0.00004  -0.00613   0.00087  -0.00504   0.03456
    X5       -5.80911  -0.00006   0.00040   0.00012   0.00063  -5.80849
    Y5       -0.73667  -0.00001  -0.00044  -0.00029  -0.00067  -0.73734
    Z5       -0.03830   0.00003   0.00451   0.00013   0.00456  -0.03374
    X6        3.80222  -0.00008  -0.00081  -0.00057  -0.00127   3.80095
    Y6       -1.58327  -0.00023   0.00061   0.00063   0.00122  -1.58205
    Z6       -0.01113  -0.00005  -0.00268   0.00003  -0.00248  -0.01361
    X7       -8.06460   0.00007  -0.00016  -0.00006  -0.00010  -8.06470
    Y7        1.06453  -0.00006  -0.00146  -0.00059  -0.00198   1.06255
    Z7        0.00583  -0.00003   0.00804  -0.00095   0.00706   0.01288
    X8        6.35416  -0.00026   0.00030  -0.00001   0.00041   6.35457
    Y8       -0.32845  -0.00020  -0.00133  -0.00024  -0.00161  -0.33006
    Z8        0.02383   0.00012   0.01537  -0.00163   0.01408   0.03791
    X9       -1.10802  -0.00001  -0.00162  -0.00010  -0.00168  -1.10970
    Y9       -2.45904  -0.00001  -0.00103   0.00037  -0.00074  -2.45978
    Z9        1.60067   0.00000  -0.01429   0.00046  -0.01387   1.58679
   X10       -1.09491  -0.00001   0.00180   0.00022   0.00218  -1.09274
   Y10       -2.35393  -0.00001   0.00435   0.00060   0.00508  -2.34885
   Z10       -1.70638  -0.00002  -0.01420   0.00050  -0.01374  -1.72012
   X11       -3.13655   0.00000  -0.00641  -0.00018  -0.00641  -3.14296
   Y11        1.92396   0.00000  -0.00466   0.00027  -0.00424   1.91972
   Z11       -1.57168  -0.00001  -0.01616   0.00035  -0.01563  -1.58731
   X12       -3.16471   0.00002   0.00601  -0.00048   0.00561  -3.15910
   Y12        1.80243   0.00002   0.00740   0.00032   0.00764   1.81007
   Z12        1.73322   0.00001  -0.01557   0.00040  -0.01500   1.71823
   X13        1.67136   0.00001  -0.00323  -0.00013  -0.00330   1.66807
   Y13        1.39892   0.00000  -0.00053   0.00017  -0.00048   1.39844
   Z13        1.72493   0.00002  -0.00436   0.00128  -0.00278   1.72216
   X14        1.68166   0.00000   0.00384  -0.00056   0.00346   1.68512
   Y14        1.50342  -0.00001   0.00328   0.00126   0.00464   1.50806
   Z14       -1.56615   0.00001  -0.00440   0.00125  -0.00284  -1.56900
   X15       -5.90320  -0.00000  -0.00650   0.00074  -0.00560  -5.90881
   Y15       -1.91591  -0.00003  -0.00700  -0.00084  -0.00768  -1.92358
   Z15       -1.73654  -0.00005   0.00936   0.00037   0.00956  -1.72698
   X16       -5.93433   0.00001   0.00830   0.00003   0.00837  -5.92595
   Y16       -2.03650  -0.00001   0.00567   0.00009   0.00571  -2.03079
   Z16        1.56753   0.00003   0.01007   0.00052   0.01041   1.57794
   X17        3.76195  -0.00007   0.00623  -0.00200   0.00438   3.76632
   Y17       -2.80594  -0.00005   0.00794  -0.00061   0.00742  -2.79852
   Z17       -1.68852  -0.00002  -0.00833   0.00094  -0.00730  -1.69582
   X18        3.76121  -0.00003  -0.01012   0.00039  -0.00970   3.75151
   Y18       -2.90161  -0.00001  -0.00628   0.00146  -0.00495  -2.90656
   Z18        1.59205   0.00002  -0.00878   0.00091  -0.00779   1.58426
   X19       -9.85231  -0.00002   0.00018   0.00005   0.00034  -9.85197
   Y19        0.03634  -0.00004  -0.00290  -0.00094  -0.00375   0.03259
   Z19       -0.05113   0.00001   0.02273  -0.00049   0.02207  -0.02906
   X20       -8.02721   0.00001  -0.00974  -0.00011  -0.00967  -8.03688
   Y20        2.34643   0.00003  -0.00900  -0.00139  -0.01021   2.33622
   Z20       -1.61282  -0.00005   0.00179  -0.00170   0.00013  -1.61268
   X21       -8.06180   0.00001   0.00855  -0.00021   0.00842  -8.05338
   Y21        2.22237   0.00005   0.00662   0.00039   0.00697   2.22934
   Z21        1.71565   0.00008   0.00276  -0.00148   0.00131   1.71697
   X22        7.98339   0.00002  -0.00159  -0.00128  -0.00276   7.98064
   Y22       -1.65489  -0.00015  -0.00442  -0.00197  -0.00644  -1.66133
   Z22       -0.01008  -0.00004   0.02326  -0.00652   0.01704   0.00696
         Item               Value     Threshold  Converged?
 Maximum Force            0.000676     0.000450     NO 
 RMS     Force            0.000112     0.000300     YES
 Maximum Displacement     0.022217     0.001800     NO 
 RMS     Displacement     0.007844     0.001200     NO 
 Predicted change in Energy=-9.110377D-07
 GradGradGradGradGradGradGradGradGradGradGradGradGradGradGradGradGradGrad

 Leave Link  103 at Wed Feb  7 19:38:53 2024, MaxMem=  6710886400 cpu:               0.3 elap:               0.0
 (Enter /tmpu/scunam/7/gaussian-2016.03/g1/g16/l202.exe)
                          Input orientation:                          
 ---------------------------------------------------------------------
 Center     Atomic      Atomic             Coordinates (Angstroms)
 Number     Number       Type             X           Y           Z
 ---------------------------------------------------------------------
      1          8           0        3.553386    1.013547    0.056192
      2          6           0       -0.524042   -0.615287   -0.012935
      3          6           0       -1.725302    0.329819    0.012564
      4          6           0        0.820200    0.112291    0.018289
      5          6           0       -3.073718   -0.390186   -0.017854
      6          6           0        2.011375   -0.837185   -0.007202
      7          6           0       -4.267654    0.562276    0.006818
      8          6           0        3.362693   -0.174662    0.020062
      9          1           0       -0.587227   -1.301662    0.839695
     10          1           0       -0.578251   -1.242958   -0.910246
     11          1           0       -1.663181    1.015871   -0.839968
     12          1           0       -1.671722    0.957847    0.909246
     13          1           0        0.882702    0.740022    0.911325
     14          1           0        0.891728    0.798033   -0.830277
     15          1           0       -3.126807   -1.017917   -0.913876
     16          1           0       -3.135880   -1.074649    0.835009
     17          1           0        1.993053   -1.480914   -0.897388
     18          1           0        1.985214   -1.538084    0.838352
     19          1           0       -5.213437    0.017247   -0.015376
     20          1           0       -4.252935    1.236274   -0.853396
     21          1           0       -4.261665    1.179716    0.908581
     22          1           0        4.223170   -0.879139    0.003685
 ---------------------------------------------------------------------
                    Distance matrix (angstroms):
                    1          2          3          4          5
     1  O    0.000000
     2  C    4.391276   0.000000
     3  C    5.322963   1.528692   0.000000
     4  C    2.878195   1.528834   2.554786   0.000000
     5  C    6.774546   2.559598   1.528908   3.926371   0.000000
     6  C    2.409777   2.545115   3.914721   1.523500   5.104713
     7  C    7.834205   3.924497   2.552964   5.107728   1.527506
     8  C    1.203956   3.911771   5.112949   2.558636   6.440131
     9  H    4.808196   1.096394   2.154319   2.157503   2.783670
    10  H    4.805856   1.096393   2.154282   2.157439   2.784051
    11  H    5.292984   2.154599   1.096055   2.778533   2.154642
    12  H    5.294578   2.154608   1.096052   2.778209   2.154600
    13  H    2.817556   2.161030   2.788857   1.093374   4.218295
    14  H    2.813663   2.161001   2.788987   1.093354   4.218609
    15  H    7.049316   2.783557   2.153810   4.210126   1.095317
    16  H    7.050774   2.784191   2.153759   4.210277   1.095322
    17  H    3.092943   2.804877   4.234729   2.179989   5.256942
    18  H    3.095443   2.805817   4.235436   2.180252   5.257714
    19  H    8.823545   4.731864   3.502224   6.034480   2.178166
    20  H    7.862291   4.247269   2.821432   5.268764   2.175788
    21  H    7.863155   4.247476   2.821048   5.268526   2.175796
    22  H    2.008390   4.754568   6.070089   3.544482   7.313284
                    6          7          8          9         10
     6  C    0.000000
     7  C    6.433109   0.000000
     8  C    1.505238   7.665863   0.000000
     9  H    2.772311   4.208740   4.188531   0.000000
    10  H    2.772418   4.208512   4.187812   1.750948   0.000000
    11  H    4.198771   2.775982   5.236070   3.057761   2.506855
    12  H    4.198478   2.776638   5.236274   2.507258   3.057740
    13  H    2.145967   5.232198   2.789508   2.516802   3.063448
    14  H    2.145926   5.232163   2.788348   3.063467   2.516521
    15  H    5.220693   2.155509   6.610365   3.099192   2.558474
    16  H    5.221106   2.155536   6.611019   2.558748   3.100920
    17  H    1.098705   6.647456   2.103312   3.115675   2.582323
    18  H    1.098594   6.648407   2.103799   2.583282   3.117058
    19  H    7.275166   1.091813   8.578351   4.885949   4.886089
    20  H    6.652583   1.092912   7.794323   4.769182   4.433185
    21  H    6.652637   1.092906   7.794527   4.434352   4.769174
    22  H    2.212220   8.612304   1.112195   4.900751   4.901151
                   11         12         13         14         15
    11  H    0.000000
    12  H    1.750197   0.000000
    13  H    3.102361   2.563695   0.000000
    14  H    2.564197   3.102056   1.742591   0.000000
    15  H    2.506782   3.056909   4.743192   4.410587   0.000000
    16  H    3.056904   2.506055   4.409973   4.743600   1.749829
    17  H    4.427785   4.758367   3.071950   2.532000   5.140778
    18  H    4.759226   4.428078   2.531921   3.072048   5.428962
    19  H    3.779090   3.779339   6.208389   6.208601   2.496577
    20  H    2.599151   3.138008   5.453007   5.163346   2.520555
    21  H    3.136302   2.599430   5.163125   5.452226   3.072270
    22  H    6.241149   6.240538   3.821547   3.821899   7.408329
                   16         17         18         19         20
    16  H    0.000000
    17  H    5.428831   0.000000
    18  H    5.142022   1.736699   0.000000
    19  H    2.496325   7.413227   7.414074   0.000000
    20  H    3.072277   6.811565   7.033746   1.763765   0.000000
    21  H    2.520905   7.032921   6.812846   1.763774   1.762905
    22  H    7.408437   2.479413   2.477767   9.479105   8.778037
                   21         22
    21  H    0.000000
    22  H    8.777822   0.000000
 Stoichiometry    C7H14O
 Framework group  C1[X(C7H14O)]
 Deg. of freedom    60
 Full point group                 C1      NOp   1
 RotChk:  IX=0 Diff= 6.67D-03
 Largest Abelian subgroup         C1      NOp   1
 Largest concise Abelian subgroup C1      NOp   1
                         Standard orientation:                         
 ---------------------------------------------------------------------
 Center     Atomic      Atomic             Coordinates (Angstroms)
 Number     Number       Type             X           Y           Z
 ---------------------------------------------------------------------
      1          8           0       -3.638790   -1.077687   -0.001369
      2          6           0        0.413903    0.613166   -0.000710
      3          6           0        1.629141   -0.314247    0.000958
      4          6           0       -0.919350   -0.135007    0.001569
      5          6           0        2.966678    0.426395   -0.000732
      6          6           0       -2.124570    0.796923    0.000090
      7          6           0        4.174707   -0.508453   -0.000152
      8          6           0       -3.465861    0.113784    0.000404
      9          1           0        0.463162    1.273469    0.873162
     10          1           0        0.462424    1.269268   -0.877781
     11          1           0        1.580941   -0.974215   -0.872801
     12          1           0        1.581257   -0.970676    0.877392
     13          1           0       -0.976144   -0.791159    0.874326
     14          1           0       -0.976977   -0.794930   -0.868261
     15          1           0        3.014072    1.082500   -0.876517
     16          1           0        3.014942    1.084766    0.873310
     17          1           0       -2.112203    1.468316   -0.869526
     18          1           0       -2.112519    1.471411    0.867170
     19          1           0        5.112261    0.051054   -0.000950
     20          1           0        4.173754   -1.155427   -0.880993
     21          1           0        4.174228   -1.153749    0.881912
     22          1           0       -4.336772    0.805512    0.001951
 ---------------------------------------------------------------------
 Rotational constants (GHZ):           8.0157324           0.5665813           0.5396277
 Leave Link  202 at Wed Feb  7 19:38:53 2024, MaxMem=  6710886400 cpu:               0.2 elap:               0.0
 (Enter /tmpu/scunam/7/gaussian-2016.03/g1/g16/l301.exe)
 Standard basis: def2TZVP (5D, 7F)
 Ernie: Thresh=  0.10000D-02 Tol=  0.10000D-05 Strict=F.
 There are   372 symmetry adapted cartesian basis functions of A   symmetry.
 There are   332 symmetry adapted basis functions of A   symmetry.
   332 basis functions,   520 primitive gaussians,   372 cartesian basis functions
    32 alpha electrons       32 beta electrons
       nuclear repulsion energy       360.1476406290 Hartrees.
 IExCor=  402 DFT=T Ex+Corr=B3LYP ExCW=0 ScaHFX=  0.200000
 ScaDFX=  0.800000  0.720000  1.000000  0.810000 ScalE2=  1.000000  1.000000
 IRadAn=      5 IRanWt=     -1 IRanGd=            0 ICorTp=0 IEmpDi=  4
 NAtoms=   22 NActive=   22 NUniq=   22 SFac= 1.00D+00 NAtFMM=   60 NAOKFM=F Big=F
 Integral buffers will be    131072 words long.
 Raffenetti 2 integral format.
 Two-electron integral symmetry is turned on.
 Leave Link  301 at Wed Feb  7 19:38:53 2024, MaxMem=  6710886400 cpu:               0.7 elap:               0.1
 (Enter /tmpu/scunam/7/gaussian-2016.03/g1/g16/l302.exe)
 NPDir=0 NMtPBC=     1 NCelOv=     1 NCel=       1 NClECP=     1 NCelD=      1
         NCelK=      1 NCelE2=     1 NClLst=     1 CellRange=     0.0.
 One-electron integrals computed using PRISM.
 One-electron integral symmetry used in STVInt
   1 Symmetry operations used in ECPInt.
 ECPInt:  NShTT=   10440 NPrTT=   30108 LenC2=    9710 LenP2D=   21946.
 LDataN:  DoStor=T MaxTD1= 6 Len=  172
 NBasis=   332 RedAO= T EigKep=  8.35D-05  NBF=   332
 NBsUse=   332 1.00D-06 EigRej= -1.00D+00 NBFU=   332
 Precomputing XC quadrature grid using
 IXCGrd= 4 IRadAn=           5 IRanWt=          -1 IRanGd=           0 AccXCQ= 0.00D+00.
 Generated NRdTot=       0 NPtTot=           0 NUsed=           0 NTot=          32
 NSgBfM=   367   367   367   367   367 MxSgAt=    22 MxSgA2=    22.
 Leave Link  302 at Wed Feb  7 19:38:53 2024, MaxMem=  6710886400 cpu:               5.1 elap:               0.3
 (Enter /tmpu/scunam/7/gaussian-2016.03/g1/g16/l303.exe)
 DipDrv:  MaxL=1.
 Leave Link  303 at Wed Feb  7 19:38:53 2024, MaxMem=  6710886400 cpu:               0.7 elap:               0.1
 (Enter /tmpu/scunam/7/gaussian-2016.03/g1/g16/l401.exe)
 Lowest energy guess from the checkpoint file:  "Heptanal.chk"
 B after Tr=     0.000000   -0.000000    0.000000
         Rot=    1.000000    0.000442   -0.000013   -0.000000 Ang=   0.05 deg.
 Guess basis will be translated and rotated to current coordinates.
 B after Tr=    -0.000000    0.000000    0.000000
         Rot=    0.999999   -0.001172    0.000031    0.000072 Ang=  -0.13 deg.
 Guess basis will be translated and rotated to current coordinates.
 CkInt1:  FT= 3.34D-01
 Max alpha theta=  0.278 degrees.
 JPrj=2 DoOrth=T DoCkMO=T.
 Leave Link  401 at Wed Feb  7 19:38:54 2024, MaxMem=  6710886400 cpu:               4.6 elap:               0.3
 (Enter /tmpu/scunam/7/gaussian-2016.03/g1/g16/l502.exe)
 Integral symmetry usage will be decided dynamically.
 Closed shell SCF:
 Using DIIS extrapolation, IDIIS=  1040.
 NGot=  6710886400 LenX=  6710600118 LenY=  6710461293
 Requested convergence on RMS density matrix=1.00D-08 within 128 cycles.
 Requested convergence on MAX density matrix=1.00D-06.
 Requested convergence on             energy=1.00D-06.
 No special actions if energy rises.
 Fock matrices will be formed incrementally for  20 cycles.
 Integral accuracy reduced to 1.0D-05 until final iterations.

 Cycle   1  Pass 0  IDiag  1:
 FoFJK:  IHMeth= 1 ICntrl=       0 DoSepK=F KAlg= 0 I1Cent=           0 FoldK=F
 IRaf= 890000000 NMat=       1 IRICut=       1 DoRegI=T DoRafI=F ISym2E= 0 IDoP0=0 IntGTp=1.
 FoFCou: FMM=F IPFlag=           0 FMFlag=      100000 FMFlg1=           0
         NFxFlg=           0 DoJE=F BraDBF=F KetDBF=F FulRan=T
         wScrn=  0.000000 ICntrl=         0 IOpCl=  0 I1Cent=           0 NGrid=           0
         NMat0=    1 NMatS0=      1 NMatT0=    0 NMatD0=    1 NMtDS0=    0 NMtDT0=    0
 Symmetry not used in FoFCou.
 E= -350.539754820085    
 DIIS: error= 1.29D-04 at cycle   1 NSaved=   1.
 NSaved= 1 IEnMin= 1 EnMin= -350.539754820085     IErMin= 1 ErrMin= 1.29D-04
 ErrMax= 1.29D-04  0.00D+00 EMaxC= 1.00D-01 BMatC= 3.28D-06 BMatP= 3.28D-06
 IDIUse=3 WtCom= 9.99D-01 WtEn= 1.29D-03
 Coeff-Com:  0.100D+01
 Coeff-En:   0.100D+01
 Coeff:      0.100D+01
 Gap=    15.622 Goal=   None    Shift=    0.000
 RMSDP=6.82D-05 MaxDP=2.55D-03              OVMax= 6.93D-04

 Cycle   2  Pass 0  IDiag  1:
 RMSU=  6.82D-05    CP:  1.00D+00
 E= -350.539755898627     Delta-E=       -0.000001078542 Rises=F Damp=F
 DIIS: error= 1.17D-05 at cycle   2 NSaved=   2.
 NSaved= 2 IEnMin= 2 EnMin= -350.539755898627     IErMin= 2 ErrMin= 1.17D-05
 ErrMax= 1.17D-05  0.00D+00 EMaxC= 1.00D-01 BMatC= 3.19D-08 BMatP= 3.28D-06
 IDIUse=1 WtCom= 1.00D+00 WtEn= 0.00D+00
 Coeff-Com: -0.387D-01 0.104D+01
 Coeff:     -0.387D-01 0.104D+01
 Gap=     0.231 Goal=   None    Shift=    0.000
 RMSDP=4.61D-06 MaxDP=2.99D-04 DE=-1.08D-06 OVMax= 1.71D-04

 Initial convergence to 1.0D-05 achieved.  Increase integral accuracy.
 Cycle   3  Pass 1  IDiag  1:
 E= -350.539728767258     Delta-E=        0.000027131369 Rises=F Damp=F
 DIIS: error= 1.26D-04 at cycle   1 NSaved=   1.
 NSaved= 1 IEnMin= 1 EnMin= -350.539728767258     IErMin= 1 ErrMin= 1.26D-04
 ErrMax= 1.26D-04  0.00D+00 EMaxC= 1.00D-01 BMatC= 1.26D-06 BMatP= 1.26D-06
 IDIUse=3 WtCom= 9.99D-01 WtEn= 1.26D-03
 Coeff-Com:  0.100D+01
 Coeff-En:   0.100D+01
 Coeff:      0.100D+01
 Gap=     0.231 Goal=   None    Shift=    0.000
 RMSDP=4.61D-06 MaxDP=2.99D-04 DE= 2.71D-05 OVMax= 2.93D-04

 Cycle   4  Pass 1  IDiag  1:
 RMSU=  6.78D-05    CP:  1.00D+00
 E= -350.539729612665     Delta-E=       -0.000000845407 Rises=F Damp=F
 DIIS: error= 5.90D-06 at cycle   2 NSaved=   2.
 NSaved= 2 IEnMin= 2 EnMin= -350.539729612665     IErMin= 2 ErrMin= 5.90D-06
 ErrMax= 5.90D-06  0.00D+00 EMaxC= 1.00D-01 BMatC= 1.03D-08 BMatP= 1.26D-06
 IDIUse=1 WtCom= 1.00D+00 WtEn= 0.00D+00
 Coeff-Com:  0.610D-02 0.994D+00
 Coeff:      0.610D-02 0.994D+00
 Gap=     0.231 Goal=   None    Shift=    0.000
 RMSDP=1.49D-06 MaxDP=1.13D-04 DE=-8.45D-07 OVMax= 7.02D-05

 Cycle   5  Pass 1  IDiag  1:
 RMSU=  9.34D-07    CP:  1.00D+00  1.02D+00
 E= -350.539729591711     Delta-E=        0.000000020954 Rises=F Damp=F
 DIIS: error= 1.14D-05 at cycle   3 NSaved=   3.
 NSaved= 3 IEnMin= 2 EnMin= -350.539729612665     IErMin= 2 ErrMin= 5.90D-06
 ErrMax= 1.14D-05  0.00D+00 EMaxC= 1.00D-01 BMatC= 3.84D-08 BMatP= 1.03D-08
 IDIUse=1 WtCom= 1.00D+00 WtEn= 0.00D+00
 Coeff-Com: -0.367D-02 0.665D+00 0.338D+00
 Coeff:     -0.367D-02 0.665D+00 0.338D+00
 Gap=     0.231 Goal=   None    Shift=    0.000
 RMSDP=6.10D-07 MaxDP=8.26D-05 DE= 2.10D-08 OVMax= 5.22D-05

 Cycle   6  Pass 1  IDiag  1:
 RMSU=  2.76D-07    CP:  1.00D+00  1.02D+00  4.33D-01
 E= -350.539729620764     Delta-E=       -0.000000029053 Rises=F Damp=F
 DIIS: error= 1.43D-06 at cycle   4 NSaved=   4.
 NSaved= 4 IEnMin= 4 EnMin= -350.539729620764     IErMin= 4 ErrMin= 1.43D-06
 ErrMax= 1.43D-06  0.00D+00 EMaxC= 1.00D-01 BMatC= 7.10D-10 BMatP= 1.03D-08
 IDIUse=1 WtCom= 1.00D+00 WtEn= 0.00D+00
 Coeff-Com: -0.244D-02 0.357D+00 0.200D+00 0.446D+00
 Coeff:     -0.244D-02 0.357D+00 0.200D+00 0.446D+00
 Gap=     0.231 Goal=   None    Shift=    0.000
 RMSDP=1.21D-07 MaxDP=1.74D-05 DE=-2.91D-08 OVMax= 5.62D-06

 Cycle   7  Pass 1  IDiag  1:
 RMSU=  6.49D-08    CP:  1.00D+00  1.02D+00  5.22D-01  8.06D-01
 E= -350.539729621321     Delta-E=       -0.000000000557 Rises=F Damp=F
 DIIS: error= 1.29D-07 at cycle   5 NSaved=   5.
 NSaved= 5 IEnMin= 5 EnMin= -350.539729621321     IErMin= 5 ErrMin= 1.29D-07
 ErrMax= 1.29D-07  0.00D+00 EMaxC= 1.00D-01 BMatC= 1.07D-11 BMatP= 7.10D-10
 IDIUse=1 WtCom= 1.00D+00 WtEn= 0.00D+00
 Coeff-Com: -0.603D-03 0.813D-01 0.476D-01 0.159D+00 0.713D+00
 Coeff:     -0.603D-03 0.813D-01 0.476D-01 0.159D+00 0.713D+00
 Gap=     0.231 Goal=   None    Shift=    0.000
 RMSDP=1.54D-08 MaxDP=6.96D-07 DE=-5.57D-10 OVMax= 1.44D-06

 Cycle   8  Pass 1  IDiag  1:
 RMSU=  1.20D-08    CP:  1.00D+00  1.02D+00  5.26D-01  8.30D-01  9.92D-01
 E= -350.539729621330     Delta-E=       -0.000000000008 Rises=F Damp=F
 DIIS: error= 4.33D-08 at cycle   6 NSaved=   6.
 NSaved= 6 IEnMin= 6 EnMin= -350.539729621330     IErMin= 6 ErrMin= 4.33D-08
 ErrMax= 4.33D-08  0.00D+00 EMaxC= 1.00D-01 BMatC= 1.15D-12 BMatP= 1.07D-11
 IDIUse=1 WtCom= 1.00D+00 WtEn= 0.00D+00
 Coeff-Com:  0.789D-06-0.272D-02-0.552D-03 0.173D-01 0.266D+00 0.720D+00
 Coeff:      0.789D-06-0.272D-02-0.552D-03 0.173D-01 0.266D+00 0.720D+00
 Gap=     0.231 Goal=   None    Shift=    0.000
 RMSDP=4.89D-09 MaxDP=1.88D-07 DE=-8.41D-12 OVMax= 7.96D-07

 SCF Done:  E(RB3LYP) =  -350.539729621     A.U. after    8 cycles
            NFock=  8  Conv=0.49D-08     -V/T= 2.0054
 KE= 3.486721248723D+02 PE=-1.534911715636D+03 EE= 4.755522205132D+02
 Leave Link  502 at Wed Feb  7 19:39:20 2024, MaxMem=  6710886400 cpu:             421.8 elap:              26.4
 (Enter /tmpu/scunam/7/gaussian-2016.03/g1/g16/l508.exe)
 QCSCF skips out because SCF is already converged.
 Leave Link  508 at Wed Feb  7 19:39:20 2024, MaxMem=  6710886400 cpu:               0.0 elap:               0.0
 (Enter /tmpu/scunam/7/gaussian-2016.03/g1/g16/l701.exe)
 ... and contract with generalized density number  0.
 Compute integral first derivatives.
   1 Symmetry operations used in ECPInt.
 ECPInt:  NShTT=   10440 NPrTT=   30108 LenC2=    9710 LenP2D=   21946.
 LDataN:  DoStor=T MaxTD1= 7 Len=  274
 Leave Link  701 at Wed Feb  7 19:39:20 2024, MaxMem=  6710886400 cpu:               3.5 elap:               0.2
 (Enter /tmpu/scunam/7/gaussian-2016.03/g1/g16/l702.exe)
 L702 exits ... SP integral derivatives will be done elsewhere.
 Leave Link  702 at Wed Feb  7 19:39:21 2024, MaxMem=  6710886400 cpu:               0.3 elap:               0.0
 (Enter /tmpu/scunam/7/gaussian-2016.03/g1/g16/l703.exe)
 Integral derivatives from FoFJK, PRISM(SPDF).
 Compute integral first derivatives, UseDBF=F ICtDFT=           0.
 Calling FoFJK, ICntrl=      2127 FMM=F ISym2X=0 I1Cent= 0 IOpClX= 0 NMat=1 NMatS=1 NMatT=0.
 FoFJK:  IHMeth= 1 ICntrl=    2127 DoSepK=F KAlg= 0 I1Cent=           0 FoldK=F
 IRaf=         0 NMat=       1 IRICut=       1 DoRegI=T DoRafI=F ISym2E= 0 IDoP0=0 IntGTp=1.
 FoFCou: FMM=F IPFlag=           0 FMFlag=      100000 FMFlg1=         800
         NFxFlg=           0 DoJE=F BraDBF=F KetDBF=F FulRan=T
         wScrn=  0.000000 ICntrl=      2127 IOpCl=  0 I1Cent=           0 NGrid=           0
         NMat0=    1 NMatS0=      1 NMatT0=    0 NMatD0=    1 NMtDS0=    0 NMtDT0=    0
 Symmetry not used in FoFCou.
 Leave Link  703 at Wed Feb  7 19:39:32 2024, MaxMem=  6710886400 cpu:             176.5 elap:              11.0
 (Enter /tmpu/scunam/7/gaussian-2016.03/g1/g16/l716.exe)
 Dipole        = 4.55665762D-01 9.74593986D-01 9.53339086D-04
 ***** Axes restored to original set *****
 -------------------------------------------------------------------
 Center     Atomic                   Forces (Hartrees/Bohr)
 Number     Number              X              Y              Z
 -------------------------------------------------------------------
      1        8          -0.000024841   -0.000223324    0.000014011
      2        6          -0.000004397   -0.000004235    0.000003714
      3        6           0.000006283    0.000006282   -0.000001620
      4        6           0.000002286    0.000003087   -0.000005595
      5        6          -0.000013753   -0.000005294    0.000002476
      6        6           0.000002996   -0.000003082   -0.000040385
      7        6          -0.000005981   -0.000000658   -0.000002907
      8        6           0.000063127    0.000176653   -0.000015487
      9        1          -0.000000736    0.000005326    0.000000560
     10        1           0.000000086    0.000001399    0.000003008
     11        1          -0.000000993   -0.000003633    0.000001403
     12        1          -0.000002198    0.000000383   -0.000001644
     13        1          -0.000002188   -0.000001264    0.000002218
     14        1           0.000000576   -0.000000374    0.000000216
     15        1           0.000005674    0.000005347    0.000002209
     16        1           0.000003502    0.000004810   -0.000006280
     17        1           0.000004966    0.000007114    0.000012985
     18        1          -0.000001020    0.000006127    0.000024364
     19        1           0.000005731    0.000005153    0.000000470
     20        1           0.000001844   -0.000007790    0.000010347
     21        1          -0.000000523   -0.000007003   -0.000005315
     22        1          -0.000040441    0.000034974    0.000001252
 -------------------------------------------------------------------
 Cartesian Forces:  Max     0.000223324 RMS     0.000037432
 Leave Link  716 at Wed Feb  7 19:39:32 2024, MaxMem=  6710886400 cpu:               0.3 elap:               0.0
 (Enter /tmpu/scunam/7/gaussian-2016.03/g1/g16/l103.exe)

 GradGradGradGradGradGradGradGradGradGradGradGradGradGradGradGradGradGrad
 Berny optimization.
 Search for a local minimum.
 Step number  17 out of a maximum of  132
 All quantities printed in internal units (Hartrees-Bohrs-Radians)
 Update second derivatives using D2CorN and points    1    2    3    4    7
                                                          6    8    9   10   12

                                                         11   13   14   16   15

                                                         17
 DE= -7.14D-07 DEPred=-9.11D-07 R= 7.84D-01
 Trust test= 7.84D-01 RLast= 3.75D-02 DXMaxT set to 1.77D-01
 ITU=  0 -1  1  1  1  0  0  0  0  0 -1  0  0  1  1  1  0
     Eigenvalues ---    0.00043   0.00095   0.00147   0.00211   0.00237
     Eigenvalues ---    0.00474   0.00548   0.00919   0.01461   0.02064
     Eigenvalues ---    0.02413   0.03217   0.03427   0.03904   0.04591
     Eigenvalues ---    0.04723   0.05244   0.05280   0.05656   0.05782
     Eigenvalues ---    0.06134   0.06410   0.06887   0.07956   0.07996
     Eigenvalues ---    0.08539   0.09636   0.09953   0.11799   0.13062
     Eigenvalues ---    0.13075   0.13869   0.15034   0.15987   0.17830
     Eigenvalues ---    0.18054   0.20588   0.21430   0.24830   0.25283
     Eigenvalues ---    0.27368   0.39128   0.52201   0.58120   0.61994
     Eigenvalues ---    0.69077   0.69504   0.78297   0.87068   0.87840
     Eigenvalues ---    0.92884   0.92956   0.95638   0.98940   0.99656
     Eigenvalues ---    1.02380   1.04716   1.08380   1.12827   2.04455
 RFO step:  Lambda=-1.02791507D-07 EMin= 4.28560854D-04
 Quartic linear search produced a step of  0.24818.
 B after Tr=     0.000064   -0.000059    0.000203
         Rot=    1.000000   -0.000067    0.000025    0.000012 Ang=  -0.01 deg.
 Variable       Old X    -DE/DX   Delta X   Delta X   Delta X     New X
                                 (Linear)    (Quad)   (Total)
    X1        6.71493  -0.00002   0.00001   0.00082   0.00094   6.71586
    Y1        1.91533  -0.00022   0.00000  -0.00109  -0.00132   1.91400
    Z1        0.10619   0.00001  -0.00197   0.00235   0.00119   0.10737
    X2       -0.99030  -0.00000  -0.00001   0.00004   0.00008  -0.99022
    Y2       -1.16272  -0.00000  -0.00006   0.00098   0.00089  -1.16184
    Z2       -0.02444   0.00000   0.00167  -0.00047   0.00119  -0.02325
    X3       -3.26035   0.00001  -0.00001  -0.00014  -0.00007  -3.26042
    Y3        0.62327   0.00001  -0.00009   0.00076   0.00069   0.62395
    Z3        0.02374  -0.00000   0.00148  -0.00096   0.00064   0.02438
    X4        1.54995   0.00000  -0.00004   0.00023   0.00026   1.55021
    Y4        0.21220   0.00000  -0.00002   0.00074   0.00062   0.21282
    Z4        0.03456  -0.00001   0.00103  -0.00120   0.00015   0.03471
    X5       -5.80849  -0.00001   0.00001   0.00018   0.00024  -5.80825
    Y5       -0.73734  -0.00001  -0.00000  -0.00001   0.00007  -0.73728
    Z5       -0.03374   0.00000  -0.00055   0.00066  -0.00009  -0.03383
    X6        3.80095   0.00000  -0.00001  -0.00019  -0.00017   3.80077
    Y6       -1.58205  -0.00000   0.00007   0.00014   0.00007  -1.58198
    Z6       -0.01361  -0.00004   0.00038  -0.00104  -0.00047  -0.01408
    X7       -8.06470  -0.00001   0.00003  -0.00048  -0.00036  -8.06506
    Y7        1.06255  -0.00000   0.00005  -0.00089  -0.00070   1.06184
    Z7        0.01288  -0.00000  -0.00125   0.00068  -0.00063   0.01226
    X8        6.35457   0.00006  -0.00001   0.00021   0.00026   6.35482
    Y8       -0.33006   0.00018   0.00010  -0.00079  -0.00091  -0.33097
    Z8        0.03791  -0.00002  -0.00223   0.00103  -0.00072   0.03719
    X9       -1.10970  -0.00000   0.00019   0.00019   0.00030  -1.10940
    Y9       -2.45978   0.00001   0.00020   0.00167   0.00162  -2.45816
    Z9        1.58679   0.00000   0.00188   0.00007   0.00177   1.58856
   X10       -1.09274   0.00000  -0.00013  -0.00016  -0.00020  -1.09293
   Y10       -2.34885   0.00000  -0.00036   0.00028   0.00012  -2.34873
   Z10       -1.72012   0.00000   0.00188   0.00004   0.00176  -1.71836
   X11       -3.14296  -0.00000   0.00080  -0.00091   0.00008  -3.14287
   Y11        1.91972  -0.00000   0.00068  -0.00027   0.00064   1.92036
   Z11       -1.58731   0.00000   0.00214  -0.00182   0.00063  -1.58668
   X12       -3.15910  -0.00000  -0.00085   0.00009  -0.00074  -3.15983
   Y12        1.81007   0.00000  -0.00086   0.00182   0.00074   1.81081
   Z12        1.71823  -0.00000   0.00208  -0.00172   0.00065   1.71887
   X13        1.66807  -0.00000   0.00039   0.00066   0.00105   1.66912
   Y13        1.39844  -0.00000   0.00008   0.00101   0.00075   1.39919
   Z13        1.72216   0.00000   0.00094  -0.00141  -0.00000   1.72215
   X14        1.68512   0.00000  -0.00057   0.00033  -0.00007   1.68505
   Y14        1.50806  -0.00000  -0.00007   0.00039   0.00043   1.50849
   Z14       -1.56900   0.00000   0.00093  -0.00146  -0.00003  -1.56903
   X15       -5.90881   0.00001   0.00103   0.00001   0.00115  -5.90766
   Y15       -1.92358   0.00001   0.00071  -0.00083   0.00019  -1.92339
   Z15       -1.72698   0.00000  -0.00112   0.00126  -0.00021  -1.72719
   X16       -5.92595   0.00000  -0.00101   0.00127   0.00019  -5.92576
   Y16       -2.03079   0.00000  -0.00070   0.00071  -0.00011  -2.03091
   Z16        1.57794  -0.00001  -0.00117   0.00129  -0.00025   1.57768
   X17        3.76632   0.00000  -0.00124   0.00035  -0.00081   3.76552
   Y17       -2.79852   0.00001  -0.00112   0.00110   0.00006  -2.79846
   Z17       -1.69582   0.00001   0.00129  -0.00171  -0.00040  -1.69622
   X18        3.75151  -0.00000   0.00137  -0.00155  -0.00027   3.75124
   Y18       -2.90656   0.00001   0.00111  -0.00056   0.00020  -2.90636
   Z18        1.58426   0.00002   0.00134  -0.00170  -0.00036   1.58390
   X19       -9.85197   0.00001   0.00002  -0.00007   0.00001  -9.85196
   Y19        0.03259   0.00001   0.00015  -0.00160  -0.00126   0.03133
   Z19       -0.02906   0.00000  -0.00299   0.00157  -0.00171  -0.03077
   X20       -8.03688   0.00000   0.00123  -0.00146  -0.00002  -8.03690
   Y20        2.33622  -0.00001   0.00082  -0.00147  -0.00030   2.33592
   Z20       -1.61268   0.00001  -0.00063   0.00026  -0.00027  -1.61295
   X21       -8.05338  -0.00000  -0.00110  -0.00046  -0.00153  -8.05491
   Y21        2.22934  -0.00001  -0.00074  -0.00033  -0.00117   2.22817
   Z21        1.71697  -0.00001  -0.00070   0.00027  -0.00034   1.71663
   X22        7.98064  -0.00004  -0.00009  -0.00024  -0.00031   7.98033
   Y22       -1.66133   0.00003   0.00005  -0.00110  -0.00130  -1.66264
   Z22        0.00696   0.00000  -0.00444   0.00157  -0.00248   0.00448
         Item               Value     Threshold  Converged?
 Maximum Force            0.000223     0.000450     YES
 RMS     Force            0.000037     0.000300     YES
 Maximum Displacement     0.002479     0.001800     NO 
 RMS     Displacement     0.000803     0.001200     YES
 Predicted change in Energy=-6.558402D-08
 Lowest energy point so far.  Saving SCF results.
 GradGradGradGradGradGradGradGradGradGradGradGradGradGradGradGradGradGrad

 Leave Link  103 at Wed Feb  7 19:39:32 2024, MaxMem=  6710886400 cpu:               0.3 elap:               0.0
 (Enter /tmpu/scunam/7/gaussian-2016.03/g1/g16/l202.exe)
                          Input orientation:                          
 ---------------------------------------------------------------------
 Center     Atomic      Atomic             Coordinates (Angstroms)
 Number     Number       Type             X           Y           Z
 ---------------------------------------------------------------------
      1          8           0        3.553881    1.012847    0.056819
      2          6           0       -0.524003   -0.614819   -0.012303
      3          6           0       -1.725341    0.330183    0.012901
      4          6           0        0.820338    0.112618    0.018367
      5          6           0       -3.073591   -0.390150   -0.017900
      6          6           0        2.011283   -0.837148   -0.007449
      7          6           0       -4.267845    0.561903    0.006486
      8          6           0        3.362828   -0.175144    0.019682
      9          1           0       -0.587069   -1.300803    0.840631
     10          1           0       -0.578356   -1.242894   -0.909315
     11          1           0       -1.663137    1.016211   -0.839636
     12          1           0       -1.672112    0.958239    0.909587
     13          1           0        0.883260    0.740421    0.911324
     14          1           0        0.891692    0.798259   -0.830295
     15          1           0       -3.126199   -1.017816   -0.913989
     16          1           0       -3.135779   -1.074709    0.834875
     17          1           0        1.992627   -1.480882   -0.897600
     18          1           0        1.985069   -1.537979    0.838161
     19          1           0       -5.213433    0.016578   -0.016283
     20          1           0       -4.252947    1.236116   -0.853538
     21          1           0       -4.262474    1.179098    0.908400
     22          1           0        4.223007   -0.879829    0.002373
 ---------------------------------------------------------------------
                    Distance matrix (angstroms):
                    1          2          3          4          5
     1  O    0.000000
     2  C    4.391265   0.000000
     3  C    5.323359   1.528685   0.000000
     4  C    2.878220   1.528841   2.554965   0.000000
     5  C    6.774760   2.559475   1.528923   3.926420   0.000000
     6  C    2.409610   2.545020   3.914771   1.523506   5.104494
     7  C    7.834876   3.924459   2.553049   5.107994   1.527495
     8  C    1.203829   3.911750   5.113206   2.558724   6.440120
     9  H    4.807787   1.096380   2.154278   2.157469   2.783731
    10  H    4.805951   1.096386   2.154212   2.157394   2.783522
    11  H    5.293479   2.154614   1.096049   2.778542   2.154642
    12  H    5.295394   2.154657   1.096054   2.778787   2.154653
    13  H    2.817200   2.161053   2.789312   1.093375   4.218806
    14  H    2.814298   2.161039   2.789075   1.093354   4.218504
    15  H    7.049080   2.783320   2.153747   4.209789   1.095311
    16  H    7.050874   2.783988   2.153763   4.210379   1.095314
    17  H    3.093075   2.804860   4.234649   2.180023   5.256438
    18  H    3.094896   2.805522   4.235354   2.180168   5.257414
    19  H    8.824040   4.731747   3.502282   6.034634   2.178153
    20  H    7.862898   4.247194   2.821387   5.268841   2.175755
    21  H    7.864365   4.247588   2.821280   5.269205   2.175779
    22  H    2.008212   4.754424   6.070180   3.544483   7.313039
                    6          7          8          9         10
     6  C    0.000000
     7  C    6.433116   0.000000
     8  C    1.505211   7.666198   0.000000
     9  H    2.772300   4.208751   4.188407   0.000000
    10  H    2.772042   4.208124   4.187607   1.750926   0.000000
    11  H    4.198670   2.776116   5.236228   3.057740   2.507022
    12  H    4.199019   2.776780   5.237090   2.507059   3.057727
    13  H    2.145997   5.233018   2.789542   2.516637   3.063427
    14  H    2.145953   5.232292   2.788636   3.063461   2.516663
    15  H    5.219978   2.155491   6.609789   3.099347   2.557770
    16  H    5.220938   2.155527   6.611025   2.558725   3.100145
    17  H    1.098685   6.647093   2.103285   3.115880   2.582001
    18  H    1.098594   6.648317   2.103675   2.583051   3.116391
    19  H    7.274987   1.091803   8.578479   4.886004   4.885459
    20  H    6.652433   1.092897   7.794498   4.769154   4.432970
    21  H    6.653123   1.092890   7.795449   4.434310   4.768947
    22  H    2.212158   8.612385   1.112109   4.900687   4.900620
                   11         12         13         14         15
    11  H    0.000000
    12  H    1.750206   0.000000
    13  H    3.102589   2.564639   0.000000
    14  H    2.564125   3.102559   1.742600   0.000000
    15  H    2.506660   3.056892   4.743303   4.410054   0.000000
    16  H    3.056895   2.506148   4.410580   4.743556   1.749815
    17  H    4.427577   4.758734   3.071985   2.532010   5.139754
    18  H    4.759022   4.428451   2.531886   3.072008   5.428228
    19  H    3.779123   3.779539   6.209192   6.208557   2.496476
    20  H    2.599167   3.137919   5.453538   5.163290   2.520600
    21  H    3.136673   2.599761   5.164400   5.452846   3.072239
    22  H    6.241044   6.241310   3.821690   3.821908   7.407401
                   16         17         18         19         20
    16  H    0.000000
    17  H    5.428351   0.000000
    18  H    5.141762   1.736716   0.000000
    19  H    2.496401   7.412584   7.413848   0.000000
    20  H    3.072248   6.811109   7.033512   1.763746   0.000000
    21  H    2.520812   7.033023   6.813166   1.763750   1.762886
    22  H    7.408291   2.479075   2.477917   9.478939   8.777904
                   21         22
    21  H    0.000000
    22  H    8.778579   0.000000
 Stoichiometry    C7H14O
 Framework group  C1[X(C7H14O)]
 Deg. of freedom    60
 Full point group                 C1      NOp   1
 RotChk:  IX=0 Diff= 2.71D-04
 Largest Abelian subgroup         C1      NOp   1
 Largest concise Abelian subgroup C1      NOp   1
                         Standard orientation:                         
 ---------------------------------------------------------------------
 Center     Atomic      Atomic             Coordinates (Angstroms)
 Number     Number       Type             X           Y           Z
 ---------------------------------------------------------------------
      1          8           0       -3.639192   -1.077197   -0.001072
      2          6           0        0.413909    0.612649   -0.000044
      3          6           0        1.629260   -0.314603    0.001187
      4          6           0       -0.919414   -0.135418    0.001518
      5          6           0        2.966600    0.426428   -0.000711
      6          6           0       -2.124442    0.796770   -0.000126
      7          6           0        4.174977   -0.507952   -0.000553
      8          6           0       -3.465942    0.114100   -0.000085
      9          1           0        0.463011    1.272391    0.874245
     10          1           0        0.462560    1.269313   -0.876678
     11          1           0        1.581020   -0.974387   -0.872702
     12          1           0        1.581734   -0.971220    0.877502
     13          1           0       -0.976619   -0.791811    0.874069
     14          1           0       -0.976825   -0.795074   -0.868528
     15          1           0        3.013507    1.082628   -0.876444
     16          1           0        3.014845    1.084736    0.873369
     17          1           0       -2.111750    1.468334   -0.869580
     18          1           0       -2.112381    1.471028    0.867135
     19          1           0        5.112312    0.051902   -0.001793
     20          1           0        4.173890   -1.154985   -0.881332
     21          1           0        4.175118   -1.153163    0.881553
     22          1           0       -4.336580    0.806035    0.000650
 ---------------------------------------------------------------------
 Rotational constants (GHZ):           8.0196084           0.5665321           0.5396006
 Leave Link  202 at Wed Feb  7 19:39:32 2024, MaxMem=  6710886400 cpu:               0.1 elap:               0.0
 (Enter /tmpu/scunam/7/gaussian-2016.03/g1/g16/l301.exe)
 Standard basis: def2TZVP (5D, 7F)
 Ernie: Thresh=  0.10000D-02 Tol=  0.10000D-05 Strict=F.
 There are   372 symmetry adapted cartesian basis functions of A   symmetry.
 There are   332 symmetry adapted basis functions of A   symmetry.
   332 basis functions,   520 primitive gaussians,   372 cartesian basis functions
    32 alpha electrons       32 beta electrons
       nuclear repulsion energy       360.1497147836 Hartrees.
 IExCor=  402 DFT=T Ex+Corr=B3LYP ExCW=0 ScaHFX=  0.200000
 ScaDFX=  0.800000  0.720000  1.000000  0.810000 ScalE2=  1.000000  1.000000
 IRadAn=      5 IRanWt=     -1 IRanGd=            0 ICorTp=0 IEmpDi=  4
 NAtoms=   22 NActive=   22 NUniq=   22 SFac= 1.00D+00 NAtFMM=   60 NAOKFM=F Big=F
 Integral buffers will be    131072 words long.
 Raffenetti 2 integral format.
 Two-electron integral symmetry is turned on.
 Leave Link  301 at Wed Feb  7 19:39:32 2024, MaxMem=  6710886400 cpu:               0.7 elap:               0.1
 (Enter /tmpu/scunam/7/gaussian-2016.03/g1/g16/l302.exe)
 NPDir=0 NMtPBC=     1 NCelOv=     1 NCel=       1 NClECP=     1 NCelD=      1
         NCelK=      1 NCelE2=     1 NClLst=     1 CellRange=     0.0.
 One-electron integrals computed using PRISM.
 One-electron integral symmetry used in STVInt
   1 Symmetry operations used in ECPInt.
 ECPInt:  NShTT=   10440 NPrTT=   30108 LenC2=    9710 LenP2D=   21946.
 LDataN:  DoStor=T MaxTD1= 6 Len=  172
 NBasis=   332 RedAO= T EigKep=  8.35D-05  NBF=   332
 NBsUse=   332 1.00D-06 EigRej= -1.00D+00 NBFU=   332
 Precomputing XC quadrature grid using
 IXCGrd= 4 IRadAn=           5 IRanWt=          -1 IRanGd=           0 AccXCQ= 0.00D+00.
 Generated NRdTot=       0 NPtTot=           0 NUsed=           0 NTot=          32
 NSgBfM=   367   367   367   367   367 MxSgAt=    22 MxSgA2=    22.
 Leave Link  302 at Wed Feb  7 19:39:32 2024, MaxMem=  6710886400 cpu:               5.1 elap:               0.3
 (Enter /tmpu/scunam/7/gaussian-2016.03/g1/g16/l303.exe)
 DipDrv:  MaxL=1.
 Leave Link  303 at Wed Feb  7 19:39:32 2024, MaxMem=  6710886400 cpu:               0.7 elap:               0.1
 (Enter /tmpu/scunam/7/gaussian-2016.03/g1/g16/l401.exe)
 Initial guess from the checkpoint file:  "Heptanal.chk"
 B after Tr=    -0.000000    0.000000   -0.000000
         Rot=    1.000000   -0.000048   -0.000001    0.000003 Ang=  -0.01 deg.
 Guess basis will be translated and rotated to current coordinates.
 JPrj=2 DoOrth=T DoCkMO=T.
 Leave Link  401 at Wed Feb  7 19:39:32 2024, MaxMem=  6710886400 cpu:               2.9 elap:               0.2
 (Enter /tmpu/scunam/7/gaussian-2016.03/g1/g16/l502.exe)
 Integral symmetry usage will be decided dynamically.
 Closed shell SCF:
 Using DIIS extrapolation, IDIIS=  1040.
 NGot=  6710886400 LenX=  6710600118 LenY=  6710461293
 Requested convergence on RMS density matrix=1.00D-08 within 128 cycles.
 Requested convergence on MAX density matrix=1.00D-06.
 Requested convergence on             energy=1.00D-06.
 No special actions if energy rises.
 Fock matrices will be formed incrementally for  20 cycles.

 Cycle   1  Pass 1  IDiag  1:
 FoFJK:  IHMeth= 1 ICntrl=       0 DoSepK=F KAlg= 0 I1Cent=           0 FoldK=F
 IRaf= 890000000 NMat=       1 IRICut=       1 DoRegI=T DoRafI=F ISym2E= 0 IDoP0=0 IntGTp=1.
 FoFCou: FMM=F IPFlag=           0 FMFlag=      100000 FMFlg1=           0
         NFxFlg=           0 DoJE=F BraDBF=F KetDBF=F FulRan=T
         wScrn=  0.000000 ICntrl=         0 IOpCl=  0 I1Cent=           0 NGrid=           0
         NMat0=    1 NMatS0=      1 NMatT0=    0 NMatD0=    1 NMtDS0=    0 NMtDT0=    0
 Symmetry not used in FoFCou.
 E= -350.539728844728    
 DIIS: error= 3.18D-05 at cycle   1 NSaved=   1.
 NSaved= 1 IEnMin= 1 EnMin= -350.539728844728     IErMin= 1 ErrMin= 3.18D-05
 ErrMax= 3.18D-05  0.00D+00 EMaxC= 1.00D-01 BMatC= 6.02D-07 BMatP= 6.02D-07
 IDIUse=1 WtCom= 1.00D+00 WtEn= 0.00D+00
 Coeff-Com:  0.100D+01
 Coeff:      0.100D+01
 Gap=     0.648 Goal=   None    Shift=    0.000
 RMSDP=2.74D-06 MaxDP=1.36D-04              OVMax= 2.81D-04

 Cycle   2  Pass 1  IDiag  1:
 RMSU=  2.74D-06    CP:  1.00D+00
 E= -350.539729694756     Delta-E=       -0.000000850028 Rises=F Damp=F
 DIIS: error= 6.69D-06 at cycle   2 NSaved=   2.
 NSaved= 2 IEnMin= 2 EnMin= -350.539729694756     IErMin= 2 ErrMin= 6.69D-06
 ErrMax= 6.69D-06  0.00D+00 EMaxC= 1.00D-01 BMatC= 9.89D-09 BMatP= 6.02D-07
 IDIUse=1 WtCom= 1.00D+00 WtEn= 0.00D+00
 Coeff-Com: -0.565D-01 0.106D+01
 Coeff:     -0.565D-01 0.106D+01
 Gap=     0.231 Goal=   None    Shift=    0.000
 RMSDP=4.89D-07 MaxDP=2.36D-05 DE=-8.50D-07 OVMax= 6.16D-05

 Cycle   3  Pass 1  IDiag  1:
 RMSU=  4.43D-07    CP:  1.00D+00  1.07D+00
 E= -350.539729706060     Delta-E=       -0.000000011305 Rises=F Damp=F
 DIIS: error= 3.64D-06 at cycle   3 NSaved=   3.
 NSaved= 3 IEnMin= 3 EnMin= -350.539729706060     IErMin= 3 ErrMin= 3.64D-06
 ErrMax= 3.64D-06  0.00D+00 EMaxC= 1.00D-01 BMatC= 4.16D-09 BMatP= 9.89D-09
 IDIUse=1 WtCom= 1.00D+00 WtEn= 0.00D+00
 Coeff-Com: -0.296D-01 0.426D+00 0.604D+00
 Coeff:     -0.296D-01 0.426D+00 0.604D+00
 Gap=     0.231 Goal=   None    Shift=    0.000
 RMSDP=1.82D-07 MaxDP=1.05D-05 DE=-1.13D-08 OVMax= 2.36D-05

 Cycle   4  Pass 1  IDiag  1:
 RMSU=  1.53D-07    CP:  1.00D+00  1.09D+00  8.06D-01
 E= -350.539729708651     Delta-E=       -0.000000002591 Rises=F Damp=F
 DIIS: error= 2.54D-06 at cycle   4 NSaved=   4.
 NSaved= 4 IEnMin= 4 EnMin= -350.539729708651     IErMin= 4 ErrMin= 2.54D-06
 ErrMax= 2.54D-06  0.00D+00 EMaxC= 1.00D-01 BMatC= 1.58D-09 BMatP= 4.16D-09
 IDIUse=1 WtCom= 1.00D+00 WtEn= 0.00D+00
 Coeff-Com: -0.119D-01 0.154D+00 0.386D+00 0.472D+00
 Coeff:     -0.119D-01 0.154D+00 0.386D+00 0.472D+00
 Gap=     0.231 Goal=   None    Shift=    0.000
 RMSDP=1.51D-07 MaxDP=2.10D-05 DE=-2.59D-09 OVMax= 1.28D-05

 Cycle   5  Pass 1  IDiag  1:
 RMSU=  1.27D-07    CP:  1.00D+00  1.09D+00  7.64D-01  5.17D-01
 E= -350.539729709733     Delta-E=       -0.000000001081 Rises=F Damp=F
 DIIS: error= 7.67D-07 at cycle   5 NSaved=   5.
 NSaved= 5 IEnMin= 5 EnMin= -350.539729709733     IErMin= 5 ErrMin= 7.67D-07
 ErrMax= 7.67D-07  0.00D+00 EMaxC= 1.00D-01 BMatC= 1.98D-10 BMatP= 1.58D-09
 IDIUse=1 WtCom= 1.00D+00 WtEn= 0.00D+00
 Coeff-Com: -0.120D-02 0.710D-02 0.128D+00 0.293D+00 0.573D+00
 Coeff:     -0.120D-02 0.710D-02 0.128D+00 0.293D+00 0.573D+00
 Gap=     0.231 Goal=   None    Shift=    0.000
 RMSDP=8.32D-08 MaxDP=1.20D-05 DE=-1.08D-09 OVMax= 5.22D-06

 Cycle   6  Pass 1  IDiag  1:
 RMSU=  2.73D-08    CP:  1.00D+00  1.10D+00  8.40D-01  7.05D-01  5.17D-01
 E= -350.539729709880     Delta-E=       -0.000000000148 Rises=F Damp=F
 DIIS: error= 1.35D-07 at cycle   6 NSaved=   6.
 NSaved= 6 IEnMin= 6 EnMin= -350.539729709880     IErMin= 6 ErrMin= 1.35D-07
 ErrMax= 1.35D-07  0.00D+00 EMaxC= 1.00D-01 BMatC= 1.05D-11 BMatP= 1.98D-10
 IDIUse=1 WtCom= 1.00D+00 WtEn= 0.00D+00
 Coeff-Com:  0.106D-02-0.209D-01-0.461D-03 0.579D-01 0.247D+00 0.716D+00
 Coeff:      0.106D-02-0.209D-01-0.461D-03 0.579D-01 0.247D+00 0.716D+00
 Gap=     0.231 Goal=   None    Shift=    0.000
 RMSDP=1.71D-08 MaxDP=1.80D-06 DE=-1.48D-10 OVMax= 2.10D-06

 Cycle   7  Pass 1  IDiag  1:
 RMSU=  7.21D-09    CP:  1.00D+00  1.10D+00  8.47D-01  7.04D-01  6.27D-01
                    CP:  8.09D-01
 E= -350.539729709892     Delta-E=       -0.000000000011 Rises=F Damp=F
 DIIS: error= 3.39D-08 at cycle   7 NSaved=   7.
 NSaved= 7 IEnMin= 7 EnMin= -350.539729709892     IErMin= 7 ErrMin= 3.39D-08
 ErrMax= 3.39D-08  0.00D+00 EMaxC= 1.00D-01 BMatC= 5.98D-13 BMatP= 1.05D-11
 IDIUse=1 WtCom= 1.00D+00 WtEn= 0.00D+00
 Coeff-Com:  0.502D-03-0.892D-02-0.788D-02 0.647D-02 0.667D-01 0.284D+00
 Coeff-Com:  0.659D+00
 Coeff:      0.502D-03-0.892D-02-0.788D-02 0.647D-02 0.667D-01 0.284D+00
 Coeff:      0.659D+00
 Gap=     0.231 Goal=   None    Shift=    0.000
 RMSDP=3.15D-09 MaxDP=1.64D-07 DE=-1.14D-11 OVMax= 5.00D-07

 SCF Done:  E(RB3LYP) =  -350.539729710     A.U. after    7 cycles
            NFock=  7  Conv=0.32D-08     -V/T= 2.0054
 KE= 3.486729010034D+02 PE=-1.534916392735D+03 EE= 4.755540472380D+02
 Leave Link  502 at Wed Feb  7 19:39:58 2024, MaxMem=  6710886400 cpu:             413.7 elap:              25.9
 (Enter /tmpu/scunam/7/gaussian-2016.03/g1/g16/l508.exe)
 QCSCF skips out because SCF is already converged.
 Leave Link  508 at Wed Feb  7 19:39:58 2024, MaxMem=  6710886400 cpu:               0.0 elap:               0.0
 (Enter /tmpu/scunam/7/gaussian-2016.03/g1/g16/l701.exe)
 ... and contract with generalized density number  0.
 Compute integral first derivatives.
   1 Symmetry operations used in ECPInt.
 ECPInt:  NShTT=   10440 NPrTT=   30108 LenC2=    9710 LenP2D=   21946.
 LDataN:  DoStor=T MaxTD1= 7 Len=  274
 Leave Link  701 at Wed Feb  7 19:39:59 2024, MaxMem=  6710886400 cpu:               3.4 elap:               0.2
 (Enter /tmpu/scunam/7/gaussian-2016.03/g1/g16/l702.exe)
 L702 exits ... SP integral derivatives will be done elsewhere.
 Leave Link  702 at Wed Feb  7 19:39:59 2024, MaxMem=  6710886400 cpu:               0.3 elap:               0.0
 (Enter /tmpu/scunam/7/gaussian-2016.03/g1/g16/l703.exe)
 Integral derivatives from FoFJK, PRISM(SPDF).
 Compute integral first derivatives, UseDBF=F ICtDFT=           0.
 Calling FoFJK, ICntrl=      2127 FMM=F ISym2X=0 I1Cent= 0 IOpClX= 0 NMat=1 NMatS=1 NMatT=0.
 FoFJK:  IHMeth= 1 ICntrl=    2127 DoSepK=F KAlg= 0 I1Cent=           0 FoldK=F
 IRaf=         0 NMat=       1 IRICut=       1 DoRegI=T DoRafI=F ISym2E= 0 IDoP0=0 IntGTp=1.
 FoFCou: FMM=F IPFlag=           0 FMFlag=      100000 FMFlg1=         800
         NFxFlg=           0 DoJE=F BraDBF=F KetDBF=F FulRan=T
         wScrn=  0.000000 ICntrl=      2127 IOpCl=  0 I1Cent=           0 NGrid=           0
         NMat0=    1 NMatS0=      1 NMatT0=    0 NMatD0=    1 NMtDS0=    0 NMtDT0=    0
 Symmetry not used in FoFCou.
 Leave Link  703 at Wed Feb  7 19:40:10 2024, MaxMem=  6710886400 cpu:             176.5 elap:              11.1
 (Enter /tmpu/scunam/7/gaussian-2016.03/g1/g16/l716.exe)
 Dipole        = 4.55859784D-01 9.74278166D-01 5.54357834D-04
 ***** Axes restored to original set *****
 -------------------------------------------------------------------
 Center     Atomic                   Forces (Hartrees/Bohr)
 Number     Number              X              Y              Z
 -------------------------------------------------------------------
      1        8           0.000017608   -0.000008583    0.000011645
      2        6           0.000001396   -0.000003601   -0.000006051
      3        6           0.000002228    0.000008464    0.000003950
      4        6           0.000000203    0.000007598    0.000001138
      5        6          -0.000007300   -0.000005059    0.000000901
      6        6          -0.000004540   -0.000019676   -0.000032992
      7        6           0.000001617   -0.000001016   -0.000002331
      8        6          -0.000006177    0.000039748   -0.000002297
      9        1          -0.000000609   -0.000001786    0.000004882
     10        1          -0.000000066   -0.000002426   -0.000001721
     11        1           0.000000132   -0.000001740   -0.000001385
     12        1          -0.000000611   -0.000000602   -0.000003100
     13        1          -0.000000271   -0.000001720   -0.000000169
     14        1          -0.000001267   -0.000000640   -0.000002807
     15        1           0.000001993    0.000001550   -0.000000572
     16        1           0.000002476    0.000002256   -0.000002462
     17        1          -0.000004494    0.000000096    0.000008104
     18        1          -0.000000994   -0.000005125    0.000022151
     19        1           0.000001269    0.000000693    0.000000923
     20        1           0.000000334   -0.000001333    0.000002827
     21        1           0.000000010    0.000000076    0.000002423
     22        1          -0.000002938   -0.000007173   -0.000003057
 -------------------------------------------------------------------
 Cartesian Forces:  Max     0.000039748 RMS     0.000008449
 Leave Link  716 at Wed Feb  7 19:40:10 2024, MaxMem=  6710886400 cpu:               0.3 elap:               0.0
 (Enter /tmpu/scunam/7/gaussian-2016.03/g1/g16/l103.exe)

 GradGradGradGradGradGradGradGradGradGradGradGradGradGradGradGradGradGrad
 Berny optimization.
 Search for a local minimum.
 Step number  18 out of a maximum of  132
 All quantities printed in internal units (Hartrees-Bohrs-Radians)
 Update second derivatives using D2CorN and points    2    3    4    7    6
                                                          8    9   10   12   11

                                                         13   14   16   15   17

                                                         18
 DE= -8.86D-08 DEPred=-6.56D-08 R= 1.35D+00
 Trust test= 1.35D+00 RLast= 6.52D-03 DXMaxT set to 1.77D-01
 ITU=  0  0 -1  1  1  1  0  0  0  0  0 -1  0  0  1  1  1  0
     Eigenvalues ---    0.00034   0.00073   0.00140   0.00216   0.00244
     Eigenvalues ---    0.00430   0.00540   0.00921   0.01462   0.02065
     Eigenvalues ---    0.02412   0.03215   0.03415   0.03891   0.04583
     Eigenvalues ---    0.04724   0.05243   0.05277   0.05660   0.05781
     Eigenvalues ---    0.06132   0.06408   0.06888   0.07957   0.07995
     Eigenvalues ---    0.08539   0.09642   0.09952   0.11799   0.13062
     Eigenvalues ---    0.13075   0.13869   0.15034   0.15989   0.17832
     Eigenvalues ---    0.18053   0.20588   0.21430   0.24839   0.25424
     Eigenvalues ---    0.27370   0.39124   0.52202   0.58121   0.61994
     Eigenvalues ---    0.69082   0.69502   0.78293   0.87067   0.87834
     Eigenvalues ---    0.92880   0.92957   0.95638   0.98936   0.99654
     Eigenvalues ---    1.02377   1.04715   1.08379   1.12825   2.03953
 RFO step:  Lambda=-1.05724413D-07 EMin= 3.44564040D-04
 Quartic linear search produced a step of  0.23723.
 B after Tr=     0.000070    0.000014    0.000134
         Rot=    1.000000   -0.000024    0.000013    0.000001 Ang=  -0.00 deg.
 Variable       Old X    -DE/DX   Delta X   Delta X   Delta X     New X
                                 (Linear)    (Quad)   (Total)
    X1        6.71586   0.00002   0.00022   0.00135   0.00165   6.71751
    Y1        1.91400  -0.00001  -0.00031  -0.00016  -0.00047   1.91353
    Z1        0.10737   0.00001   0.00028   0.00141   0.00208   0.10946
    X2       -0.99022   0.00000   0.00002  -0.00006   0.00002  -0.99020
    Y2       -1.16184  -0.00000   0.00021   0.00016   0.00039  -1.16145
    Z2       -0.02325  -0.00001   0.00028   0.00151   0.00185  -0.02140
    X3       -3.26042   0.00000  -0.00002  -0.00011  -0.00006  -3.26048
    Y3        0.62395   0.00001   0.00016   0.00006   0.00024   0.62420
    Z3        0.02438   0.00000   0.00015   0.00073   0.00096   0.02534
    X4        1.55021   0.00000   0.00006  -0.00017  -0.00004   1.55017
    Y4        0.21282   0.00001   0.00015   0.00035   0.00051   0.21333
    Z4        0.03471   0.00000   0.00003   0.00087   0.00109   0.03580
    X5       -5.80825  -0.00001   0.00006   0.00000   0.00013  -5.80811
    Y5       -0.73728  -0.00001   0.00002  -0.00014  -0.00010  -0.73738
    Z5       -0.03383   0.00000  -0.00002  -0.00045  -0.00051  -0.03434
    X6        3.80077  -0.00000  -0.00004  -0.00031  -0.00028   3.80049
    Y6       -1.58198  -0.00002   0.00002   0.00030   0.00033  -1.58165
    Z6       -0.01408  -0.00003  -0.00011   0.00012   0.00017  -0.01391
    X7       -8.06506   0.00000  -0.00009  -0.00005  -0.00006  -8.06512
    Y7        1.06184  -0.00000  -0.00017  -0.00025  -0.00039   1.06145
    Z7        0.01226  -0.00000  -0.00015  -0.00106  -0.00122   0.01103
    X8        6.35482  -0.00001   0.00006   0.00005   0.00018   6.35500
    Y8       -0.33097   0.00004  -0.00022  -0.00004  -0.00025  -0.33123
    Z8        0.03719  -0.00000  -0.00017  -0.00212  -0.00201   0.03518
    X9       -1.10940  -0.00000   0.00007   0.00003   0.00013  -1.10927
    Y9       -2.45816  -0.00000   0.00038   0.00077   0.00109  -2.45707
    Z9        1.58856   0.00000   0.00042   0.00204   0.00245   1.59101
   X10       -1.09293  -0.00000  -0.00005   0.00001   0.00007  -1.09286
   Y10       -2.34873  -0.00000   0.00003  -0.00054  -0.00042  -2.34915
   Z10       -1.71836  -0.00000   0.00042   0.00197   0.00238  -1.71598
   X11       -3.14287   0.00000   0.00002   0.00049   0.00062  -3.14225
   Y11        1.92036  -0.00000   0.00015   0.00011   0.00036   1.92072
   Z11       -1.58668  -0.00000   0.00015   0.00079   0.00108  -1.58560
   X12       -3.15983  -0.00000  -0.00017  -0.00085  -0.00099  -3.16083
   Y12        1.81081  -0.00000   0.00018   0.00003   0.00015   1.81096
   Z12        1.71887  -0.00000   0.00015   0.00081   0.00110   1.71997
   X13        1.66912  -0.00000   0.00025   0.00030   0.00058   1.66970
   Y13        1.39919  -0.00000   0.00018   0.00043   0.00054   1.39973
   Z13        1.72215  -0.00000  -0.00000   0.00078   0.00103   1.72318
   X14        1.68505  -0.00000  -0.00002  -0.00077  -0.00068   1.68438
   Y14        1.50849  -0.00000   0.00010   0.00024   0.00043   1.50892
   Z14       -1.56903  -0.00000  -0.00001   0.00070   0.00094  -1.56809
   X15       -5.90766   0.00000   0.00027   0.00078   0.00116  -5.90650
   Y15       -1.92339   0.00000   0.00005   0.00013   0.00028  -1.92311
   Z15       -1.72719  -0.00000  -0.00005  -0.00071  -0.00087  -1.72805
   X16       -5.92576   0.00000   0.00005  -0.00053  -0.00046  -5.92622
   Y16       -2.03091   0.00000  -0.00003  -0.00043  -0.00050  -2.03141
   Z16        1.57768  -0.00000  -0.00006  -0.00068  -0.00085   1.57683
   X17        3.76552  -0.00000  -0.00019  -0.00188  -0.00196   3.76356
   Y17       -2.79846   0.00000   0.00001  -0.00092  -0.00082  -2.79928
   Z17       -1.69622   0.00001  -0.00009   0.00106   0.00106  -1.69516
   X18        3.75124  -0.00000  -0.00007   0.00090   0.00086   3.75210
   Y18       -2.90636  -0.00001   0.00005   0.00132   0.00130  -2.90506
   Z18        1.58390   0.00002  -0.00009   0.00120   0.00120   1.58510
   X19       -9.85196   0.00000   0.00000  -0.00003   0.00005  -9.85191
   Y19        0.03133   0.00000  -0.00030  -0.00032  -0.00059   0.03074
   Z19       -0.03077   0.00000  -0.00041  -0.00194  -0.00246  -0.03323
   X20       -8.03690   0.00000  -0.00001   0.00060   0.00071  -8.03619
   Y20        2.33592  -0.00000  -0.00007   0.00002   0.00005   2.33597
   Z20       -1.61295   0.00000  -0.00006  -0.00088  -0.00090  -1.61385
   X21       -8.05491   0.00000  -0.00036  -0.00074  -0.00107  -8.05598
   Y21        2.22817   0.00000  -0.00028  -0.00050  -0.00083   2.22734
   Z21        1.71663   0.00000  -0.00008  -0.00083  -0.00088   1.71575
   X22        7.98033  -0.00000  -0.00007  -0.00057  -0.00058   7.97975
   Y22       -1.66264  -0.00001  -0.00031  -0.00099  -0.00130  -1.66393
   Z22        0.00448  -0.00000  -0.00059  -0.00734  -0.00767  -0.00319
         Item               Value     Threshold  Converged?
 Maximum Force            0.000040     0.000450     YES
 RMS     Force            0.000008     0.000300     YES
 Maximum Displacement     0.007671     0.001800     NO 
 RMS     Displacement     0.001370     0.001200     NO 
 Predicted change in Energy=-5.006157D-08
 Lowest energy point so far.  Saving SCF results.
 GradGradGradGradGradGradGradGradGradGradGradGradGradGradGradGradGradGrad

 Leave Link  103 at Wed Feb  7 19:40:10 2024, MaxMem=  6710886400 cpu:               0.3 elap:               0.0
 (Enter /tmpu/scunam/7/gaussian-2016.03/g1/g16/l202.exe)
                          Input orientation:                          
 ---------------------------------------------------------------------
 Center     Atomic      Atomic             Coordinates (Angstroms)
 Number     Number       Type             X           Y           Z
 ---------------------------------------------------------------------
      1          8           0        3.554753    1.012596    0.057922
      2          6           0       -0.523989   -0.614613   -0.011326
      3          6           0       -1.725373    0.330310    0.013409
      4          6           0        0.820317    0.112888    0.018945
      5          6           0       -3.073522   -0.390203   -0.018173
      6          6           0        2.011135   -0.836975   -0.007360
      7          6           0       -4.267878    0.561696    0.005838
      8          6           0        3.362924   -0.175279    0.018619
      9          1           0       -0.587000   -1.300224    0.841925
     10          1           0       -0.578316   -1.243114   -0.908056
     11          1           0       -1.662809    1.016402   -0.839064
     12          1           0       -1.672638    0.958317    0.910169
     13          1           0        0.883569    0.740708    0.911867
     14          1           0        0.891333    0.798485   -0.829798
     15          1           0       -3.125584   -1.017668   -0.914446
     16          1           0       -3.136020   -1.074974    0.834423
     17          1           0        1.991588   -1.481315   -0.897040
     18          1           0        1.985526   -1.537291    0.838798
     19          1           0       -5.213408    0.016266   -0.017585
     20          1           0       -4.252570    1.236144   -0.854015
     21          1           0       -4.263039    1.178659    0.907935
     22          1           0        4.222701   -0.880515   -0.001686
 ---------------------------------------------------------------------
                    Distance matrix (angstroms):
                    1          2          3          4          5
     1  O    0.000000
     2  C    4.391895   0.000000
     3  C    5.324211   1.528664   0.000000
     4  C    2.878912   1.528834   2.554963   0.000000
     5  C    6.775519   2.559399   1.528935   3.926380   0.000000
     6  C    2.409965   2.544861   3.914649   1.523477   5.104259
     7  C    7.835788   3.924372   2.553024   5.107967   1.527473
     8  C    1.203905   3.911778   5.113356   2.558884   6.440138
     9  H    4.808109   1.096390   2.154292   2.157481   2.784007
    10  H    4.806621   1.096399   2.154182   2.157371   2.783056
    11  H    5.294105   2.154593   1.096059   2.778206   2.154649
    12  H    5.296686   2.154682   1.096062   2.779182   2.154716
    13  H    2.817511   2.161111   2.789665   1.093375   4.219302
    14  H    2.815616   2.160991   2.788788   1.093367   4.218032
    15  H    7.049423   2.783231   2.153730   4.209455   1.095321
    16  H    7.051762   2.783869   2.153790   4.210537   1.095324
    17  H    3.094354   2.804245   4.233993   2.179997   5.255309
    18  H    3.094214   2.805658   4.235560   2.180129   5.257773
    19  H    8.824909   4.731669   3.502281   6.034609   2.178148
    20  H    7.863581   4.247086   2.821292   5.268581   2.175728
    21  H    7.865620   4.247512   2.821281   5.269410   2.175765
    22  H    2.008377   4.754142   6.070083   3.544502   7.312698
                    6          7          8          9         10
     6  C    0.000000
     7  C    6.432920   0.000000
     8  C    1.505274   7.666318   0.000000
     9  H    2.772398   4.208877   4.188703   0.000000
    10  H    2.771545   4.207779   4.187167   1.750934   0.000000
    11  H    4.198167   2.776148   5.235810   3.057752   2.507250
    12  H    4.199419   2.776760   5.238013   2.506845   3.057741
    13  H    2.146035   5.233579   2.790004   2.516519   3.063459
    14  H    2.145948   5.231808   2.788689   3.063447   2.516768
    15  H    5.219323   2.155493   6.609157   3.099853   2.557233
    16  H    5.220962   2.155537   6.611449   2.558964   3.099412
    17  H    1.098674   6.646051   2.103502   3.115431   2.580944
    18  H    1.098672   6.648656   2.103567   2.583428   3.116300
    19  H    7.274761   1.091819   8.578546   4.886262   4.884982
    20  H    6.651966   1.092914   7.794187   4.769254   4.432808
    21  H    6.653256   1.092907   7.796111   4.434240   4.768647
    22  H    2.212002   8.612198   1.112200   4.901128   4.899260
                   11         12         13         14         15
    11  H    0.000000
    12  H    1.750224   0.000000
    13  H    3.102549   2.565454   0.000000
    14  H    2.563438   3.102738   1.742641   0.000000
    15  H    2.506558   3.056925   4.743481   4.409218   0.000000
    16  H    3.056920   2.506291   4.411326   4.743317   1.749839
    17  H    4.426802   4.758609   3.072008   2.532306   5.138163
    18  H    4.758878   4.428918   2.531585   3.072022   5.428381
    19  H    3.779133   3.779581   6.209817   6.208012   2.496475
    20  H    2.599110   3.137767   5.453781   5.162545   2.520599
    21  H    3.136802   2.599757   5.165210   5.452688   3.072252
    22  H    6.240090   6.242420   3.822662   3.821364   7.406026
                   16         17         18         19         20
    16  H    0.000000
    17  H    5.427287   0.000000
    18  H    5.142372   1.736751   0.000000
    19  H    2.496450   7.411353   7.414282   0.000000
    20  H    3.072258   6.809989   7.033591   1.763781   0.000000
    21  H    2.520801   7.032337   6.813643   1.763786   1.762918
    22  H    7.408621   2.477999   2.478451   9.478640   8.777068
                   21         22
    21  H    0.000000
    22  H    8.779259   0.000000
 Stoichiometry    C7H14O
 Framework group  C1[X(C7H14O)]
 Deg. of freedom    60
 Full point group                 C1      NOp   1
 RotChk:  IX=0 Diff= 4.15D-04
 Largest Abelian subgroup         C1      NOp   1
 Largest concise Abelian subgroup C1      NOp   1
                         Standard orientation:                         
 ---------------------------------------------------------------------
 Center     Atomic      Atomic             Coordinates (Angstroms)
 Number     Number       Type             X           Y           Z
 ---------------------------------------------------------------------
      1          8           0       -3.640000   -1.076921   -0.000587
      2          6           0        0.413997    0.612413    0.000989
      3          6           0        1.629378   -0.314766    0.001545
      4          6           0       -0.919302   -0.135683    0.001870
      5          6           0        2.966630    0.426445   -0.000848
      6          6           0       -2.124186    0.796642   -0.000048
      7          6           0        4.175093   -0.507789   -0.001271
      8          6           0       -3.465941    0.114335   -0.001412
      9          1           0        0.463016    1.271517    0.875776
     10          1           0        0.462668    1.269746   -0.875158
     11          1           0        1.580809   -0.974369   -0.872475
     12          1           0        1.582291   -0.971582    0.877746
     13          1           0       -0.976891   -0.792347    0.874192
     14          1           0       -0.976345   -0.795035   -0.868447
     15          1           0        3.013050    1.082693   -0.876583
     16          1           0        3.015152    1.084721    0.873253
     17          1           0       -2.110560    1.469061   -0.868813
     18          1           0       -2.112756    1.470107    0.867936
     19          1           0        5.112380    0.052173   -0.002954
     20          1           0        4.173630   -1.154815   -0.882075
     21          1           0        4.175707   -1.153021    0.880841
     22          1           0       -4.336162    0.806938   -0.003495
 ---------------------------------------------------------------------
 Rotational constants (GHZ):           8.0213218           0.5664726           0.5395548
 Leave Link  202 at Wed Feb  7 19:40:10 2024, MaxMem=  6710886400 cpu:               0.1 elap:               0.0
 (Enter /tmpu/scunam/7/gaussian-2016.03/g1/g16/l301.exe)
 Standard basis: def2TZVP (5D, 7F)
 Ernie: Thresh=  0.10000D-02 Tol=  0.10000D-05 Strict=F.
 There are   372 symmetry adapted cartesian basis functions of A   symmetry.
 There are   332 symmetry adapted basis functions of A   symmetry.
   332 basis functions,   520 primitive gaussians,   372 cartesian basis functions
    32 alpha electrons       32 beta electrons
       nuclear repulsion energy       360.1412429489 Hartrees.
 IExCor=  402 DFT=T Ex+Corr=B3LYP ExCW=0 ScaHFX=  0.200000
 ScaDFX=  0.800000  0.720000  1.000000  0.810000 ScalE2=  1.000000  1.000000
 IRadAn=      5 IRanWt=     -1 IRanGd=            0 ICorTp=0 IEmpDi=  4
 NAtoms=   22 NActive=   22 NUniq=   22 SFac= 1.00D+00 NAtFMM=   60 NAOKFM=F Big=F
 Integral buffers will be    131072 words long.
 Raffenetti 2 integral format.
 Two-electron integral symmetry is turned on.
 Leave Link  301 at Wed Feb  7 19:40:10 2024, MaxMem=  6710886400 cpu:               0.7 elap:               0.1
 (Enter /tmpu/scunam/7/gaussian-2016.03/g1/g16/l302.exe)
 NPDir=0 NMtPBC=     1 NCelOv=     1 NCel=       1 NClECP=     1 NCelD=      1
         NCelK=      1 NCelE2=     1 NClLst=     1 CellRange=     0.0.
 One-electron integrals computed using PRISM.
 One-electron integral symmetry used in STVInt
   1 Symmetry operations used in ECPInt.
 ECPInt:  NShTT=   10440 NPrTT=   30108 LenC2=    9710 LenP2D=   21945.
 LDataN:  DoStor=T MaxTD1= 6 Len=  172
 NBasis=   332 RedAO= T EigKep=  8.35D-05  NBF=   332
 NBsUse=   332 1.00D-06 EigRej= -1.00D+00 NBFU=   332
 Precomputing XC quadrature grid using
 IXCGrd= 4 IRadAn=           5 IRanWt=          -1 IRanGd=           0 AccXCQ= 0.00D+00.
 Generated NRdTot=       0 NPtTot=           0 NUsed=           0 NTot=          32
 NSgBfM=   367   367   367   367   367 MxSgAt=    22 MxSgA2=    22.
 Leave Link  302 at Wed Feb  7 19:40:10 2024, MaxMem=  6710886400 cpu:               5.1 elap:               0.3
 (Enter /tmpu/scunam/7/gaussian-2016.03/g1/g16/l303.exe)
 DipDrv:  MaxL=1.
 Leave Link  303 at Wed Feb  7 19:40:10 2024, MaxMem=  6710886400 cpu:               0.7 elap:               0.1
 (Enter /tmpu/scunam/7/gaussian-2016.03/g1/g16/l401.exe)
 Initial guess from the checkpoint file:  "Heptanal.chk"
 B after Tr=     0.000000   -0.000000   -0.000000
         Rot=    1.000000   -0.000079    0.000000    0.000016 Ang=  -0.01 deg.
 Guess basis will be translated and rotated to current coordinates.
 JPrj=2 DoOrth=T DoCkMO=T.
 Leave Link  401 at Wed Feb  7 19:40:11 2024, MaxMem=  6710886400 cpu:               2.9 elap:               0.2
 (Enter /tmpu/scunam/7/gaussian-2016.03/g1/g16/l502.exe)
 Integral symmetry usage will be decided dynamically.
 Closed shell SCF:
 Using DIIS extrapolation, IDIIS=  1040.
 NGot=  6710886400 LenX=  6710600118 LenY=  6710461293
 Requested convergence on RMS density matrix=1.00D-08 within 128 cycles.
 Requested convergence on MAX density matrix=1.00D-06.
 Requested convergence on             energy=1.00D-06.
 No special actions if energy rises.
 Fock matrices will be formed incrementally for  20 cycles.

 Cycle   1  Pass 1  IDiag  1:
 FoFJK:  IHMeth= 1 ICntrl=       0 DoSepK=F KAlg= 0 I1Cent=           0 FoldK=F
 IRaf= 890000000 NMat=       1 IRICut=       1 DoRegI=T DoRafI=F ISym2E= 0 IDoP0=0 IntGTp=1.
 FoFCou: FMM=F IPFlag=           0 FMFlag=      100000 FMFlg1=           0
         NFxFlg=           0 DoJE=F BraDBF=F KetDBF=F FulRan=T
         wScrn=  0.000000 ICntrl=         0 IOpCl=  0 I1Cent=           0 NGrid=           0
         NMat0=    1 NMatS0=      1 NMatT0=    0 NMatD0=    1 NMtDS0=    0 NMtDT0=    0
 Symmetry not used in FoFCou.
 E= -350.539725862483    
 DIIS: error= 8.07D-05 at cycle   1 NSaved=   1.
 NSaved= 1 IEnMin= 1 EnMin= -350.539725862483     IErMin= 1 ErrMin= 8.07D-05
 ErrMax= 8.07D-05  0.00D+00 EMaxC= 1.00D-01 BMatC= 2.45D-06 BMatP= 2.45D-06
 IDIUse=1 WtCom= 1.00D+00 WtEn= 0.00D+00
 Coeff-Com:  0.100D+01
 Coeff:      0.100D+01
 Gap=     0.648 Goal=   None    Shift=    0.000
 RMSDP=5.97D-06 MaxDP=3.14D-04              OVMax= 8.01D-04

 Cycle   2  Pass 1  IDiag  1:
 RMSU=  5.96D-06    CP:  1.00D+00
 E= -350.539729602109     Delta-E=       -0.000003739626 Rises=F Damp=F
 DIIS: error= 1.46D-05 at cycle   2 NSaved=   2.
 NSaved= 2 IEnMin= 2 EnMin= -350.539729602109     IErMin= 2 ErrMin= 1.46D-05
 ErrMax= 1.46D-05  0.00D+00 EMaxC= 1.00D-01 BMatC= 4.09D-08 BMatP= 2.45D-06
 IDIUse=1 WtCom= 1.00D+00 WtEn= 0.00D+00
 Coeff-Com: -0.674D-01 0.107D+01
 Coeff:     -0.674D-01 0.107D+01
 Gap=     0.231 Goal=   None    Shift=    0.000
 RMSDP=1.13D-06 MaxDP=5.36D-05 DE=-3.74D-06 OVMax= 2.14D-04

 Cycle   3  Pass 1  IDiag  1:
 RMSU=  9.42D-07    CP:  1.00D+00  1.11D+00
 E= -350.539729678374     Delta-E=       -0.000000076265 Rises=F Damp=F
 DIIS: error= 3.16D-06 at cycle   3 NSaved=   3.
 NSaved= 3 IEnMin= 3 EnMin= -350.539729678374     IErMin= 3 ErrMin= 3.16D-06
 ErrMax= 3.16D-06  0.00D+00 EMaxC= 1.00D-01 BMatC= 4.96D-09 BMatP= 4.09D-08
 IDIUse=1 WtCom= 1.00D+00 WtEn= 0.00D+00
 Coeff-Com: -0.192D-01 0.249D+00 0.770D+00
 Coeff:     -0.192D-01 0.249D+00 0.770D+00
 Gap=     0.231 Goal=   None    Shift=    0.000
 RMSDP=3.34D-07 MaxDP=2.84D-05 DE=-7.63D-08 OVMax= 3.86D-05

 Cycle   4  Pass 1  IDiag  1:
 RMSU=  2.84D-07    CP:  1.00D+00  1.13D+00  8.94D-01
 E= -350.539729682837     Delta-E=       -0.000000004463 Rises=F Damp=F
 DIIS: error= 2.12D-06 at cycle   4 NSaved=   4.
 NSaved= 4 IEnMin= 4 EnMin= -350.539729682837     IErMin= 4 ErrMin= 2.12D-06
 ErrMax= 2.12D-06  0.00D+00 EMaxC= 1.00D-01 BMatC= 1.53D-09 BMatP= 4.96D-09
 IDIUse=1 WtCom= 1.00D+00 WtEn= 0.00D+00
 Coeff-Com: -0.328D-02 0.283D-01 0.348D+00 0.627D+00
 Coeff:     -0.328D-02 0.283D-01 0.348D+00 0.627D+00
 Gap=     0.231 Goal=   None    Shift=    0.000
 RMSDP=1.19D-07 MaxDP=4.90D-06 DE=-4.46D-09 OVMax= 1.77D-05

 Cycle   5  Pass 1  IDiag  1:
 RMSU=  9.88D-08    CP:  1.00D+00  1.14D+00  9.53D-01  9.56D-01
 E= -350.539729684116     Delta-E=       -0.000000001278 Rises=F Damp=F
 DIIS: error= 1.25D-06 at cycle   5 NSaved=   5.
 NSaved= 5 IEnMin= 5 EnMin= -350.539729684116     IErMin= 5 ErrMin= 1.25D-06
 ErrMax= 1.25D-06  0.00D+00 EMaxC= 1.00D-01 BMatC= 5.20D-10 BMatP= 1.53D-09
 IDIUse=1 WtCom= 1.00D+00 WtEn= 0.00D+00
 Coeff-Com:  0.117D-02-0.284D-01 0.964D-01 0.400D+00 0.530D+00
 Coeff:      0.117D-02-0.284D-01 0.964D-01 0.400D+00 0.530D+00
 Gap=     0.231 Goal=   None    Shift=    0.000
 RMSDP=1.13D-07 MaxDP=1.54D-05 DE=-1.28D-09 OVMax= 9.77D-06

 Cycle   6  Pass 1  IDiag  1:
 RMSU=  7.07D-08    CP:  1.00D+00  1.14D+00  1.02D+00  8.63D-01  4.40D-01
 E= -350.539729684479     Delta-E=       -0.000000000363 Rises=F Damp=F
 DIIS: error= 5.62D-07 at cycle   6 NSaved=   6.
 NSaved= 6 IEnMin= 6 EnMin= -350.539729684479     IErMin= 6 ErrMin= 5.62D-07
 ErrMax= 5.62D-07  0.00D+00 EMaxC= 1.00D-01 BMatC= 1.02D-10 BMatP= 5.20D-10
 IDIUse=1 WtCom= 1.00D+00 WtEn= 0.00D+00
 Coeff-Com:  0.142D-02-0.262D-01-0.530D-02 0.153D+00 0.357D+00 0.520D+00
 Coeff:      0.142D-02-0.262D-01-0.530D-02 0.153D+00 0.357D+00 0.520D+00
 Gap=     0.231 Goal=   None    Shift=    0.000
 RMSDP=5.17D-08 MaxDP=7.28D-06 DE=-3.63D-10 OVMax= 4.43D-06

 Cycle   7  Pass 1  IDiag  1:
 RMSU=  1.56D-08    CP:  1.00D+00  1.14D+00  1.01D+00  9.68D-01  6.45D-01
                    CP:  5.69D-01
 E= -350.539729684564     Delta-E=       -0.000000000085 Rises=F Damp=F
 DIIS: error= 5.16D-08 at cycle   7 NSaved=   7.
 NSaved= 7 IEnMin= 7 EnMin= -350.539729684564     IErMin= 7 ErrMin= 5.16D-08
 ErrMax= 5.16D-08  0.00D+00 EMaxC= 1.00D-01 BMatC= 1.84D-12 BMatP= 1.02D-10
 IDIUse=1 WtCom= 1.00D+00 WtEn= 0.00D+00
 Coeff-Com:  0.333D-03-0.508D-02-0.116D-01 0.861D-02 0.576D-01 0.153D+00
 Coeff-Com:  0.798D+00
 Coeff:      0.333D-03-0.508D-02-0.116D-01 0.861D-02 0.576D-01 0.153D+00
 Coeff:      0.798D+00
 Gap=     0.231 Goal=   None    Shift=    0.000
 RMSDP=6.76D-09 MaxDP=2.87D-07 DE=-8.52D-11 OVMax= 1.38D-06

 SCF Done:  E(RB3LYP) =  -350.539729685     A.U. after    7 cycles
            NFock=  7  Conv=0.68D-08     -V/T= 2.0054
 KE= 3.486721940668D+02 PE=-1.534898561451D+03 EE= 4.755453947508D+02
 Leave Link  502 at Wed Feb  7 19:40:37 2024, MaxMem=  6710886400 cpu:             415.4 elap:              26.0
 (Enter /tmpu/scunam/7/gaussian-2016.03/g1/g16/l508.exe)
 QCSCF skips out because SCF is already converged.
 Leave Link  508 at Wed Feb  7 19:40:37 2024, MaxMem=  6710886400 cpu:               0.0 elap:               0.0
 (Enter /tmpu/scunam/7/gaussian-2016.03/g1/g16/l701.exe)
 ... and contract with generalized density number  0.
 Compute integral first derivatives.
   1 Symmetry operations used in ECPInt.
 ECPInt:  NShTT=   10440 NPrTT=   30108 LenC2=    9710 LenP2D=   21945.
 LDataN:  DoStor=T MaxTD1= 7 Len=  274
 Leave Link  701 at Wed Feb  7 19:40:37 2024, MaxMem=  6710886400 cpu:               3.4 elap:               0.2
 (Enter /tmpu/scunam/7/gaussian-2016.03/g1/g16/l702.exe)
 L702 exits ... SP integral derivatives will be done elsewhere.
 Leave Link  702 at Wed Feb  7 19:40:37 2024, MaxMem=  6710886400 cpu:               0.3 elap:               0.0
 (Enter /tmpu/scunam/7/gaussian-2016.03/g1/g16/l703.exe)
 Integral derivatives from FoFJK, PRISM(SPDF).
 Compute integral first derivatives, UseDBF=F ICtDFT=           0.
 Calling FoFJK, ICntrl=      2127 FMM=F ISym2X=0 I1Cent= 0 IOpClX= 0 NMat=1 NMatS=1 NMatT=0.
 FoFJK:  IHMeth= 1 ICntrl=    2127 DoSepK=F KAlg= 0 I1Cent=           0 FoldK=F
 IRaf=         0 NMat=       1 IRICut=       1 DoRegI=T DoRafI=F ISym2E= 0 IDoP0=0 IntGTp=1.
 FoFCou: FMM=F IPFlag=           0 FMFlag=      100000 FMFlg1=         800
         NFxFlg=           0 DoJE=F BraDBF=F KetDBF=F FulRan=T
         wScrn=  0.000000 ICntrl=      2127 IOpCl=  0 I1Cent=           0 NGrid=           0
         NMat0=    1 NMatS0=      1 NMatT0=    0 NMatD0=    1 NMtDS0=    0 NMtDT0=    0
 Symmetry not used in FoFCou.
 Leave Link  703 at Wed Feb  7 19:40:48 2024, MaxMem=  6710886400 cpu:             176.5 elap:              11.1
 (Enter /tmpu/scunam/7/gaussian-2016.03/g1/g16/l716.exe)
 Dipole        = 4.56735936D-01 9.74275107D-01-2.73452610D-04
 ***** Axes restored to original set *****
 -------------------------------------------------------------------
 Center     Atomic                   Forces (Hartrees/Bohr)
 Number     Number              X              Y              Z
 -------------------------------------------------------------------
      1        8          -0.000048459   -0.000158609   -0.000002389
      2        6           0.000000626   -0.000004718   -0.000003317
      3        6          -0.000006915    0.000006347    0.000001786
      4        6          -0.000003753    0.000008953    0.000004668
      5        6           0.000002624   -0.000005935    0.000003824
      6        6           0.000019906    0.000007255   -0.000005205
      7        6          -0.000011716    0.000007689   -0.000001695
      8        6           0.000055834    0.000073511   -0.000003334
      9        1          -0.000000685    0.000001511   -0.000001044
     10        1           0.000000970    0.000003932    0.000002169
     11        1          -0.000002001   -0.000005672    0.000003101
     12        1          -0.000001717   -0.000005324   -0.000007866
     13        1          -0.000001822   -0.000002507   -0.000005077
     14        1           0.000003102   -0.000002288   -0.000000148
     15        1           0.000000545    0.000004454    0.000006133
     16        1           0.000002058    0.000006528   -0.000007281
     17        1           0.000007896    0.000012197    0.000008354
     18        1           0.000002356    0.000014152   -0.000008052
     19        1           0.000008929    0.000007834    0.000001488
     20        1          -0.000002826   -0.000006825    0.000011799
     21        1          -0.000002166   -0.000005646   -0.000007459
     22        1          -0.000022784    0.000043160    0.000009543
 -------------------------------------------------------------------
 Cartesian Forces:  Max     0.000158609 RMS     0.000024876
 Leave Link  716 at Wed Feb  7 19:40:48 2024, MaxMem=  6710886400 cpu:               0.3 elap:               0.0
 (Enter /tmpu/scunam/7/gaussian-2016.03/g1/g16/l103.exe)

 GradGradGradGradGradGradGradGradGradGradGradGradGradGradGradGradGradGrad
 Berny optimization.
 Search for a local minimum.
 Step number  19 out of a maximum of  132
 All quantities printed in internal units (Hartrees-Bohrs-Radians)
 Update second derivatives using D2CorN and points    2    3    4    7    6
                                                          8    9   10   12   11

                                                         13   14   16   15   17

                                                         19   18
 DE=  2.53D-08 DEPred=-5.01D-08 R=-5.06D-01
 Trust test=-5.06D-01 RLast= 1.11D-02 DXMaxT set to 8.83D-02
 ITU= -1  0  0 -1  1  1  1  0  0  0  0  0 -1  0  0  1  1  1  0
     Eigenvalues ---    0.00064   0.00093   0.00139   0.00228   0.00270
     Eigenvalues ---    0.00434   0.00539   0.00925   0.01463   0.02069
     Eigenvalues ---    0.02413   0.03213   0.03403   0.03877   0.04572
     Eigenvalues ---    0.04725   0.05243   0.05275   0.05663   0.05781
     Eigenvalues ---    0.06131   0.06406   0.06892   0.07958   0.07994
     Eigenvalues ---    0.08539   0.09656   0.09952   0.11798   0.13062
     Eigenvalues ---    0.13075   0.13869   0.15034   0.15990   0.17832
     Eigenvalues ---    0.18051   0.20588   0.21430   0.24845   0.25531
     Eigenvalues ---    0.27375   0.39120   0.52204   0.58122   0.61994
     Eigenvalues ---    0.69092   0.69502   0.78295   0.87065   0.87831
     Eigenvalues ---    0.92876   0.92958   0.95637   0.98933   0.99652
     Eigenvalues ---    1.02375   1.04714   1.08379   1.12822   2.03474
 RFO step:  Lambda=-1.98630831D-08 EMin= 6.36005868D-04
 Quartic linear search produced a step of -0.59519.
 B after Tr=     0.000019   -0.000018    0.000086
         Rot=    1.000000   -0.000028    0.000011    0.000004 Ang=  -0.00 deg.
 Variable       Old X    -DE/DX   Delta X   Delta X   Delta X     New X
                                 (Linear)    (Quad)   (Total)
    X1        6.71751  -0.00005  -0.00098   0.00024  -0.00071   6.71680
    Y1        1.91353  -0.00016   0.00028  -0.00034  -0.00014   1.91339
    Z1        0.10946  -0.00000  -0.00124   0.00102   0.00012   0.10958
    X2       -0.99020   0.00000  -0.00001   0.00002   0.00002  -0.99018
    Y2       -1.16145  -0.00000  -0.00023   0.00030   0.00006  -1.16139
    Z2       -0.02140  -0.00000  -0.00110  -0.00024  -0.00134  -0.02275
    X3       -3.26048  -0.00001   0.00004  -0.00005   0.00001  -3.26047
    Y3        0.62420   0.00001  -0.00014   0.00024   0.00010   0.62429
    Z3        0.02534   0.00000  -0.00057  -0.00044  -0.00097   0.02437
    X4        1.55017  -0.00000   0.00002   0.00007   0.00011   1.55029
    Y4        0.21333   0.00001  -0.00030   0.00023  -0.00011   0.21322
    Z4        0.03580   0.00000  -0.00065  -0.00045  -0.00097   0.03483
    X5       -5.80811   0.00000  -0.00008   0.00006  -0.00001  -5.80812
    Y5       -0.73738  -0.00001   0.00006   0.00001   0.00009  -0.73728
    Z5       -0.03434   0.00000   0.00031   0.00014   0.00036  -0.03398
    X6        3.80049   0.00002   0.00017  -0.00005   0.00013   3.80062
    Y6       -1.58165   0.00001  -0.00019   0.00004  -0.00020  -1.58186
    Z6       -0.01391  -0.00001  -0.00010  -0.00023  -0.00025  -0.01415
    X7       -8.06512  -0.00001   0.00004  -0.00016  -0.00009  -8.06521
    Y7        1.06145   0.00001   0.00023  -0.00027   0.00001   1.06146
    Z7        0.01103  -0.00000   0.00073   0.00035   0.00104   0.01207
    X8        6.35500   0.00006  -0.00011   0.00007  -0.00003   6.35498
    Y8       -0.33123   0.00007   0.00015  -0.00024  -0.00015  -0.33138
    Z8        0.03518  -0.00000   0.00120   0.00027   0.00168   0.03687
    X9       -1.10927  -0.00000  -0.00008   0.00005  -0.00006  -1.10933
    Y9       -2.45707   0.00000  -0.00065   0.00055  -0.00021  -2.45727
    Z9        1.59101  -0.00000  -0.00146  -0.00004  -0.00157   1.58944
   X10       -1.09286   0.00000  -0.00004  -0.00001  -0.00001  -1.09287
   Y10       -2.34915   0.00000   0.00025   0.00003   0.00037  -2.34878
   Z10       -1.71598   0.00000  -0.00142  -0.00006  -0.00154  -1.71752
   X11       -3.14225  -0.00000  -0.00037  -0.00030  -0.00060  -3.14286
   Y11        1.92072  -0.00001  -0.00022  -0.00015  -0.00027   1.92045
   Z11       -1.58560   0.00000  -0.00064  -0.00076  -0.00128  -1.58688
   X12       -3.16083  -0.00000   0.00059   0.00004   0.00062  -3.16020
   Y12        1.81096  -0.00001  -0.00009   0.00063   0.00045   1.81141
   Z12        1.71997  -0.00001  -0.00065  -0.00073  -0.00127   1.71870
   X13        1.66970  -0.00000  -0.00035   0.00014  -0.00022   1.66949
   Y13        1.39973  -0.00000  -0.00032   0.00042  -0.00003   1.39971
   Z13        1.72318  -0.00001  -0.00061  -0.00060  -0.00101   1.72217
   X14        1.68438   0.00000   0.00040   0.00013   0.00060   1.68498
   Y14        1.50892  -0.00000  -0.00025   0.00001  -0.00018   1.50874
   Z14       -1.56809  -0.00000  -0.00056  -0.00063  -0.00097  -1.56907
   X15       -5.90650   0.00000  -0.00069  -0.00008  -0.00073  -5.90722
   Y15       -1.92311   0.00000  -0.00017  -0.00019  -0.00023  -1.92334
   Z15       -1.72805   0.00001   0.00051   0.00029   0.00065  -1.72740
   X16       -5.92622   0.00000   0.00027   0.00050   0.00074  -5.92548
   Y16       -2.03141   0.00001   0.00030   0.00017   0.00041  -2.03100
   Z16        1.57683  -0.00001   0.00051   0.00029   0.00064   1.57747
   X17        3.76356   0.00001   0.00117   0.00008   0.00128   3.76484
   Y17       -2.79928   0.00001   0.00049   0.00009   0.00062  -2.79866
   Z17       -1.69516   0.00001  -0.00063  -0.00024  -0.00086  -1.69602
   X18        3.75210   0.00000  -0.00051  -0.00039  -0.00094   3.75116
   Y18       -2.90506   0.00001  -0.00077   0.00006  -0.00085  -2.90591
   Z18        1.58510  -0.00001  -0.00072  -0.00022  -0.00093   1.58417
   X19       -9.85191   0.00001  -0.00003  -0.00002  -0.00003  -9.85194
   Y19        0.03074   0.00001   0.00035  -0.00049  -0.00009   0.03065
   Z19       -0.03323   0.00000   0.00146   0.00068   0.00201  -0.03122
   X20       -8.03619  -0.00000  -0.00042  -0.00057  -0.00092  -8.03712
   Y20        2.33597  -0.00001  -0.00003  -0.00037  -0.00027   2.33570
   Z20       -1.61385   0.00001   0.00054   0.00028   0.00085  -1.61300
   X21       -8.05598  -0.00000   0.00064  -0.00007   0.00056  -8.05542
   Y21        2.22734  -0.00001   0.00049  -0.00017   0.00027   2.22761
   Z21        1.71575  -0.00001   0.00052   0.00027   0.00082   1.71657
   X22        7.97975  -0.00002   0.00034  -0.00008   0.00027   7.98002
   Y22       -1.66393   0.00004   0.00077  -0.00035   0.00034  -1.66359
   Z22       -0.00319   0.00001   0.00457   0.00005   0.00478   0.00160
         Item               Value     Threshold  Converged?
 Maximum Force            0.000159     0.000450     YES
 RMS     Force            0.000025     0.000300     YES
 Maximum Displacement     0.004785     0.001800     NO 
 RMS     Displacement     0.000933     0.001200     YES
 Predicted change in Energy=-6.122435D-08
 GradGradGradGradGradGradGradGradGradGradGradGradGradGradGradGradGradGrad

 Leave Link  103 at Wed Feb  7 19:40:48 2024, MaxMem=  6710886400 cpu:               0.3 elap:               0.0
 (Enter /tmpu/scunam/7/gaussian-2016.03/g1/g16/l202.exe)
                          Input orientation:                          
 ---------------------------------------------------------------------
 Center     Atomic      Atomic             Coordinates (Angstroms)
 Number     Number       Type             X           Y           Z
 ---------------------------------------------------------------------
      1          8           0        3.554376    1.012524    0.057987
      2          6           0       -0.523980   -0.614584   -0.012038
      3          6           0       -1.725366    0.330362    0.012898
      4          6           0        0.820377    0.112833    0.018431
      5          6           0       -3.073525   -0.390154   -0.017983
      6          6           0        2.011203   -0.837082   -0.007490
      7          6           0       -4.267927    0.561699    0.006389
      8          6           0        3.362910   -0.175360    0.019509
      9          1           0       -0.587032   -1.300333    0.841093
     10          1           0       -0.578322   -1.242918   -0.908873
     11          1           0       -1.663128    1.016260   -0.839742
     12          1           0       -1.672308    0.958554    0.909497
     13          1           0        0.883453    0.740692    0.911335
     14          1           0        0.891652    0.798388   -0.830314
     15          1           0       -3.125969   -1.017789   -0.914101
     16          1           0       -3.135628   -1.074757    0.834760
     17          1           0        1.992267   -1.480985   -0.897494
     18          1           0        1.985028   -1.537740    0.838306
     19          1           0       -5.213423    0.016221   -0.016521
     20          1           0       -4.253060    1.236000   -0.853563
     21          1           0       -4.262742    1.178801    0.908370
     22          1           0        4.222843   -0.880333    0.000846
 ---------------------------------------------------------------------
                    Distance matrix (angstroms):
                    1          2          3          4          5
     1  O    0.000000
     2  C    4.391511   0.000000
     3  C    5.323819   1.528683   0.000000
     4  C    2.878499   1.528843   2.555026   0.000000
     5  C    6.775128   2.559411   1.528932   3.926423   0.000000
     6  C    2.409712   2.544932   3.914752   1.523507   5.104343
     7  C    7.835454   3.924426   2.553072   5.108079   1.527486
     8  C    1.203830   3.911755   5.113350   2.558814   6.440128
     9  H    4.807684   1.096385   2.154269   2.157455   2.783718
    10  H    4.806353   1.096390   2.154201   2.157386   2.783331
    11  H    5.294174   2.154623   1.096049   2.778568   2.154648
    12  H    5.295867   2.154680   1.096052   2.778979   2.154679
    13  H    2.817077   2.161078   2.789533   1.093373   4.219019
    14  H    2.815143   2.161037   2.789056   1.093359   4.218429
    15  H    7.049406   2.783278   2.153724   4.209699   1.095310
    16  H    7.050977   2.783798   2.153754   4.210314   1.095312
    17  H    3.093657   2.804672   4.234452   2.180023   5.256016
    18  H    3.094446   2.805428   4.235343   2.180137   5.257295
    19  H    8.824538   4.731682   3.502299   6.034675   2.178143
    20  H    7.863645   4.247218   2.821378   5.268932   2.175747
    21  H    7.864995   4.247555   2.821347   5.269382   2.175772
    22  H    2.008238   4.754273   6.070182   3.544497   7.312839
                    6          7          8          9         10
     6  C    0.000000
     7  C    6.433059   0.000000
     8  C    1.505231   7.666362   0.000000
     9  H    2.772277   4.208668   4.188390   0.000000
    10  H    2.771792   4.208032   4.187468   1.750929   0.000000
    11  H    4.198598   2.776246   5.236347   3.057742   2.507084
    12  H    4.199217   2.776750   5.237486   2.507005   3.057737
    13  H    2.146026   5.233325   2.789662   2.516554   3.063438
    14  H    2.145972   5.232337   2.788817   3.063452   2.516729
    15  H    5.219687   2.155494   6.609604   3.099474   2.557580
    16  H    5.220703   2.155525   6.610942   2.558567   3.099733
    17  H    1.098671   6.646773   2.103382   3.115783   2.581614
    18  H    1.098625   6.648247   2.103585   2.582995   3.116139
    19  H    7.274849   1.091803   8.578549   4.885930   4.885272
    20  H    6.652405   1.092896   7.794690   4.769130   4.433034
    21  H    6.653192   1.092891   7.795794   4.434126   4.768862
    22  H    2.212079   8.612355   1.112124   4.900746   4.900024
                   11         12         13         14         15
    11  H    0.000000
    12  H    1.750214   0.000000
    13  H    3.102786   2.565031   0.000000
    14  H    2.564070   3.102657   1.742623   0.000000
    15  H    2.506549   3.056889   4.743410   4.409852   0.000000
    16  H    3.056888   2.506241   4.410752   4.743430   1.749816
    17  H    4.427356   4.758747   3.071999   2.532076   5.139179
    18  H    4.758971   4.428618   2.531809   3.072012   5.428036
    19  H    3.779202   3.779550   6.209483   6.208541   2.496456
    20  H    2.599274   3.137776   5.453803   5.163342   2.520628
    21  H    3.136927   2.599781   5.164812   5.453028   3.072241
    22  H    6.240858   6.241791   3.822072   3.821749   7.406825
                   16         17         18         19         20
    16  H    0.000000
    17  H    5.427802   0.000000
    18  H    5.141545   1.736743   0.000000
    19  H    2.496427   7.412133   7.413719   0.000000
    20  H    3.072245   6.810877   7.033477   1.763745   0.000000
    21  H    2.520779   7.032833   6.813159   1.763748   1.762888
    22  H    7.408124   2.478561   2.478172   9.478778   8.777802
                   21         22
    21  H    0.000000
    22  H    8.778883   0.000000
 Stoichiometry    C7H14O
 Framework group  C1[X(C7H14O)]
 Deg. of freedom    60
 Full point group                 C1      NOp   1
 RotChk:  IX=0 Diff= 1.44D-04
 Largest Abelian subgroup         C1      NOp   1
 Largest concise Abelian subgroup C1      NOp   1
                         Standard orientation:                         
 ---------------------------------------------------------------------
 Center     Atomic      Atomic             Coordinates (Angstroms)
 Number     Number       Type             X           Y           Z
 ---------------------------------------------------------------------
      1          8           0       -3.639634   -1.076948   -0.000658
      2          6           0        0.413942    0.612399    0.000353
      3          6           0        1.629346   -0.314782    0.001032
      4          6           0       -0.919393   -0.135651    0.001344
      5          6           0        2.966588    0.426441   -0.000571
      6          6           0       -2.124309    0.796685   -0.000111
      7          6           0        4.175116   -0.507729   -0.000709
      8          6           0       -3.465970    0.114290   -0.000540
      9          1           0        0.462975    1.271560    0.875089
     10          1           0        0.462626    1.269656   -0.875839
     11          1           0        1.581127   -0.974095   -0.873213
     12          1           0        1.581945   -0.971870    0.876999
     13          1           0       -0.976800   -0.792439    0.873581
     14          1           0       -0.976669   -0.794880   -0.869040
     15          1           0        3.013382    1.082948   -0.876079
     16          1           0        3.014691    1.084455    0.873736
     17          1           0       -2.111291    1.468755   -0.869151
     18          1           0       -2.112342    1.470427    0.867591
     19          1           0        5.112355    0.052286   -0.001812
     20          1           0        4.174118   -1.154511   -0.881670
     21          1           0        4.175392   -1.153188    0.881217
     22          1           0       -4.336365    0.806556   -0.000933
 ---------------------------------------------------------------------
 Rotational constants (GHZ):           8.0214092           0.5664920           0.5395725
 Leave Link  202 at Wed Feb  7 19:40:48 2024, MaxMem=  6710886400 cpu:               0.1 elap:               0.0
 (Enter /tmpu/scunam/7/gaussian-2016.03/g1/g16/l301.exe)
 Standard basis: def2TZVP (5D, 7F)
 Ernie: Thresh=  0.10000D-02 Tol=  0.10000D-05 Strict=F.
 There are   372 symmetry adapted cartesian basis functions of A   symmetry.
 There are   332 symmetry adapted basis functions of A   symmetry.
   332 basis functions,   520 primitive gaussians,   372 cartesian basis functions
    32 alpha electrons       32 beta electrons
       nuclear repulsion energy       360.1463019381 Hartrees.
 IExCor=  402 DFT=T Ex+Corr=B3LYP ExCW=0 ScaHFX=  0.200000
 ScaDFX=  0.800000  0.720000  1.000000  0.810000 ScalE2=  1.000000  1.000000
 IRadAn=      5 IRanWt=     -1 IRanGd=            0 ICorTp=0 IEmpDi=  4
 NAtoms=   22 NActive=   22 NUniq=   22 SFac= 1.00D+00 NAtFMM=   60 NAOKFM=F Big=F
 Integral buffers will be    131072 words long.
 Raffenetti 2 integral format.
 Two-electron integral symmetry is turned on.
 Leave Link  301 at Wed Feb  7 19:40:48 2024, MaxMem=  6710886400 cpu:               0.7 elap:               0.1
 (Enter /tmpu/scunam/7/gaussian-2016.03/g1/g16/l302.exe)
 NPDir=0 NMtPBC=     1 NCelOv=     1 NCel=       1 NClECP=     1 NCelD=      1
         NCelK=      1 NCelE2=     1 NClLst=     1 CellRange=     0.0.
 One-electron integrals computed using PRISM.
 One-electron integral symmetry used in STVInt
   1 Symmetry operations used in ECPInt.
 ECPInt:  NShTT=   10440 NPrTT=   30108 LenC2=    9710 LenP2D=   21945.
 LDataN:  DoStor=T MaxTD1= 6 Len=  172
 NBasis=   332 RedAO= T EigKep=  8.35D-05  NBF=   332
 NBsUse=   332 1.00D-06 EigRej= -1.00D+00 NBFU=   332
 Precomputing XC quadrature grid using
 IXCGrd= 4 IRadAn=           5 IRanWt=          -1 IRanGd=           0 AccXCQ= 0.00D+00.
 Generated NRdTot=       0 NPtTot=           0 NUsed=           0 NTot=          32
 NSgBfM=   367   367   367   367   367 MxSgAt=    22 MxSgA2=    22.
 Leave Link  302 at Wed Feb  7 19:40:48 2024, MaxMem=  6710886400 cpu:               5.1 elap:               0.3
 (Enter /tmpu/scunam/7/gaussian-2016.03/g1/g16/l303.exe)
 DipDrv:  MaxL=1.
 Leave Link  303 at Wed Feb  7 19:40:49 2024, MaxMem=  6710886400 cpu:               0.7 elap:               0.1
 (Enter /tmpu/scunam/7/gaussian-2016.03/g1/g16/l401.exe)
 Lowest energy guess from the checkpoint file:  "Heptanal.chk"
 B after Tr=     0.000000   -0.000000   -0.000000
         Rot=    1.000000   -0.000100    0.000001    0.000007 Ang=  -0.01 deg.
 Guess basis will be translated and rotated to current coordinates.
 B after Tr=    -0.000000   -0.000000    0.000000
         Rot=    1.000000   -0.000021    0.000001   -0.000009 Ang=  -0.00 deg.
 Guess basis will be translated and rotated to current coordinates.
 CkInt1:  FT= 4.05D-01
 Max alpha theta=  0.092 degrees.
 JPrj=2 DoOrth=T DoCkMO=T.
 Leave Link  401 at Wed Feb  7 19:40:49 2024, MaxMem=  6710886400 cpu:               4.6 elap:               0.3
 (Enter /tmpu/scunam/7/gaussian-2016.03/g1/g16/l502.exe)
 Integral symmetry usage will be decided dynamically.
 Closed shell SCF:
 Using DIIS extrapolation, IDIIS=  1040.
 NGot=  6710886400 LenX=  6710600118 LenY=  6710461293
 Requested convergence on RMS density matrix=1.00D-08 within 128 cycles.
 Requested convergence on MAX density matrix=1.00D-06.
 Requested convergence on             energy=1.00D-06.
 No special actions if energy rises.
 Fock matrices will be formed incrementally for  20 cycles.

 Cycle   1  Pass 1  IDiag  1:
 FoFJK:  IHMeth= 1 ICntrl=       0 DoSepK=F KAlg= 0 I1Cent=           0 FoldK=F
 IRaf= 890000000 NMat=       1 IRICut=       1 DoRegI=T DoRafI=F ISym2E= 0 IDoP0=0 IntGTp=1.
 FoFCou: FMM=F IPFlag=           0 FMFlag=      100000 FMFlg1=           0
         NFxFlg=           0 DoJE=F BraDBF=F KetDBF=F FulRan=T
         wScrn=  0.000000 ICntrl=         0 IOpCl=  0 I1Cent=           0 NGrid=           0
         NMat0=    1 NMatS0=      1 NMatT0=    0 NMatD0=    1 NMtDS0=    0 NMtDT0=    0
 Symmetry not used in FoFCou.
 E= -350.539729604973    
 DIIS: error= 1.85D-05 at cycle   1 NSaved=   1.
 NSaved= 1 IEnMin= 1 EnMin= -350.539729604973     IErMin= 1 ErrMin= 1.85D-05
 ErrMax= 1.85D-05  0.00D+00 EMaxC= 1.00D-01 BMatC= 9.88D-08 BMatP= 9.88D-08
 IDIUse=1 WtCom= 1.00D+00 WtEn= 0.00D+00
 Coeff-Com:  0.100D+01
 Coeff:      0.100D+01
 Gap=    10.111 Goal=   None    Shift=    0.000
 RMSDP=1.02D-06 MaxDP=4.36D-05              OVMax= 1.01D-04

 Cycle   2  Pass 1  IDiag  1:
 RMSU=  1.02D-06    CP:  1.00D+00
 E= -350.539729744463     Delta-E=       -0.000000139490 Rises=F Damp=F
 DIIS: error= 2.34D-06 at cycle   2 NSaved=   2.
 NSaved= 2 IEnMin= 2 EnMin= -350.539729744463     IErMin= 2 ErrMin= 2.34D-06
 ErrMax= 2.34D-06  0.00D+00 EMaxC= 1.00D-01 BMatC= 1.29D-09 BMatP= 9.88D-08
 IDIUse=1 WtCom= 1.00D+00 WtEn= 0.00D+00
 Coeff-Com: -0.607D-01 0.106D+01
 Coeff:     -0.607D-01 0.106D+01
 Gap=     0.231 Goal=   None    Shift=    0.000
 RMSDP=1.60D-07 MaxDP=5.93D-06 DE=-1.39D-07 OVMax= 1.22D-05

 Cycle   3  Pass 1  IDiag  1:
 RMSU=  1.48D-07    CP:  1.00D+00  1.06D+00
 E= -350.539729745938     Delta-E=       -0.000000001475 Rises=F Damp=F
 DIIS: error= 1.13D-06 at cycle   3 NSaved=   3.
 NSaved= 3 IEnMin= 3 EnMin= -350.539729745938     IErMin= 3 ErrMin= 1.13D-06
 ErrMax= 1.13D-06  0.00D+00 EMaxC= 1.00D-01 BMatC= 4.61D-10 BMatP= 1.29D-09
 IDIUse=1 WtCom= 1.00D+00 WtEn= 0.00D+00
 Coeff-Com: -0.285D-01 0.417D+00 0.611D+00
 Coeff:     -0.285D-01 0.417D+00 0.611D+00
 Gap=     0.231 Goal=   None    Shift=    0.000
 RMSDP=7.17D-08 MaxDP=5.34D-06 DE=-1.47D-09 OVMax= 8.16D-06

 Cycle   4  Pass 1  IDiag  1:
 RMSU=  5.90D-08    CP:  1.00D+00  1.08D+00  7.56D-01
 E= -350.539729746195     Delta-E=       -0.000000000257 Rises=F Damp=F
 DIIS: error= 8.98D-07 at cycle   4 NSaved=   4.
 NSaved= 4 IEnMin= 4 EnMin= -350.539729746195     IErMin= 4 ErrMin= 8.98D-07
 ErrMax= 8.98D-07  0.00D+00 EMaxC= 1.00D-01 BMatC= 2.12D-10 BMatP= 4.61D-10
 IDIUse=1 WtCom= 1.00D+00 WtEn= 0.00D+00
 Coeff-Com: -0.119D-01 0.161D+00 0.406D+00 0.445D+00
 Coeff:     -0.119D-01 0.161D+00 0.406D+00 0.445D+00
 Gap=     0.231 Goal=   None    Shift=    0.000
 RMSDP=5.42D-08 MaxDP=7.63D-06 DE=-2.57D-10 OVMax= 4.44D-06

 Cycle   5  Pass 1  IDiag  1:
 RMSU=  3.38D-08    CP:  1.00D+00  1.07D+00  7.54D-01  3.06D-01
 E= -350.539729746346     Delta-E=       -0.000000000151 Rises=F Damp=F
 DIIS: error= 2.10D-07 at cycle   5 NSaved=   5.
 NSaved= 5 IEnMin= 5 EnMin= -350.539729746346     IErMin= 5 ErrMin= 2.10D-07
 ErrMax= 2.10D-07  0.00D+00 EMaxC= 1.00D-01 BMatC= 1.67D-11 BMatP= 2.12D-10
 IDIUse=1 WtCom= 1.00D+00 WtEn= 0.00D+00
 Coeff-Com: -0.190D-02 0.187D-01 0.139D+00 0.258D+00 0.585D+00
 Coeff:     -0.190D-02 0.187D-01 0.139D+00 0.258D+00 0.585D+00
 Gap=     0.231 Goal=   None    Shift=    0.000
 RMSDP=2.31D-08 MaxDP=3.31D-06 DE=-1.51D-10 OVMax= 1.09D-06

 Cycle   6  Pass 1  IDiag  1:
 RMSU=  7.40D-09    CP:  1.00D+00  1.08D+00  7.89D-01  5.33D-01  5.33D-01
 E= -350.539729746353     Delta-E=       -0.000000000007 Rises=F Damp=F
 DIIS: error= 4.24D-08 at cycle   6 NSaved=   6.
 NSaved= 6 IEnMin= 6 EnMin= -350.539729746353     IErMin= 6 ErrMin= 4.24D-08
 ErrMax= 4.24D-08  0.00D+00 EMaxC= 1.00D-01 BMatC= 1.15D-12 BMatP= 1.67D-11
 IDIUse=1 WtCom= 1.00D+00 WtEn= 0.00D+00
 Coeff-Com:  0.585D-03-0.135D-01 0.163D-01 0.682D-01 0.279D+00 0.649D+00
 Coeff:      0.585D-03-0.135D-01 0.163D-01 0.682D-01 0.279D+00 0.649D+00
 Gap=     0.231 Goal=   None    Shift=    0.000
 RMSDP=4.66D-09 MaxDP=5.24D-07 DE=-7.05D-12 OVMax= 2.29D-07

 SCF Done:  E(RB3LYP) =  -350.539729746     A.U. after    6 cycles
            NFock=  6  Conv=0.47D-08     -V/T= 2.0054
 KE= 3.486728028708D+02 PE=-1.534909345407D+03 EE= 4.755505108519D+02
 Leave Link  502 at Wed Feb  7 19:41:11 2024, MaxMem=  6710886400 cpu:             354.6 elap:              22.2
 (Enter /tmpu/scunam/7/gaussian-2016.03/g1/g16/l508.exe)
 QCSCF skips out because SCF is already converged.
 Leave Link  508 at Wed Feb  7 19:41:11 2024, MaxMem=  6710886400 cpu:               0.0 elap:               0.0
 (Enter /tmpu/scunam/7/gaussian-2016.03/g1/g16/l701.exe)
 ... and contract with generalized density number  0.
 Compute integral first derivatives.
   1 Symmetry operations used in ECPInt.
 ECPInt:  NShTT=   10440 NPrTT=   30108 LenC2=    9710 LenP2D=   21945.
 LDataN:  DoStor=T MaxTD1= 7 Len=  274
 Leave Link  701 at Wed Feb  7 19:41:11 2024, MaxMem=  6710886400 cpu:               3.4 elap:               0.2
 (Enter /tmpu/scunam/7/gaussian-2016.03/g1/g16/l702.exe)
 L702 exits ... SP integral derivatives will be done elsewhere.
 Leave Link  702 at Wed Feb  7 19:41:11 2024, MaxMem=  6710886400 cpu:               0.3 elap:               0.0
 (Enter /tmpu/scunam/7/gaussian-2016.03/g1/g16/l703.exe)
 Integral derivatives from FoFJK, PRISM(SPDF).
 Compute integral first derivatives, UseDBF=F ICtDFT=           0.
 Calling FoFJK, ICntrl=      2127 FMM=F ISym2X=0 I1Cent= 0 IOpClX= 0 NMat=1 NMatS=1 NMatT=0.
 FoFJK:  IHMeth= 1 ICntrl=    2127 DoSepK=F KAlg= 0 I1Cent=           0 FoldK=F
 IRaf=         0 NMat=       1 IRICut=       1 DoRegI=T DoRafI=F ISym2E= 0 IDoP0=0 IntGTp=1.
 FoFCou: FMM=F IPFlag=           0 FMFlag=      100000 FMFlg1=         800
         NFxFlg=           0 DoJE=F BraDBF=F KetDBF=F FulRan=T
         wScrn=  0.000000 ICntrl=      2127 IOpCl=  0 I1Cent=           0 NGrid=           0
         NMat0=    1 NMatS0=      1 NMatT0=    0 NMatD0=    1 NMtDS0=    0 NMtDT0=    0
 Symmetry not used in FoFCou.
 Leave Link  703 at Wed Feb  7 19:41:22 2024, MaxMem=  6710886400 cpu:             177.0 elap:              11.1
 (Enter /tmpu/scunam/7/gaussian-2016.03/g1/g16/l716.exe)
 Dipole        = 4.56266725D-01 9.74192455D-01 1.22726491D-04
 ***** Axes restored to original set *****
 -------------------------------------------------------------------
 Center     Atomic                   Forces (Hartrees/Bohr)
 Number     Number              X              Y              Z
 -------------------------------------------------------------------
      1        8           0.000001914   -0.000018672    0.000004882
      2        6           0.000000661   -0.000002367   -0.000003722
      3        6          -0.000000435    0.000003812    0.000001942
      4        6          -0.000000505    0.000003562    0.000003075
      5        6          -0.000001241   -0.000002512    0.000001165
      6        6           0.000000029   -0.000005102   -0.000018969
      7        6          -0.000000158    0.000000503   -0.000000858
      8        6           0.000000811    0.000021626   -0.000000001
      9        1          -0.000000595   -0.000001160    0.000001792
     10        1          -0.000000205   -0.000000453   -0.000000410
     11        1           0.000000316   -0.000001225   -0.000000765
     12        1           0.000000235   -0.000001217   -0.000002352
     13        1          -0.000000165   -0.000001536   -0.000002065
     14        1           0.000000517   -0.000000734   -0.000002105
     15        1          -0.000000288    0.000000756   -0.000000007
     16        1           0.000000539    0.000001398   -0.000001363
     17        1          -0.000000737    0.000000988    0.000006037
     18        1          -0.000000750   -0.000001246    0.000009125
     19        1           0.000000979    0.000000916    0.000000781
     20        1          -0.000000098   -0.000000432    0.000001908
     21        1           0.000000234   -0.000000004    0.000001295
     22        1          -0.000001056    0.000003099    0.000000615
 -------------------------------------------------------------------
 Cartesian Forces:  Max     0.000021626 RMS     0.000004727
 Leave Link  716 at Wed Feb  7 19:41:23 2024, MaxMem=  6710886400 cpu:               0.3 elap:               0.0
 (Enter /tmpu/scunam/7/gaussian-2016.03/g1/g16/l103.exe)

 GradGradGradGradGradGradGradGradGradGradGradGradGradGradGradGradGradGrad
 Berny optimization.
 Search for a local minimum.
 Step number  20 out of a maximum of  132
 All quantities printed in internal units (Hartrees-Bohrs-Radians)
 Update second derivatives using D2CorN and points    2    3    4    7    6
                                                          8    9   10   12   11

                                                         13   14   16   15   17

                                                         19   20
 DE= -3.65D-08 DEPred=-6.12D-08 R= 5.96D-01
 Trust test= 5.96D-01 RLast= 4.76D-03 DXMaxT set to 8.83D-02
 ITU=  0 -1  0  0 -1  1  1  1  0  0  0  0  0 -1  0  0  1  1  1  0
     Eigenvalues ---    0.00053   0.00071   0.00128   0.00224   0.00293
     Eigenvalues ---    0.00423   0.00537   0.00926   0.01465   0.02072
     Eigenvalues ---    0.02414   0.03210   0.03391   0.03866   0.04563
     Eigenvalues ---    0.04727   0.05243   0.05272   0.05666   0.05780
     Eigenvalues ---    0.06131   0.06404   0.06895   0.07960   0.07992
     Eigenvalues ---    0.08539   0.09674   0.09952   0.11797   0.13062
     Eigenvalues ---    0.13075   0.13869   0.15034   0.15990   0.17831
     Eigenvalues ---    0.18049   0.20586   0.21430   0.24847   0.25621
     Eigenvalues ---    0.27380   0.39119   0.52207   0.58124   0.61994
     Eigenvalues ---    0.69101   0.69503   0.78292   0.87064   0.87827
     Eigenvalues ---    0.92872   0.92958   0.95636   0.98932   0.99650
     Eigenvalues ---    1.02372   1.04713   1.08379   1.12819   2.03013
 RFO step:  Lambda=-1.40666184D-08 EMin= 5.31372744D-04
 Quartic linear search produced a step of  0.27438.
 B after Tr=    -0.000012    0.000008    0.000065
         Rot=    1.000000   -0.000026    0.000011   -0.000002 Ang=  -0.00 deg.
 Variable       Old X    -DE/DX   Delta X   Delta X   Delta X     New X
                                 (Linear)    (Quad)   (Total)
    X1        6.71680   0.00000   0.00026  -0.00016   0.00007   6.71687
    Y1        1.91339  -0.00002  -0.00017   0.00018   0.00004   1.91343
    Z1        0.10958   0.00000   0.00061   0.00081   0.00172   0.11130
    X2       -0.99018   0.00000   0.00001  -0.00001  -0.00001  -0.99019
    Y2       -1.16139  -0.00000   0.00012  -0.00017  -0.00005  -1.16144
    Z2       -0.02275  -0.00000   0.00014  -0.00085  -0.00073  -0.02348
    X3       -3.26047  -0.00000  -0.00001   0.00003   0.00000  -3.26046
    Y3        0.62429   0.00000   0.00009  -0.00012  -0.00003   0.62426
    Z3        0.02437   0.00000  -0.00000  -0.00073  -0.00070   0.02367
    X4        1.55029  -0.00000   0.00002  -0.00004  -0.00003   1.55026
    Y4        0.21322   0.00000   0.00011  -0.00013  -0.00000   0.21322
    Z4        0.03483   0.00000   0.00003  -0.00063  -0.00048   0.03435
    X5       -5.80812  -0.00000   0.00003  -0.00006  -0.00003  -5.80815
    Y5       -0.73728  -0.00000  -0.00000  -0.00001  -0.00002  -0.73731
    Z5       -0.03398   0.00000  -0.00004   0.00024   0.00010  -0.03388
    X6        3.80062   0.00000  -0.00004   0.00005   0.00000   3.80063
    Y6       -1.58186  -0.00001   0.00003  -0.00004   0.00002  -1.58183
    Z6       -0.01415  -0.00002  -0.00002  -0.00006  -0.00001  -0.01417
    X7       -8.06521  -0.00000  -0.00004   0.00008   0.00003  -8.06519
    Y7        1.06146   0.00000  -0.00011   0.00015   0.00002   1.06148
    Z7        0.01207  -0.00000  -0.00005   0.00069   0.00058   0.01266
    X8        6.35498   0.00000   0.00004  -0.00003   0.00000   6.35498
    Y8       -0.33138   0.00002  -0.00011   0.00014   0.00006  -0.33132
    Z8        0.03687  -0.00000  -0.00009   0.00074   0.00083   0.03769
    X9       -1.10933  -0.00000   0.00002  -0.00007  -0.00008  -1.10941
    Y9       -2.45727  -0.00000   0.00024  -0.00028  -0.00011  -2.45739
    Z9        1.58944   0.00000   0.00024  -0.00094  -0.00079   1.58865
   X10       -1.09287  -0.00000   0.00002   0.00003   0.00008  -1.09279
   Y10       -2.34878  -0.00000  -0.00001  -0.00005   0.00003  -2.34875
   Z10       -1.71752  -0.00000   0.00023  -0.00094  -0.00079  -1.71831
   X11       -3.14286   0.00000   0.00000  -0.00030  -0.00028  -3.14314
   Y11        1.92045  -0.00000   0.00003  -0.00046  -0.00036   1.92010
   Z11       -1.58688  -0.00000  -0.00005  -0.00103  -0.00099  -1.58787
   X12       -3.16020   0.00000  -0.00010   0.00050   0.00034  -3.15986
   Y12        1.81141  -0.00000   0.00016   0.00023   0.00030   1.81171
   Z12        1.71870  -0.00000  -0.00005  -0.00100  -0.00096   1.71774
   X13        1.66949  -0.00000   0.00010  -0.00035  -0.00030   1.66918
   Y13        1.39971  -0.00000   0.00014   0.00001   0.00008   1.39978
   Z13        1.72217  -0.00000   0.00001  -0.00070  -0.00052   1.72165
   X14        1.68498   0.00000  -0.00002   0.00019   0.00018   1.68516
   Y14        1.50874  -0.00000   0.00007  -0.00026  -0.00009   1.50864
   Z14       -1.56907  -0.00000  -0.00001  -0.00071  -0.00054  -1.56961
   X15       -5.90722  -0.00000   0.00012  -0.00068  -0.00052  -5.90775
   Y15       -1.92334   0.00000   0.00001  -0.00028  -0.00019  -1.92354
   Z15       -1.72740  -0.00000  -0.00006   0.00046   0.00024  -1.72716
   X16       -5.92548   0.00000   0.00008   0.00037   0.00041  -5.92507
   Y16       -2.03100   0.00000  -0.00003   0.00027   0.00015  -2.03085
   Z16        1.57747  -0.00000  -0.00006   0.00050   0.00028   1.57774
   X17        3.76484  -0.00000  -0.00019   0.00059   0.00043   3.76527
   Y17       -2.79866   0.00000  -0.00005  -0.00001   0.00005  -2.79861
   Z17       -1.69602   0.00001   0.00005  -0.00009  -0.00004  -1.69606
   X18        3.75116  -0.00000  -0.00002  -0.00034  -0.00040   3.75076
   Y18       -2.90591  -0.00000   0.00012  -0.00006   0.00001  -2.90590
   Z18        1.58417   0.00001   0.00008  -0.00008  -0.00001   1.58416
   X19       -9.85194   0.00000   0.00000  -0.00001  -0.00002  -9.85196
   Y19        0.03065   0.00000  -0.00019   0.00027   0.00005   0.03070
   Z19       -0.03122   0.00000  -0.00012   0.00161   0.00134  -0.02988
   X20       -8.03712  -0.00000  -0.00006  -0.00045  -0.00049  -8.03761
   Y20        2.33570  -0.00000  -0.00006  -0.00020  -0.00020   2.33550
   Z20       -1.61300   0.00000  -0.00001   0.00039   0.00039  -1.61261
   X21       -8.05542   0.00000  -0.00014   0.00083   0.00063  -8.05478
   Y21        2.22761  -0.00000  -0.00015   0.00053   0.00026   2.22787
   Z21        1.71657   0.00000  -0.00002   0.00043   0.00043   1.71700
   X22        7.98002  -0.00000  -0.00009   0.00007  -0.00002   7.97999
   Y22       -1.66359   0.00000  -0.00026   0.00022   0.00000  -1.66359
   Z22        0.00160   0.00000  -0.00079   0.00130   0.00066   0.00225
         Item               Value     Threshold  Converged?
 Maximum Force            0.000022     0.000450     YES
 RMS     Force            0.000005     0.000300     YES
 Maximum Displacement     0.001725     0.001800     YES
 RMS     Displacement     0.000459     0.001200     YES
 Predicted change in Energy=-6.379112D-09
 Optimization completed.
    -- Stationary point found.
 Lowest energy point so far.  Saving SCF results.
 Largest change from initial coordinates is atom    1       0.103 Angstoms.
 GradGradGradGradGradGradGradGradGradGradGradGradGradGradGradGradGradGrad

 Leave Link  103 at Wed Feb  7 19:41:23 2024, MaxMem=  6710886400 cpu:               0.3 elap:               0.0
 (Enter /tmpu/scunam/7/gaussian-2016.03/g1/g16/l202.exe)
                          Input orientation:                          
 ---------------------------------------------------------------------
 Center     Atomic      Atomic             Coordinates (Angstroms)
 Number     Number       Type             X           Y           Z
 ---------------------------------------------------------------------
      1          8           0        3.554376    1.012524    0.057987
      2          6           0       -0.523980   -0.614584   -0.012038
      3          6           0       -1.725366    0.330362    0.012898
      4          6           0        0.820377    0.112833    0.018431
      5          6           0       -3.073525   -0.390154   -0.017983
      6          6           0        2.011203   -0.837082   -0.007490
      7          6           0       -4.267927    0.561699    0.006389
      8          6           0        3.362910   -0.175360    0.019509
      9          1           0       -0.587032   -1.300333    0.841093
     10          1           0       -0.578322   -1.242918   -0.908873
     11          1           0       -1.663128    1.016260   -0.839742
     12          1           0       -1.672308    0.958554    0.909497
     13          1           0        0.883453    0.740692    0.911335
     14          1           0        0.891652    0.798388   -0.830314
     15          1           0       -3.125969   -1.017789   -0.914101
     16          1           0       -3.135628   -1.074757    0.834760
     17          1           0        1.992267   -1.480985   -0.897494
     18          1           0        1.985028   -1.537740    0.838306
     19          1           0       -5.213423    0.016221   -0.016521
     20          1           0       -4.253060    1.236000   -0.853563
     21          1           0       -4.262742    1.178801    0.908370
     22          1           0        4.222843   -0.880333    0.000846
 ---------------------------------------------------------------------
                    Distance matrix (angstroms):
                    1          2          3          4          5
     1  O    0.000000
     2  C    4.391511   0.000000
     3  C    5.323819   1.528683   0.000000
     4  C    2.878499   1.528843   2.555026   0.000000
     5  C    6.775128   2.559411   1.528932   3.926423   0.000000
     6  C    2.409712   2.544932   3.914752   1.523507   5.104343
     7  C    7.835454   3.924426   2.553072   5.108079   1.527486
     8  C    1.203830   3.911755   5.113350   2.558814   6.440128
     9  H    4.807684   1.096385   2.154269   2.157455   2.783718
    10  H    4.806353   1.096390   2.154201   2.157386   2.783331
    11  H    5.294174   2.154623   1.096049   2.778568   2.154648
    12  H    5.295867   2.154680   1.096052   2.778979   2.154679
    13  H    2.817077   2.161078   2.789533   1.093373   4.219019
    14  H    2.815143   2.161037   2.789056   1.093359   4.218429
    15  H    7.049406   2.783278   2.153724   4.209699   1.095310
    16  H    7.050977   2.783798   2.153754   4.210314   1.095312
    17  H    3.093657   2.804672   4.234452   2.180023   5.256016
    18  H    3.094446   2.805428   4.235343   2.180137   5.257295
    19  H    8.824538   4.731682   3.502299   6.034675   2.178143
    20  H    7.863645   4.247218   2.821378   5.268932   2.175747
    21  H    7.864995   4.247555   2.821347   5.269382   2.175772
    22  H    2.008238   4.754273   6.070182   3.544497   7.312839
                    6          7          8          9         10
     6  C    0.000000
     7  C    6.433059   0.000000
     8  C    1.505231   7.666362   0.000000
     9  H    2.772277   4.208668   4.188390   0.000000
    10  H    2.771792   4.208032   4.187468   1.750929   0.000000
    11  H    4.198598   2.776246   5.236347   3.057742   2.507084
    12  H    4.199217   2.776750   5.237486   2.507005   3.057737
    13  H    2.146026   5.233325   2.789662   2.516554   3.063438
    14  H    2.145972   5.232337   2.788817   3.063452   2.516729
    15  H    5.219687   2.155494   6.609604   3.099474   2.557580
    16  H    5.220703   2.155525   6.610942   2.558567   3.099733
    17  H    1.098671   6.646773   2.103382   3.115783   2.581614
    18  H    1.098625   6.648247   2.103585   2.582995   3.116139
    19  H    7.274849   1.091803   8.578549   4.885930   4.885272
    20  H    6.652405   1.092896   7.794690   4.769130   4.433034
    21  H    6.653192   1.092891   7.795794   4.434126   4.768862
    22  H    2.212079   8.612355   1.112124   4.900746   4.900024
                   11         12         13         14         15
    11  H    0.000000
    12  H    1.750214   0.000000
    13  H    3.102786   2.565031   0.000000
    14  H    2.564070   3.102657   1.742623   0.000000
    15  H    2.506549   3.056889   4.743410   4.409852   0.000000
    16  H    3.056888   2.506241   4.410752   4.743430   1.749816
    17  H    4.427356   4.758747   3.071999   2.532076   5.139179
    18  H    4.758971   4.428618   2.531809   3.072012   5.428036
    19  H    3.779202   3.779550   6.209483   6.208541   2.496456
    20  H    2.599274   3.137776   5.453803   5.163342   2.520628
    21  H    3.136927   2.599781   5.164812   5.453028   3.072241
    22  H    6.240858   6.241791   3.822072   3.821749   7.406825
                   16         17         18         19         20
    16  H    0.000000
    17  H    5.427802   0.000000
    18  H    5.141545   1.736743   0.000000
    19  H    2.496427   7.412133   7.413719   0.000000
    20  H    3.072245   6.810877   7.033477   1.763745   0.000000
    21  H    2.520779   7.032833   6.813159   1.763748   1.762888
    22  H    7.408124   2.478561   2.478172   9.478778   8.777802
                   21         22
    21  H    0.000000
    22  H    8.778883   0.000000
 Stoichiometry    C7H14O
 Framework group  C1[X(C7H14O)]
 Deg. of freedom    60
 Full point group                 C1      NOp   1
 RotChk:  IX=0 Diff= 7.93D-16
 Largest Abelian subgroup         C1      NOp   1
 Largest concise Abelian subgroup C1      NOp   1
                         Standard orientation:                         
 ---------------------------------------------------------------------
 Center     Atomic      Atomic             Coordinates (Angstroms)
 Number     Number       Type             X           Y           Z
 ---------------------------------------------------------------------
      1          8           0       -3.639634   -1.076948   -0.000658
      2          6           0        0.413942    0.612399    0.000353
      3          6           0        1.629346   -0.314782    0.001032
      4          6           0       -0.919393   -0.135651    0.001344
      5          6           0        2.966588    0.426441   -0.000571
      6          6           0       -2.124309    0.796685   -0.000111
      7          6           0        4.175116   -0.507729   -0.000709
      8          6           0       -3.465970    0.114290   -0.000540
      9          1           0        0.462975    1.271560    0.875089
     10          1           0        0.462626    1.269656   -0.875839
     11          1           0        1.581127   -0.974095   -0.873213
     12          1           0        1.581945   -0.971870    0.876999
     13          1           0       -0.976800   -0.792439    0.873581
     14          1           0       -0.976669   -0.794880   -0.869040
     15          1           0        3.013382    1.082948   -0.876079
     16          1           0        3.014691    1.084455    0.873736
     17          1           0       -2.111291    1.468755   -0.869151
     18          1           0       -2.112342    1.470427    0.867591
     19          1           0        5.112355    0.052286   -0.001812
     20          1           0        4.174118   -1.154511   -0.881670
     21          1           0        4.175392   -1.153188    0.881217
     22          1           0       -4.336365    0.806556   -0.000933
 ---------------------------------------------------------------------
 Rotational constants (GHZ):           8.0214092           0.5664920           0.5395725
 Leave Link  202 at Wed Feb  7 19:41:23 2024, MaxMem=  6710886400 cpu:               0.1 elap:               0.0
 (Enter /tmpu/scunam/7/gaussian-2016.03/g1/g16/l601.exe)
 Copying SCF densities to generalized density rwf, IOpCl= 0 IROHF=0.

 **********************************************************************

            Population analysis using the SCF density.

 **********************************************************************

 Orbital symmetries:
       Occupied  (A) (A) (A) (A) (A) (A) (A) (A) (A) (A) (A) (A)
                 (A) (A) (A) (A) (A) (A) (A) (A) (A) (A) (A) (A)
                 (A) (A) (A) (A) (A) (A) (A) (A)
       Virtual   (A) (A) (A) (A) (A) (A) (A) (A) (A) (A) (A) (A)
                 (A) (A) (A) (A) (A) (A) (A) (A) (A) (A) (A) (A)
                 (A) (A) (A) (A) (A) (A) (A) (A) (A) (A) (A) (A)
                 (A) (A) (A) (A) (A) (A) (A) (A) (A) (A) (A) (A)
                 (A) (A) (A) (A) (A) (A) (A) (A) (A) (A) (A) (A)
                 (A) (A) (A) (A) (A) (A) (A) (A) (A) (A) (A) (A)
                 (A) (A) (A) (A) (A) (A) (A) (A) (A) (A) (A) (A)
                 (A) (A) (A) (A) (A) (A) (A) (A) (A) (A) (A) (A)
                 (A) (A) (A) (A) (A) (A) (A) (A) (A) (A) (A) (A)
                 (A) (A) (A) (A) (A) (A) (A) (A) (A) (A) (A) (A)
                 (A) (A) (A) (A) (A) (A) (A) (A) (A) (A) (A) (A)
                 (A) (A) (A) (A) (A) (A) (A) (A) (A) (A) (A) (A)
                 (A) (A) (A) (A) (A) (A) (A) (A) (A) (A) (A) (A)
                 (A) (A) (A) (A) (A) (A) (A) (A) (A) (A) (A) (A)
                 (A) (A) (A) (A) (A) (A) (A) (A) (A) (A) (A) (A)
                 (A) (A) (A) (A) (A) (A) (A) (A) (A) (A) (A) (A)
                 (A) (A) (A) (A) (A) (A) (A) (A) (A) (A) (A) (A)
                 (A) (A) (A) (A) (A) (A) (A) (A) (A) (A) (A) (A)
                 (A) (A) (A) (A) (A) (A) (A) (A) (A) (A) (A) (A)
                 (A) (A) (A) (A) (A) (A) (A) (A) (A) (A) (A) (A)
                 (A) (A) (A) (A) (A) (A) (A) (A) (A) (A) (A) (A)
                 (A) (A) (A) (A) (A) (A) (A) (A) (A) (A) (A) (A)
                 (A) (A) (A) (A) (A) (A) (A) (A) (A) (A) (A) (A)
                 (A) (A) (A) (A) (A) (A) (A) (A) (A) (A) (A) (A)
                 (A) (A) (A) (A) (A) (A) (A) (A) (A) (A) (A) (A)
 The electronic state is 1-A.
 Alpha  occ. eigenvalues --  -19.12887 -10.26400 -10.18768 -10.17240 -10.17048
 Alpha  occ. eigenvalues --  -10.16730 -10.16620 -10.15957  -1.05560  -0.81904
 Alpha  occ. eigenvalues --   -0.78687  -0.73533  -0.67084  -0.60852  -0.58303
 Alpha  occ. eigenvalues --   -0.56028  -0.49319  -0.48699  -0.46588  -0.45078
 Alpha  occ. eigenvalues --   -0.42964  -0.42512  -0.40439  -0.38872  -0.38493
 Alpha  occ. eigenvalues --   -0.36126  -0.35555  -0.33814  -0.33495  -0.32821
 Alpha  occ. eigenvalues --   -0.32650  -0.26253
 Alpha virt. eigenvalues --   -0.03129   0.02533   0.03802   0.05423   0.06058
 Alpha virt. eigenvalues --    0.06460   0.08373   0.09113   0.09973   0.11474
 Alpha virt. eigenvalues --    0.11961   0.12151   0.12795   0.13792   0.14237
 Alpha virt. eigenvalues --    0.15135   0.16004   0.16680   0.17677   0.19467
 Alpha virt. eigenvalues --    0.20429   0.21722   0.23388   0.24266   0.25921
 Alpha virt. eigenvalues --    0.26972   0.27218   0.27652   0.29158   0.29551
 Alpha virt. eigenvalues --    0.30011   0.30477   0.32379   0.33478   0.36691
 Alpha virt. eigenvalues --    0.37709   0.39260   0.39574   0.39941   0.40255
 Alpha virt. eigenvalues --    0.42067   0.42719   0.43299   0.43961   0.44707
 Alpha virt. eigenvalues --    0.45719   0.45787   0.46101   0.46631   0.46765
 Alpha virt. eigenvalues --    0.48347   0.48491   0.48661   0.49853   0.50241
 Alpha virt. eigenvalues --    0.51460   0.54150   0.54439   0.57297   0.58375
 Alpha virt. eigenvalues --    0.59283   0.60265   0.61272   0.64015   0.67742
 Alpha virt. eigenvalues --    0.68954   0.70392   0.71655   0.76198   0.76921
 Alpha virt. eigenvalues --    0.79102   0.81163   0.82356   0.83350   0.83863
 Alpha virt. eigenvalues --    0.85553   0.85789   0.88323   0.89083   0.89150
 Alpha virt. eigenvalues --    0.97526   0.97972   0.98478   0.99261   1.03619
 Alpha virt. eigenvalues --    1.05985   1.07130   1.07818   1.08865   1.09037
 Alpha virt. eigenvalues --    1.10218   1.10403   1.11131   1.12905   1.15800
 Alpha virt. eigenvalues --    1.22166   1.22174   1.23182   1.28208   1.29352
 Alpha virt. eigenvalues --    1.30949   1.31724   1.34365   1.41071   1.41308
 Alpha virt. eigenvalues --    1.46463   1.47997   1.50447   1.51592   1.51799
 Alpha virt. eigenvalues --    1.52864   1.53682   1.54391   1.54781   1.55443
 Alpha virt. eigenvalues --    1.58678   1.59138   1.59531   1.60231   1.61423
 Alpha virt. eigenvalues --    1.62757   1.66975   1.72339   1.72976   1.77210
 Alpha virt. eigenvalues --    1.81562   1.81625   1.83373   1.84149   1.84272
 Alpha virt. eigenvalues --    1.86154   1.86429   1.87885   1.88755   1.91389
 Alpha virt. eigenvalues --    1.92082   1.92143   1.93075   1.93833   1.96802
 Alpha virt. eigenvalues --    2.00252   2.03947   2.04300   2.07974   2.11690
 Alpha virt. eigenvalues --    2.12664   2.13524   2.16953   2.18754   2.20367
 Alpha virt. eigenvalues --    2.24039   2.25823   2.28761   2.30209   2.32569
 Alpha virt. eigenvalues --    2.33773   2.35326   2.35725   2.37565   2.40687
 Alpha virt. eigenvalues --    2.44460   2.45496   2.45771   2.46325   2.46984
 Alpha virt. eigenvalues --    2.50301   2.51847   2.52769   2.54188   2.54709
 Alpha virt. eigenvalues --    2.56738   2.58548   2.58901   2.59910   2.60714
 Alpha virt. eigenvalues --    2.61683   2.64428   2.65288   2.66821   2.67724
 Alpha virt. eigenvalues --    2.69967   2.70333   2.70528   2.72532   2.72858
 Alpha virt. eigenvalues --    2.74338   2.74668   2.77130   2.78333   2.81288
 Alpha virt. eigenvalues --    2.83576   2.87080   2.88733   2.93024   2.97352
 Alpha virt. eigenvalues --    2.98926   2.99290   3.01428   3.03269   3.07285
 Alpha virt. eigenvalues --    3.07550   3.08641   3.12016   3.12077   3.14904
 Alpha virt. eigenvalues --    3.16015   3.17076   3.17570   3.18989   3.21014
 Alpha virt. eigenvalues --    3.22899   3.24236   3.24431   3.27411   3.28455
 Alpha virt. eigenvalues --    3.29530   3.29546   3.30289   3.32321   3.38644
 Alpha virt. eigenvalues --    3.39666   3.39953   3.40130   3.40592   3.40882
 Alpha virt. eigenvalues --    3.42548   3.46544   3.46641   3.50377   3.50782
 Alpha virt. eigenvalues --    3.53073   3.54116   3.57284   3.58571   3.60119
 Alpha virt. eigenvalues --    3.60321   3.61330   3.61903   3.66411   3.72048
 Alpha virt. eigenvalues --    3.74571   3.79853   3.83557   3.84606   3.87550
 Alpha virt. eigenvalues --    3.88002   3.88734   3.90284   3.90705   3.91946
 Alpha virt. eigenvalues --    3.95330   4.00705   4.03470   4.04783   4.07123
 Alpha virt. eigenvalues --    4.10020   4.15272   4.21885   4.26777   4.31032
 Alpha virt. eigenvalues --    4.33358   4.34047   4.41021   4.46650   4.49031
 Alpha virt. eigenvalues --    4.53082   4.53365   4.57719   4.60738   4.61638
 Alpha virt. eigenvalues --    4.62733   4.63409   4.65905   4.68391   4.71697
 Alpha virt. eigenvalues --    4.76096   4.90053   4.94645   5.15100   5.17459
 Alpha virt. eigenvalues --    5.19548   5.21705   5.56028   5.65466   6.10922
 Alpha virt. eigenvalues --    6.31512   6.33601   6.40729   6.46025   6.78266
 Alpha virt. eigenvalues --    6.92683   7.04471  22.27452  22.32717  22.40628
 Alpha virt. eigenvalues --   22.45895  22.48133  22.49319  22.70626  43.74171
          Condensed to atoms (all electrons):
               1          2          3          4          5          6
     1  O    7.770977   0.000603   0.000212   0.027367   0.000001  -0.163415
     2  C    0.000603   4.999083   0.316902   0.303374  -0.048501  -0.042146
     3  C    0.000212   0.316902   5.003933  -0.051810   0.316436   0.005527
     4  C    0.027367   0.303374  -0.051810   4.994369   0.010965   0.175205
     5  C    0.000001  -0.048501   0.316436   0.010965   4.948146  -0.000691
     6  C   -0.163415  -0.042146   0.005527   0.175205  -0.000691   5.683091
     7  C   -0.000000   0.012681  -0.057208  -0.000845   0.311475   0.000030
     8  C    0.672132   0.007293   0.000505   0.007137   0.000021   0.090776
     9  H   -0.000024   0.402429  -0.038724  -0.037361  -0.005439  -0.005333
    10  H   -0.000023   0.402486  -0.038741  -0.037415  -0.005453  -0.005354
    11  H   -0.000031  -0.041556   0.408018  -0.005032  -0.041707   0.000427
    12  H   -0.000030  -0.041509   0.407971  -0.005035  -0.041682   0.000426
    13  H    0.005776  -0.049858  -0.002787   0.422193  -0.000162  -0.044948
    14  H    0.005817  -0.049915  -0.002788   0.422305  -0.000162  -0.045003
    15  H   -0.000000  -0.005376  -0.045937  -0.000198   0.411561   0.000017
    16  H   -0.000000  -0.005373  -0.045904  -0.000199   0.411540   0.000017
    17  H    0.003601  -0.004650  -0.000017  -0.029385  -0.000003   0.357860
    18  H    0.003612  -0.004667  -0.000016  -0.029365  -0.000003   0.357931
    19  H    0.000000  -0.000953   0.013549   0.000039  -0.049857  -0.000001
    20  H    0.000000  -0.000121  -0.006831  -0.000020  -0.040236   0.000001
    21  H    0.000000  -0.000120  -0.006825  -0.000020  -0.040237   0.000001
    22  H   -0.061331  -0.000566   0.000075   0.024534  -0.000000  -0.237995
               7          8          9         10         11         12
     1  O   -0.000000   0.672132  -0.000024  -0.000023  -0.000031  -0.000030
     2  C    0.012681   0.007293   0.402429   0.402486  -0.041556  -0.041509
     3  C   -0.057208   0.000505  -0.038724  -0.038741   0.408018   0.407971
     4  C   -0.000845   0.007137  -0.037361  -0.037415  -0.005032  -0.005035
     5  C    0.311475   0.000021  -0.005439  -0.005453  -0.041707  -0.041682
     6  C    0.000030   0.090776  -0.005333  -0.005354   0.000427   0.000426
     7  C    4.912615  -0.000001  -0.000013  -0.000012  -0.004244  -0.004240
     8  C   -0.000001   4.684384  -0.000461  -0.000459  -0.000089  -0.000089
     9  H   -0.000013  -0.000461   0.629021  -0.037972   0.009254  -0.006688
    10  H   -0.000012  -0.000459  -0.037972   0.629045  -0.006682   0.009254
    11  H   -0.004244  -0.000089   0.009254  -0.006682   0.623154  -0.035774
    12  H   -0.004240  -0.000089  -0.006688   0.009254  -0.035774   0.623145
    13  H   -0.000008  -0.002108  -0.005512   0.008198   0.000334   0.003650
    14  H   -0.000008  -0.002105   0.008192  -0.005501   0.003652   0.000335
    15  H   -0.039010  -0.000001   0.000238   0.004559  -0.006927   0.009550
    16  H   -0.038999  -0.000001   0.004552   0.000237   0.009550  -0.006939
    17  H    0.000000  -0.010935   0.000386   0.003110   0.000124  -0.000054
    18  H    0.000000  -0.010964   0.003100   0.000387  -0.000055   0.000123
    19  H    0.416893   0.000000   0.000008   0.000008  -0.000183  -0.000184
    20  H    0.408195   0.000000  -0.000024   0.000113   0.004777   0.000123
    21  H    0.408185   0.000000   0.000112  -0.000024   0.000122   0.004774
    22  H    0.000000   0.476936  -0.000030  -0.000030  -0.000003  -0.000003
              13         14         15         16         17         18
     1  O    0.005776   0.005817  -0.000000  -0.000000   0.003601   0.003612
     2  C   -0.049858  -0.049915  -0.005376  -0.005373  -0.004650  -0.004667
     3  C   -0.002787  -0.002788  -0.045937  -0.045904  -0.000017  -0.000016
     4  C    0.422193   0.422305  -0.000198  -0.000199  -0.029385  -0.029365
     5  C   -0.000162  -0.000162   0.411561   0.411540  -0.000003  -0.000003
     6  C   -0.044948  -0.045003   0.000017   0.000017   0.357860   0.357931
     7  C   -0.000008  -0.000008  -0.039010  -0.038999   0.000000   0.000000
     8  C   -0.002108  -0.002105  -0.000001  -0.000001  -0.010935  -0.010964
     9  H   -0.005512   0.008192   0.000238   0.004552   0.000386   0.003100
    10  H    0.008198  -0.005501   0.004559   0.000237   0.003110   0.000387
    11  H    0.000334   0.003652  -0.006927   0.009550   0.000124  -0.000055
    12  H    0.003650   0.000335   0.009550  -0.006939  -0.000054   0.000123
    13  H    0.587662  -0.024441  -0.000039   0.000140   0.007962  -0.004891
    14  H   -0.024441   0.587504   0.000141  -0.000039  -0.004879   0.007961
    15  H   -0.000039   0.000141   0.630121  -0.038046  -0.000026   0.000011
    16  H    0.000140  -0.000039  -0.038046   0.630105   0.000011  -0.000026
    17  H    0.007962  -0.004879  -0.000026   0.000011   0.591510  -0.028426
    18  H   -0.004891   0.007961   0.000011  -0.000026  -0.028426   0.591447
    19  H    0.000001   0.000001  -0.004493  -0.004494   0.000000   0.000000
    20  H    0.000011  -0.000021  -0.006155   0.008713   0.000000  -0.000000
    21  H   -0.000021   0.000011   0.008714  -0.006153  -0.000000   0.000000
    22  H    0.000781   0.000787  -0.000000  -0.000000   0.008441   0.008449
              19         20         21         22
     1  O    0.000000   0.000000   0.000000  -0.061331
     2  C   -0.000953  -0.000121  -0.000120  -0.000566
     3  C    0.013549  -0.006831  -0.006825   0.000075
     4  C    0.000039  -0.000020  -0.000020   0.024534
     5  C   -0.049857  -0.040236  -0.040237  -0.000000
     6  C   -0.000001   0.000001   0.000001  -0.237995
     7  C    0.416893   0.408195   0.408185   0.000000
     8  C    0.000000   0.000000   0.000000   0.476936
     9  H    0.000008  -0.000024   0.000112  -0.000030
    10  H    0.000008   0.000113  -0.000024  -0.000030
    11  H   -0.000183   0.004777   0.000122  -0.000003
    12  H   -0.000184   0.000123   0.004774  -0.000003
    13  H    0.000001   0.000011  -0.000021   0.000781
    14  H    0.000001  -0.000021   0.000011   0.000787
    15  H   -0.004493  -0.006155   0.008714  -0.000000
    16  H   -0.004494   0.008713  -0.006153  -0.000000
    17  H    0.000000   0.000000  -0.000000   0.008441
    18  H    0.000000  -0.000000   0.000000   0.008449
    19  H    0.572993  -0.027104  -0.027107  -0.000000
    20  H   -0.027104   0.587504  -0.030713   0.000000
    21  H   -0.027107  -0.030713   0.587515   0.000000
    22  H   -0.000000   0.000000   0.000000   0.709312
 Mulliken charges:
               1
     1  O   -0.265246
     2  C   -0.149541
     3  C   -0.175540
     4  C   -0.190801
     5  C   -0.136010
     6  C   -0.126422
     7  C   -0.325486
     8  C    0.088030
     9  H    0.080289
    10  H    0.080270
    11  H    0.082871
    12  H    0.082878
    13  H    0.098069
    14  H    0.098158
    15  H    0.081298
    16  H    0.081309
    17  H    0.105371
    18  H    0.105392
    19  H    0.110887
    20  H    0.101792
    21  H    0.101787
    22  H    0.070644
 Sum of Mulliken charges =  -0.00000
 Mulliken charges with hydrogens summed into heavy atoms:
               1
     1  O   -0.265246
     2  C    0.011018
     3  C   -0.009790
     4  C    0.005426
     5  C    0.026597
     6  C    0.084341
     7  C   -0.011021
     8  C    0.158675
 Electronic spatial extent (au):  <R**2>=           2061.7734
 Charge=              0.0000 electrons
 Dipole moment (field-independent basis, Debye):
    X=              1.1597    Y=              2.4762    Z=              0.0003  Tot=              2.7343
 Quadrupole moment (field-independent basis, Debye-Ang):
   XX=            -58.8668   YY=            -54.9961   ZZ=            -50.7875
   XY=             -8.8194   XZ=             -0.0012   YZ=             -0.0002
 Traceless Quadrupole moment (field-independent basis, Debye-Ang):
   XX=             -3.9833   YY=             -0.1126   ZZ=              4.0960
   XY=             -8.8194   XZ=             -0.0012   YZ=             -0.0002
 Octapole moment (field-independent basis, Debye-Ang**2):
  XXX=              7.3301  YYY=             -0.5700  ZZZ=             -0.0005  XYY=              2.1399
  XXY=             34.1171  XXZ=              0.0079  XZZ=             -6.3929  YZZ=             -1.0648
  YYZ=              0.0010  XYZ=              0.0058
 Hexadecapole moment (field-independent basis, Debye-Ang**3):
 XXXX=          -2601.1460 YYYY=           -232.6376 ZZZZ=            -96.0224 XXXY=            -94.6592
 XXXZ=             -0.0231 YYYX=              2.9513 YYYZ=              0.0202 ZZZX=              0.0170
 ZZZY=             -0.0048 XXYY=           -485.4197 XXZZ=           -421.5976 YYZZ=            -49.3853
 XXYZ=             -0.0230 YYXZ=             -0.0052 ZZXY=              2.7576
 N-N= 3.601463019381D+02 E-N=-1.534909348014D+03  KE= 3.486728028708D+02
 No NMR shielding tensors so no spin-rotation constants.
 Leave Link  601 at Wed Feb  7 19:41:23 2024, MaxMem=  6710886400 cpu:               2.7 elap:               0.2
 (Enter /tmpu/scunam/7/gaussian-2016.03/g1/g16/l9999.exe)
 1\1\GINC-MN444\FOpt\RB3LYP\def2TZVP\C7H14O1\AGRC_A\07-Feb-2024\0\\#p b
 3lyp/def2TZVP opt=(cartesian,maxcycle=500) freq=raman scf=(maxcycle=20
 00,direct,noincore,xqc)\\Heptanal\\0,1\O,3.554376157,1.0125235257,0.05
 7987082\C,-0.5239800942,-0.6145836529,-0.0120378638\C,-1.7253656149,0.
 3303621511,0.0128978175\C,0.8203774813,0.1128327871,0.018430754\C,-3.0
 735253483,-0.3901539223,-0.0179827086\C,2.0112026563,-0.8370821087,-0.
 0074898954\C,-4.2679271722,0.5616989651,0.0063886096\C,3.3629103473,-0
 .1753595266,0.0195086566\H,-0.5870320541,-1.3003327556,0.8410930188\H,
 -0.5783220883,-1.2429183076,-0.908872972\H,-1.6631279188,1.0162599149,
 -0.8397416125\H,-1.6723078062,0.9585543134,0.9094966189\H,0.8834534311
 ,0.7406924529,0.9113347013\H,0.8916518965,0.7983881898,-0.8303138065\H
 ,-3.1259685286,-1.0177889569,-0.9141014809\H,-3.1356278549,-1.07475699
 22,0.8347600722\H,1.992266902,-1.4809851902,-0.8974939744\H,1.98502816
 64,-1.5377400101,0.8383063305\H,-5.2134232707,0.0162214043,-0.01652141
 97\H,-4.2530596612,1.2360002747,-0.8535634426\H,-4.2627423851,1.178800
 7203,0.9083697522\H,4.2228427597,-0.8803332761,0.0008457627\\Version=E
 S64L-G16RevA.03\State=1-A\HF=-350.5397297\RMSD=4.656e-09\RMSF=4.727e-0
 6\Dipole=-0.4707864,-0.9667034,-0.0327862\Quadrupole=-3.1569274,0.1166
 964,3.040231,-6.5067444,-0.2350286,-0.1237326\PG=C01 [X(C7H14O1)]\\@


 THE WORLD IS MADE UP OF THE WILLS, THE WON'TS, AND THE CANT'S:
 THE WILLS DO EVERYTHING,
 THE WON'TS DO NOTHING,
 THE CAN'TS CAN'T DO ANYTHING.

                               -- FROM WALT DISNEY'S "BLACK HOLE"
 Leave Link 9999 at Wed Feb  7 19:41:23 2024, MaxMem=  6710886400 cpu:               0.4 elap:               0.0
 Job cpu time:       0 days  3 hours 48 minutes 59.9 seconds.
 Elapsed time:       0 days  0 hours 14 minutes 24.3 seconds.
 File lengths (MBytes):  RWF=     74 Int=      0 D2E=      0 Chk=      9 Scr=      1
 Normal termination of Gaussian 16 at Wed Feb  7 19:41:23 2024.
 (Enter /tmpu/scunam/7/gaussian-2016.03/g1/g16/l1.exe)
 Link1:  Proceeding to internal job step number  2.
 --------------------------------------------------------------------
 #P Geom=AllCheck Guess=TCheck SCRF=Check GenChk RB3LYP/def2TZVP Freq
 --------------------------------------------------------------------
 1/6=500,10=4,29=7,30=1,38=1,40=1/1,3;
 2/12=2,40=1/2;
 3/5=44,7=101,11=2,14=-4,25=1,30=1,70=2,71=2,74=-5,116=1,140=1/1,2,3;
 4/5=101/1;
 5/5=2,7=2000,8=3,13=1,38=6,98=1/2,8;
 8/6=4,10=90,11=11/1;
 10/13=10,15=4/2;
 11/6=3,8=1,9=11,15=111,16=1/1,2,10;
 10/6=1/2;
 6/7=2,8=2,9=2,10=2,28=1/1;
 7/8=1,10=1,25=1/1,2,3,16;
 1/6=500,10=4,30=1/3;
 99//99;
 Leave Link    1 at Wed Feb  7 19:41:23 2024, MaxMem=  6710886400 cpu:               0.4 elap:               0.0
 (Enter /tmpu/scunam/7/gaussian-2016.03/g1/g16/l101.exe)
 Structure from the checkpoint file:  "Heptanal.chk"
 --------
 Heptanal
 --------
 Charge =  0 Multiplicity = 1
 No Z-Matrix found in chk file; cartesian coordinates used.
  O                                                 3.554376157012      1.012523525669      0.057987081981
  C                                                -0.523980094172     -0.614583652908     -0.012037863810
  C                                                -1.725365614935      0.330362151064      0.012897817544
  C                                                 0.820377481310      0.112832787050      0.018430754013
  C                                                -3.073525348280     -0.390153922308     -0.017982708598
  C                                                 2.011202656306     -0.837082108716     -0.007489895389
  C                                                -4.267927172214      0.561698965091      0.006388609605
  C                                                 3.362910347341     -0.175359526596      0.019508656598
  H                                                -0.587032054084     -1.300332755628      0.841093018767
  H                                                -0.578322088349     -1.242918307555     -0.908872972015
  H                                                -1.663127918798      1.016259914945     -0.839741612458
  H                                                -1.672307806212      0.958554313443      0.909496618926
  H                                                 0.883453431051      0.740692452892      0.911334701338
  H                                                 0.891651896473      0.798388189821     -0.830313806460
  H                                                -3.125968528619     -1.017788956939     -0.914101480942
  H                                                -3.135627854920     -1.074756992203      0.834760072236
  H                                                 1.992266901990     -1.480985190181     -0.897493974402
  H                                                 1.985028166439     -1.537740010142      0.838306330479
  H                                                -5.213423270715      0.016221404288     -0.016521419668
  H                                                -4.253059661242      1.236000274729     -0.853563442583
  H                                                -4.262742385104      1.178800720301      0.908369752170
  H                                                 4.222842759722     -0.880333276118      0.000845762669
 Recover connectivity data from disk.
 ITRead=  0  0  0  0  0  0  0  0  0  0  0  0  0  0  0  0  0  0  0  0
 ITRead=  0  0
 MicOpt= -1 -1 -1 -1 -1 -1 -1 -1 -1 -1 -1 -1 -1 -1 -1 -1 -1 -1 -1 -1
 MicOpt= -1 -1
 NAtoms=     22 NQM=       22 NQMF=       0 NMMI=      0 NMMIF=      0
                NMic=       0 NMicF=      0.
                    Isotopes and Nuclear Properties:
 (Nuclear quadrupole moments (NQMom) in fm**2, nuclear magnetic moments (NMagM)
  in nuclear magnetons)

  Atom         1           2           3           4           5           6           7           8           9          10
 IAtWgt=          16          12          12          12          12          12          12          12           1           1
 AtmWgt=  15.9949146  12.0000000  12.0000000  12.0000000  12.0000000  12.0000000  12.0000000  12.0000000   1.0078250   1.0078250
 NucSpn=           0           0           0           0           0           0           0           0           1           1
 AtZEff=   5.6000000   3.6000000   3.6000000   3.6000000   3.6000000   3.6000000   3.6000000   3.6000000   1.0000000   1.0000000
 NQMom=    0.0000000   0.0000000   0.0000000   0.0000000   0.0000000   0.0000000   0.0000000   0.0000000   0.0000000   0.0000000
 NMagM=    0.0000000   0.0000000   0.0000000   0.0000000   0.0000000   0.0000000   0.0000000   0.0000000   2.7928460   2.7928460
 AtZNuc=   8.0000000   6.0000000   6.0000000   6.0000000   6.0000000   6.0000000   6.0000000   6.0000000   1.0000000   1.0000000

  Atom        11          12          13          14          15          16          17          18          19          20
 IAtWgt=           1           1           1           1           1           1           1           1           1           1
 AtmWgt=   1.0078250   1.0078250   1.0078250   1.0078250   1.0078250   1.0078250   1.0078250   1.0078250   1.0078250   1.0078250
 NucSpn=           1           1           1           1           1           1           1           1           1           1
 AtZEff=   1.0000000   1.0000000   1.0000000   1.0000000   1.0000000   1.0000000   1.0000000   1.0000000   1.0000000   1.0000000
 NQMom=    0.0000000   0.0000000   0.0000000   0.0000000   0.0000000   0.0000000   0.0000000   0.0000000   0.0000000   0.0000000
 NMagM=    2.7928460   2.7928460   2.7928460   2.7928460   2.7928460   2.7928460   2.7928460   2.7928460   2.7928460   2.7928460
 AtZNuc=   1.0000000   1.0000000   1.0000000   1.0000000   1.0000000   1.0000000   1.0000000   1.0000000   1.0000000   1.0000000

  Atom        21          22
 IAtWgt=           1           1
 AtmWgt=   1.0078250   1.0078250
 NucSpn=           1           1
 AtZEff=   1.0000000   1.0000000
 NQMom=    0.0000000   0.0000000
 NMagM=    2.7928460   2.7928460
 AtZNuc=   1.0000000   1.0000000
 Leave Link  101 at Wed Feb  7 19:41:23 2024, MaxMem=  6710886400 cpu:               1.3 elap:               0.1
 (Enter /tmpu/scunam/7/gaussian-2016.03/g1/g16/l103.exe)

 GradGradGradGradGradGradGradGradGradGradGradGradGradGradGradGradGradGrad
 Berny optimization.
 Initialization pass.
 Trust Radius=3.00D-01 FncErr=1.00D-07 GrdErr=1.00D-07 EigMax=2.50D+02 EigMin=1.00D-04
 Number of steps in this run=      2 maximum allowed number of steps=      2.
 GradGradGradGradGradGradGradGradGradGradGradGradGradGradGradGradGradGrad

 Leave Link  103 at Wed Feb  7 19:41:23 2024, MaxMem=  6710886400 cpu:               0.2 elap:               0.0
 (Enter /tmpu/scunam/7/gaussian-2016.03/g1/g16/l202.exe)
                          Input orientation:                          
 ---------------------------------------------------------------------
 Center     Atomic      Atomic             Coordinates (Angstroms)
 Number     Number       Type             X           Y           Z
 ---------------------------------------------------------------------
      1          8           0        3.554376    1.012524    0.057987
      2          6           0       -0.523980   -0.614584   -0.012038
      3          6           0       -1.725366    0.330362    0.012898
      4          6           0        0.820377    0.112833    0.018431
      5          6           0       -3.073525   -0.390154   -0.017983
      6          6           0        2.011203   -0.837082   -0.007490
      7          6           0       -4.267927    0.561699    0.006389
      8          6           0        3.362910   -0.175360    0.019509
      9          1           0       -0.587032   -1.300333    0.841093
     10          1           0       -0.578322   -1.242918   -0.908873
     11          1           0       -1.663128    1.016260   -0.839742
     12          1           0       -1.672308    0.958554    0.909497
     13          1           0        0.883453    0.740692    0.911335
     14          1           0        0.891652    0.798388   -0.830314
     15          1           0       -3.125969   -1.017789   -0.914101
     16          1           0       -3.135628   -1.074757    0.834760
     17          1           0        1.992267   -1.480985   -0.897494
     18          1           0        1.985028   -1.537740    0.838306
     19          1           0       -5.213423    0.016221   -0.016521
     20          1           0       -4.253060    1.236000   -0.853563
     21          1           0       -4.262742    1.178801    0.908370
     22          1           0        4.222843   -0.880333    0.000846
 ---------------------------------------------------------------------
                    Distance matrix (angstroms):
                    1          2          3          4          5
     1  O    0.000000
     2  C    4.391511   0.000000
     3  C    5.323819   1.528683   0.000000
     4  C    2.878499   1.528843   2.555026   0.000000
     5  C    6.775128   2.559411   1.528932   3.926423   0.000000
     6  C    2.409712   2.544932   3.914752   1.523507   5.104343
     7  C    7.835454   3.924426   2.553072   5.108079   1.527486
     8  C    1.203830   3.911755   5.113350   2.558814   6.440128
     9  H    4.807684   1.096385   2.154269   2.157455   2.783718
    10  H    4.806353   1.096390   2.154201   2.157386   2.783331
    11  H    5.294174   2.154623   1.096049   2.778568   2.154648
    12  H    5.295867   2.154680   1.096052   2.778979   2.154679
    13  H    2.817077   2.161078   2.789533   1.093373   4.219019
    14  H    2.815143   2.161037   2.789056   1.093359   4.218429
    15  H    7.049406   2.783278   2.153724   4.209699   1.095310
    16  H    7.050977   2.783798   2.153754   4.210314   1.095312
    17  H    3.093657   2.804672   4.234452   2.180023   5.256016
    18  H    3.094446   2.805428   4.235343   2.180137   5.257295
    19  H    8.824538   4.731682   3.502299   6.034675   2.178143
    20  H    7.863645   4.247218   2.821378   5.268932   2.175747
    21  H    7.864995   4.247555   2.821347   5.269382   2.175772
    22  H    2.008238   4.754273   6.070182   3.544497   7.312839
                    6          7          8          9         10
     6  C    0.000000
     7  C    6.433059   0.000000
     8  C    1.505231   7.666362   0.000000
     9  H    2.772277   4.208668   4.188390   0.000000
    10  H    2.771792   4.208032   4.187468   1.750929   0.000000
    11  H    4.198598   2.776246   5.236347   3.057742   2.507084
    12  H    4.199217   2.776750   5.237486   2.507005   3.057737
    13  H    2.146026   5.233325   2.789662   2.516554   3.063438
    14  H    2.145972   5.232337   2.788817   3.063452   2.516729
    15  H    5.219687   2.155494   6.609604   3.099474   2.557580
    16  H    5.220703   2.155525   6.610942   2.558567   3.099733
    17  H    1.098671   6.646773   2.103382   3.115783   2.581614
    18  H    1.098625   6.648247   2.103585   2.582995   3.116139
    19  H    7.274849   1.091803   8.578549   4.885930   4.885272
    20  H    6.652405   1.092896   7.794690   4.769130   4.433034
    21  H    6.653192   1.092891   7.795794   4.434126   4.768862
    22  H    2.212079   8.612355   1.112124   4.900746   4.900024
                   11         12         13         14         15
    11  H    0.000000
    12  H    1.750214   0.000000
    13  H    3.102786   2.565031   0.000000
    14  H    2.564070   3.102657   1.742623   0.000000
    15  H    2.506549   3.056889   4.743410   4.409852   0.000000
    16  H    3.056888   2.506241   4.410752   4.743430   1.749816
    17  H    4.427356   4.758747   3.071999   2.532076   5.139179
    18  H    4.758971   4.428618   2.531809   3.072012   5.428036
    19  H    3.779202   3.779550   6.209483   6.208541   2.496456
    20  H    2.599274   3.137776   5.453803   5.163342   2.520628
    21  H    3.136927   2.599781   5.164812   5.453028   3.072241
    22  H    6.240858   6.241791   3.822072   3.821749   7.406825
                   16         17         18         19         20
    16  H    0.000000
    17  H    5.427802   0.000000
    18  H    5.141545   1.736743   0.000000
    19  H    2.496427   7.412133   7.413719   0.000000
    20  H    3.072245   6.810877   7.033477   1.763745   0.000000
    21  H    2.520779   7.032833   6.813159   1.763748   1.762888
    22  H    7.408124   2.478561   2.478172   9.478778   8.777802
                   21         22
    21  H    0.000000
    22  H    8.778883   0.000000
 Stoichiometry    C7H14O
 Framework group  C1[X(C7H14O)]
 Deg. of freedom    60
 Full point group                 C1      NOp   1
 RotChk:  IX=0 Diff= 1.05D-15
 Largest Abelian subgroup         C1      NOp   1
 Largest concise Abelian subgroup C1      NOp   1
                         Standard orientation:                         
 ---------------------------------------------------------------------
 Center     Atomic      Atomic             Coordinates (Angstroms)
 Number     Number       Type             X           Y           Z
 ---------------------------------------------------------------------
      1          8           0       -3.639634   -1.076948   -0.000658
      2          6           0        0.413942    0.612399    0.000353
      3          6           0        1.629346   -0.314782    0.001032
      4          6           0       -0.919393   -0.135651    0.001344
      5          6           0        2.966588    0.426441   -0.000571
      6          6           0       -2.124309    0.796685   -0.000111
      7          6           0        4.175116   -0.507729   -0.000709
      8          6           0       -3.465970    0.114290   -0.000540
      9          1           0        0.462975    1.271560    0.875089
     10          1           0        0.462626    1.269656   -0.875839
     11          1           0        1.581127   -0.974095   -0.873213
     12          1           0        1.581945   -0.971870    0.876999
     13          1           0       -0.976800   -0.792439    0.873581
     14          1           0       -0.976669   -0.794880   -0.869040
     15          1           0        3.013382    1.082948   -0.876079
     16          1           0        3.014691    1.084455    0.873736
     17          1           0       -2.111291    1.468755   -0.869151
     18          1           0       -2.112342    1.470427    0.867591
     19          1           0        5.112355    0.052286   -0.001812
     20          1           0        4.174118   -1.154511   -0.881670
     21          1           0        4.175392   -1.153188    0.881217
     22          1           0       -4.336365    0.806556   -0.000933
 ---------------------------------------------------------------------
 Rotational constants (GHZ):           8.0214092           0.5664920           0.5395725
 Leave Link  202 at Wed Feb  7 19:41:23 2024, MaxMem=  6710886400 cpu:               0.1 elap:               0.0
 (Enter /tmpu/scunam/7/gaussian-2016.03/g1/g16/l301.exe)
 Standard basis: def2TZVP (5D, 7F)
 Ernie: Thresh=  0.10000D-02 Tol=  0.10000D-05 Strict=F.
 There are   372 symmetry adapted cartesian basis functions of A   symmetry.
 There are   332 symmetry adapted basis functions of A   symmetry.
   332 basis functions,   520 primitive gaussians,   372 cartesian basis functions
    32 alpha electrons       32 beta electrons
       nuclear repulsion energy       360.1463019381 Hartrees.
 IExCor=  402 DFT=T Ex+Corr=B3LYP ExCW=0 ScaHFX=  0.200000
 ScaDFX=  0.800000  0.720000  1.000000  0.810000 ScalE2=  1.000000  1.000000
 IRadAn=      5 IRanWt=     -1 IRanGd=            0 ICorTp=0 IEmpDi=  4
 NAtoms=   22 NActive=   22 NUniq=   22 SFac= 1.00D+00 NAtFMM=   60 NAOKFM=F Big=F
 Integral buffers will be    131072 words long.
 Raffenetti 2 integral format.
 Two-electron integral symmetry is turned on.
 Leave Link  301 at Wed Feb  7 19:41:23 2024, MaxMem=  6710886400 cpu:               0.7 elap:               0.1
 (Enter /tmpu/scunam/7/gaussian-2016.03/g1/g16/l302.exe)
 NPDir=0 NMtPBC=     1 NCelOv=     1 NCel=       1 NClECP=     1 NCelD=      1
         NCelK=      1 NCelE2=     1 NClLst=     1 CellRange=     0.0.
 One-electron integrals computed using PRISM.
 One-electron integral symmetry used in STVInt
   1 Symmetry operations used in ECPInt.
 ECPInt:  NShTT=   10440 NPrTT=   30108 LenC2=    9710 LenP2D=   21945.
 LDataN:  DoStor=T MaxTD1= 6 Len=  172
 NBasis=   332 RedAO= T EigKep=  8.35D-05  NBF=   332
 NBsUse=   332 1.00D-06 EigRej= -1.00D+00 NBFU=   332
 Precomputing XC quadrature grid using
 IXCGrd= 4 IRadAn=           5 IRanWt=          -1 IRanGd=           0 AccXCQ= 0.00D+00.
 Generated NRdTot=       0 NPtTot=           0 NUsed=           0 NTot=          32
 NSgBfM=   367   367   367   367   367 MxSgAt=    22 MxSgA2=    22.
 Leave Link  302 at Wed Feb  7 19:41:24 2024, MaxMem=  6710886400 cpu:               5.1 elap:               0.3
 (Enter /tmpu/scunam/7/gaussian-2016.03/g1/g16/l303.exe)
 DipDrv:  MaxL=1.
 Leave Link  303 at Wed Feb  7 19:41:24 2024, MaxMem=  6710886400 cpu:               0.7 elap:               0.1
 (Enter /tmpu/scunam/7/gaussian-2016.03/g1/g16/l401.exe)
 Initial guess from the checkpoint file:  "Heptanal.chk"
 B after Tr=     0.000000    0.000000    0.000000
         Rot=    1.000000    0.000000   -0.000000   -0.000000 Ang=   0.00 deg.
 Guess basis will be translated and rotated to current coordinates.
 JPrj=2 DoOrth=T DoCkMO=T.
 Leave Link  401 at Wed Feb  7 19:41:24 2024, MaxMem=  6710886400 cpu:               3.6 elap:               0.3
 (Enter /tmpu/scunam/7/gaussian-2016.03/g1/g16/l502.exe)
 Integral symmetry usage will be decided dynamically.
 Closed shell SCF:
 Using DIIS extrapolation, IDIIS=  1040.
 NGot=  6710886400 LenX=  6710600118 LenY=  6710461293
 Requested convergence on RMS density matrix=1.00D-08 within 128 cycles.
 Requested convergence on MAX density matrix=1.00D-06.
 Requested convergence on             energy=1.00D-06.
 No special actions if energy rises.
 Fock matrices will be formed incrementally for  20 cycles.

 Cycle   1  Pass 1  IDiag  1:
 FoFJK:  IHMeth= 1 ICntrl=       0 DoSepK=F KAlg= 0 I1Cent=           0 FoldK=F
 IRaf= 890000000 NMat=       1 IRICut=       1 DoRegI=T DoRafI=F ISym2E= 0 IDoP0=0 IntGTp=1.
 FoFCou: FMM=F IPFlag=           0 FMFlag=      100000 FMFlg1=           0
         NFxFlg=           0 DoJE=F BraDBF=F KetDBF=F FulRan=T
         wScrn=  0.000000 ICntrl=         0 IOpCl=  0 I1Cent=           0 NGrid=           0
         NMat0=    1 NMatS0=      1 NMatT0=    0 NMatD0=    1 NMtDS0=    0 NMtDT0=    0
 Symmetry not used in FoFCou.
 E= -350.539729746356    
 DIIS: error= 1.12D-08 at cycle   1 NSaved=   1.
 NSaved= 1 IEnMin= 1 EnMin= -350.539729746356     IErMin= 1 ErrMin= 1.12D-08
 ErrMax= 1.12D-08  0.00D+00 EMaxC= 1.00D-01 BMatC= 5.16D-14 BMatP= 5.16D-14
 IDIUse=1 WtCom= 1.00D+00 WtEn= 0.00D+00
 Coeff-Com:  0.100D+01
 Coeff:      0.100D+01
 Gap=     0.231 Goal=   None    Shift=    0.000
 RMSDP=1.27D-09 MaxDP=3.42D-08              OVMax= 8.68D-08

 SCF Done:  E(RB3LYP) =  -350.539729746     A.U. after    1 cycles
            NFock=  1  Conv=0.13D-08     -V/T= 2.0054
 KE= 3.486728038696D+02 PE=-1.534909349013D+03 EE= 4.755505134585D+02
 Leave Link  502 at Wed Feb  7 19:41:28 2024, MaxMem=  6710886400 cpu:              64.0 elap:               4.0
 (Enter /tmpu/scunam/7/gaussian-2016.03/g1/g16/l508.exe)
 QCSCF skips out because SCF is already converged.
 Leave Link  508 at Wed Feb  7 19:41:28 2024, MaxMem=  6710886400 cpu:               0.0 elap:               0.0
 (Enter /tmpu/scunam/7/gaussian-2016.03/g1/g16/l801.exe)
 DoSCS=F DFT=T ScalE2(SS,OS)=  1.000000  1.000000
 Range of M.O.s used for correlation:     1   332
 NBasis=   332 NAE=    32 NBE=    32 NFC=     0 NFV=     0
 NROrb=    332 NOA=    32 NOB=    32 NVA=   300 NVB=   300

 **** Warning!!: The largest alpha MO coefficient is  0.30187982D+02

 Leave Link  801 at Wed Feb  7 19:41:28 2024, MaxMem=  6710886400 cpu:               0.3 elap:               0.0
 (Enter /tmpu/scunam/7/gaussian-2016.03/g1/g16/l1002.exe)
 Minotr:  Closed shell wavefunction.
          Direct CPHF calculation.
          Differentiating once with respect to electric field.
                with respect to dipole field.
          Electric field/nuclear overlap derivatives assumed to be zero.
          Requested convergence is 1.0D-08 RMS, and 1.0D-07 maximum.
          Secondary convergence is 1.0D-12 RMS, and 1.0D-12 maximum.
          NewPWx=F KeepS1=T KeepF1=T KeepIn=T MapXYZ=F SortEE=F KeepMc=T.
         6648 words used for storage of precomputed grid.
 Two-electron integral symmetry used by symmetrizing perturbed Fock matrices.
          MDV=    6710886400 using IRadAn=       1.
          Solving linear equations simultaneously, MaxMat=     384.
          There are     3 degrees of freedom in the 1st order CPHF.  IDoFFX=0 NUNeed=     3.
      3 vectors produced by pass  0 Test12= 3.20D-13 3.33D-08 XBig12= 6.56D+01 2.46D+00.
 AX will form     3 AO Fock derivatives at one time.
 FoFJK:  IHMeth= 1 ICntrl=       0 DoSepK=F KAlg= 0 I1Cent=           0 FoldK=F
 IRaf= 870000000 NMat=       3 IRICut=       1 DoRegI=T DoRafI=F ISym2E=-1 IDoP0=0 IntGTp=1.
 FoFCou: FMM=F IPFlag=           0 FMFlag=      100000 FMFlg1=           0
         NFxFlg=           0 DoJE=F BraDBF=F KetDBF=F FulRan=T
         wScrn=  0.000000 ICntrl=         0 IOpCl=  0 I1Cent=           0 NGrid=           0
         NMat0=    3 NMatS0=      3 NMatT0=    0 NMatD0=    3 NMtDS0=    0 NMtDT0=    0
 Petite list used in FoFCou.
      3 vectors produced by pass  1 Test12= 3.20D-13 3.33D-08 XBig12= 2.14D+01 1.91D+00.
      3 vectors produced by pass  2 Test12= 3.20D-13 3.33D-08 XBig12= 9.35D+00 6.30D-01.
      3 vectors produced by pass  3 Test12= 3.20D-13 3.33D-08 XBig12= 7.99D-01 1.37D-01.
      3 vectors produced by pass  4 Test12= 3.20D-13 3.33D-08 XBig12= 1.42D-01 5.59D-02.
      3 vectors produced by pass  5 Test12= 3.20D-13 3.33D-08 XBig12= 1.19D-02 1.54D-02.
      3 vectors produced by pass  6 Test12= 3.20D-13 3.33D-08 XBig12= 1.34D-03 4.83D-03.
      3 vectors produced by pass  7 Test12= 3.20D-13 3.33D-08 XBig12= 1.93D-04 1.52D-03.
      3 vectors produced by pass  8 Test12= 3.20D-13 3.33D-08 XBig12= 2.37D-05 7.58D-04.
      3 vectors produced by pass  9 Test12= 3.20D-13 3.33D-08 XBig12= 1.83D-06 2.11D-04.
      3 vectors produced by pass 10 Test12= 3.20D-13 3.33D-08 XBig12= 9.40D-08 4.91D-05.
      3 vectors produced by pass 11 Test12= 3.20D-13 3.33D-08 XBig12= 3.36D-09 9.71D-06.
      3 vectors produced by pass 12 Test12= 3.20D-13 3.33D-08 XBig12= 6.13D-11 1.11D-06.
      2 vectors produced by pass 13 Test12= 3.20D-13 3.33D-08 XBig12= 2.25D-12 2.03D-07.
      1 vectors produced by pass 14 Test12= 3.20D-13 3.33D-08 XBig12= 3.80D-14 3.60D-08.
 InvSVY:  IOpt=1 It=  1 EMax= 1.78D-15
 Solved reduced A of dimension    42 with     3 vectors.
 End of Minotr F.D. properties file   721 does not exist.
 End of Minotr F.D. properties file   722 does not exist.
 End of Minotr F.D. properties file   788 does not exist.
 Leave Link 1002 at Wed Feb  7 19:42:32 2024, MaxMem=  6710886400 cpu:            1029.9 elap:              64.4
 (Enter /tmpu/scunam/7/gaussian-2016.03/g1/g16/l1101.exe)
 Using compressed storage, NAtomX=    22.
 Will process     23 centers per pass.
   1 Symmetry operations used in ECPInt.
 ECPInt:  NShTT=   10440 NPrTT=   30108 LenC2=    9710 LenP2D=   21945.
 LDataN:  DoStor=T MaxTD1= 7 Len=  274
 Leave Link 1101 at Wed Feb  7 19:42:33 2024, MaxMem=  6710886400 cpu:               7.5 elap:               0.5
 (Enter /tmpu/scunam/7/gaussian-2016.03/g1/g16/l1102.exe)
 Symmetrizing basis deriv contribution to polar:
 IMax=3 JMax=2 DiffMx= 0.00D+00
 Leave Link 1102 at Wed Feb  7 19:42:33 2024, MaxMem=  6710886400 cpu:               0.6 elap:               0.1
 (Enter /tmpu/scunam/7/gaussian-2016.03/g1/g16/l1110.exe)
 Forming Gx(P) for the SCF density, NAtomX=    22.
 Integral derivatives from FoFJK, PRISM(SPDF).
 Do as many integral derivatives as possible in FoFJK.
 G2DrvN: MDV=    6710884680.
 G2DrvN: will do    23 centers at a time, making    1 passes.
 PxScal for G2LodP:  IOpCl= 0 ISclPx=1 IMOff=     1 NMtTot=     4 NTT=   55278 ScalPx= 8.53D+00
 Calling FoFCou, ICntrl=  3107 FMM=F I1Cent=   0 AccDes= 0.00D+00.
 FoFJK:  IHMeth= 1 ICntrl=    3107 DoSepK=F KAlg= 0 I1Cent=           0 FoldK=F
 IRaf=         0 NMat=       1 IRICut=       1 DoRegI=T DoRafI=F ISym2E= 0 IDoP0=0 IntGTp=1.
 FoFCou: FMM=F IPFlag=           0 FMFlag=      100000 FMFlg1=           0
         NFxFlg=           0 DoJE=F BraDBF=F KetDBF=F FulRan=T
         wScrn=  0.000000 ICntrl=      3107 IOpCl=  0 I1Cent=           0 NGrid=           0
         NMat0=    1 NMatS0=      1 NMatT0=    0 NMatD0=    4 NMtDS0=    3 NMtDT0=    0
 Symmetry not used in FoFCou.
 End of G2Drv F.D. properties file   721 does not exist.
 End of G2Drv F.D. properties file   722 does not exist.
 End of G2Drv F.D. properties file   788 does not exist.
 Leave Link 1110 at Wed Feb  7 19:44:25 2024, MaxMem=  6710886400 cpu:            1793.0 elap:             112.1
 (Enter /tmpu/scunam/7/gaussian-2016.03/g1/g16/l1002.exe)
 Minotr:  Closed shell wavefunction.
          IDoAtm=1111111111111111111111
          Direct CPHF calculation.
          Differentiating once with respect to electric field.
                with respect to dipole field.
          Differentiating once with respect to nuclear coordinates.
          Requested convergence is 1.0D-08 RMS, and 1.0D-07 maximum.
          Secondary convergence is 1.0D-12 RMS, and 1.0D-12 maximum.
          NewPWx=T KeepS1=F KeepF1=F KeepIn=T MapXYZ=F SortEE=F KeepMc=T.
         6648 words used for storage of precomputed grid.
 Keep R1 ints in memory in canonical form, NReq=1553815130.
 FoFCou: FMM=F IPFlag=           0 FMFlag=           0 FMFlg1=           0
         NFxFlg=           0 DoJE=F BraDBF=F KetDBF=F FulRan=T
         wScrn=  0.000000 ICntrl=       600 IOpCl=  0 I1Cent=           0 NGrid=           0
         NMat0=    1 NMatS0=  55278 NMatT0=    0 NMatD0=    1 NMtDS0=    0 NMtDT0=    0
 Symmetry not used in FoFCou.
 Two-electron integral symmetry not used.
          MDV=    6710886400 using IRadAn=       1.
          Solving linear equations simultaneously, MaxMat=       0.
          There are    69 degrees of freedom in the 1st order CPHF.  IDoFFX=5 NUNeed=    69.
 Will reuse    3 saved solutions.
     63 vectors produced by pass  0 Test12= 1.39D-14 1.45D-09 XBig12= 9.52D-02 1.40D-01.
 AX will form    63 AO Fock derivatives at one time.
     63 vectors produced by pass  1 Test12= 1.39D-14 1.45D-09 XBig12= 5.83D-03 1.66D-02.
     63 vectors produced by pass  2 Test12= 1.39D-14 1.45D-09 XBig12= 1.16D-04 2.67D-03.
     63 vectors produced by pass  3 Test12= 1.39D-14 1.45D-09 XBig12= 3.09D-07 9.58D-05.
     63 vectors produced by pass  4 Test12= 1.39D-14 1.45D-09 XBig12= 7.35D-10 3.29D-06.
     42 vectors produced by pass  5 Test12= 1.39D-14 1.45D-09 XBig12= 9.76D-13 1.26D-07.
     12 vectors produced by pass  6 Test12= 1.39D-14 1.45D-09 XBig12= 1.09D-15 4.85D-09.
 InvSVY:  IOpt=1 It=  1 EMax= 3.61D-16
 Solved reduced A of dimension   369 with    69 vectors.
 FullF1:  Do perturbations      1 to       3.
 Isotropic polarizability for W=    0.000000       88.79 Bohr**3.
 FullF1:  Do perturbations      1 to       6.
 End of Minotr F.D. properties file   721 does not exist.
 End of Minotr F.D. properties file   722 does not exist.
 End of Minotr F.D. properties file   788 does not exist.
 Leave Link 1002 at Wed Feb  7 19:46:11 2024, MaxMem=  6710886400 cpu:            1695.4 elap:             106.0
 (Enter /tmpu/scunam/7/gaussian-2016.03/g1/g16/l601.exe)
 Copying SCF densities to generalized density rwf, IOpCl= 0 IROHF=0.

 **********************************************************************

            Population analysis using the SCF density.

 **********************************************************************

 Orbital symmetries:
       Occupied  (A) (A) (A) (A) (A) (A) (A) (A) (A) (A) (A) (A)
                 (A) (A) (A) (A) (A) (A) (A) (A) (A) (A) (A) (A)
                 (A) (A) (A) (A) (A) (A) (A) (A)
       Virtual   (A) (A) (A) (A) (A) (A) (A) (A) (A) (A) (A) (A)
                 (A) (A) (A) (A) (A) (A) (A) (A) (A) (A) (A) (A)
                 (A) (A) (A) (A) (A) (A) (A) (A) (A) (A) (A) (A)
                 (A) (A) (A) (A) (A) (A) (A) (A) (A) (A) (A) (A)
                 (A) (A) (A) (A) (A) (A) (A) (A) (A) (A) (A) (A)
                 (A) (A) (A) (A) (A) (A) (A) (A) (A) (A) (A) (A)
                 (A) (A) (A) (A) (A) (A) (A) (A) (A) (A) (A) (A)
                 (A) (A) (A) (A) (A) (A) (A) (A) (A) (A) (A) (A)
                 (A) (A) (A) (A) (A) (A) (A) (A) (A) (A) (A) (A)
                 (A) (A) (A) (A) (A) (A) (A) (A) (A) (A) (A) (A)
                 (A) (A) (A) (A) (A) (A) (A) (A) (A) (A) (A) (A)
                 (A) (A) (A) (A) (A) (A) (A) (A) (A) (A) (A) (A)
                 (A) (A) (A) (A) (A) (A) (A) (A) (A) (A) (A) (A)
                 (A) (A) (A) (A) (A) (A) (A) (A) (A) (A) (A) (A)
                 (A) (A) (A) (A) (A) (A) (A) (A) (A) (A) (A) (A)
                 (A) (A) (A) (A) (A) (A) (A) (A) (A) (A) (A) (A)
                 (A) (A) (A) (A) (A) (A) (A) (A) (A) (A) (A) (A)
                 (A) (A) (A) (A) (A) (A) (A) (A) (A) (A) (A) (A)
                 (A) (A) (A) (A) (A) (A) (A) (A) (A) (A) (A) (A)
                 (A) (A) (A) (A) (A) (A) (A) (A) (A) (A) (A) (A)
                 (A) (A) (A) (A) (A) (A) (A) (A) (A) (A) (A) (A)
                 (A) (A) (A) (A) (A) (A) (A) (A) (A) (A) (A) (A)
                 (A) (A) (A) (A) (A) (A) (A) (A) (A) (A) (A) (A)
                 (A) (A) (A) (A) (A) (A) (A) (A) (A) (A) (A) (A)
                 (A) (A) (A) (A) (A) (A) (A) (A) (A) (A) (A) (A)
 The electronic state is 1-A.
 Alpha  occ. eigenvalues --  -19.12887 -10.26400 -10.18768 -10.17240 -10.17048
 Alpha  occ. eigenvalues --  -10.16730 -10.16620 -10.15957  -1.05560  -0.81904
 Alpha  occ. eigenvalues --   -0.78687  -0.73533  -0.67084  -0.60852  -0.58303
 Alpha  occ. eigenvalues --   -0.56028  -0.49319  -0.48699  -0.46588  -0.45078
 Alpha  occ. eigenvalues --   -0.42964  -0.42512  -0.40439  -0.38872  -0.38493
 Alpha  occ. eigenvalues --   -0.36126  -0.35555  -0.33814  -0.33495  -0.32821
 Alpha  occ. eigenvalues --   -0.32650  -0.26253
 Alpha virt. eigenvalues --   -0.03129   0.02533   0.03802   0.05423   0.06058
 Alpha virt. eigenvalues --    0.06460   0.08373   0.09113   0.09973   0.11474
 Alpha virt. eigenvalues --    0.11961   0.12151   0.12795   0.13792   0.14237
 Alpha virt. eigenvalues --    0.15135   0.16004   0.16680   0.17677   0.19467
 Alpha virt. eigenvalues --    0.20429   0.21722   0.23388   0.24266   0.25921
 Alpha virt. eigenvalues --    0.26972   0.27218   0.27652   0.29158   0.29551
 Alpha virt. eigenvalues --    0.30011   0.30477   0.32379   0.33478   0.36691
 Alpha virt. eigenvalues --    0.37709   0.39260   0.39574   0.39941   0.40255
 Alpha virt. eigenvalues --    0.42067   0.42719   0.43299   0.43961   0.44707
 Alpha virt. eigenvalues --    0.45719   0.45787   0.46101   0.46631   0.46765
 Alpha virt. eigenvalues --    0.48347   0.48491   0.48661   0.49853   0.50241
 Alpha virt. eigenvalues --    0.51460   0.54150   0.54439   0.57297   0.58375
 Alpha virt. eigenvalues --    0.59283   0.60265   0.61272   0.64015   0.67742
 Alpha virt. eigenvalues --    0.68954   0.70392   0.71655   0.76198   0.76921
 Alpha virt. eigenvalues --    0.79102   0.81163   0.82356   0.83350   0.83863
 Alpha virt. eigenvalues --    0.85553   0.85789   0.88323   0.89083   0.89150
 Alpha virt. eigenvalues --    0.97526   0.97972   0.98478   0.99261   1.03619
 Alpha virt. eigenvalues --    1.05985   1.07130   1.07818   1.08865   1.09037
 Alpha virt. eigenvalues --    1.10218   1.10403   1.11131   1.12905   1.15800
 Alpha virt. eigenvalues --    1.22166   1.22174   1.23182   1.28208   1.29352
 Alpha virt. eigenvalues --    1.30949   1.31724   1.34365   1.41071   1.41308
 Alpha virt. eigenvalues --    1.46463   1.47997   1.50447   1.51592   1.51799
 Alpha virt. eigenvalues --    1.52864   1.53682   1.54391   1.54781   1.55443
 Alpha virt. eigenvalues --    1.58678   1.59138   1.59531   1.60231   1.61423
 Alpha virt. eigenvalues --    1.62757   1.66975   1.72339   1.72976   1.77210
 Alpha virt. eigenvalues --    1.81562   1.81625   1.83373   1.84149   1.84272
 Alpha virt. eigenvalues --    1.86154   1.86429   1.87885   1.88755   1.91389
 Alpha virt. eigenvalues --    1.92082   1.92143   1.93075   1.93833   1.96802
 Alpha virt. eigenvalues --    2.00252   2.03947   2.04300   2.07974   2.11690
 Alpha virt. eigenvalues --    2.12664   2.13524   2.16953   2.18754   2.20367
 Alpha virt. eigenvalues --    2.24039   2.25823   2.28761   2.30209   2.32569
 Alpha virt. eigenvalues --    2.33773   2.35326   2.35725   2.37565   2.40687
 Alpha virt. eigenvalues --    2.44460   2.45496   2.45771   2.46325   2.46984
 Alpha virt. eigenvalues --    2.50301   2.51847   2.52769   2.54188   2.54709
 Alpha virt. eigenvalues --    2.56738   2.58548   2.58901   2.59910   2.60714
 Alpha virt. eigenvalues --    2.61683   2.64428   2.65288   2.66821   2.67724
 Alpha virt. eigenvalues --    2.69967   2.70333   2.70528   2.72532   2.72858
 Alpha virt. eigenvalues --    2.74338   2.74668   2.77130   2.78333   2.81288
 Alpha virt. eigenvalues --    2.83576   2.87080   2.88733   2.93024   2.97352
 Alpha virt. eigenvalues --    2.98926   2.99290   3.01428   3.03269   3.07285
 Alpha virt. eigenvalues --    3.07550   3.08641   3.12016   3.12077   3.14904
 Alpha virt. eigenvalues --    3.16015   3.17076   3.17570   3.18989   3.21014
 Alpha virt. eigenvalues --    3.22899   3.24236   3.24431   3.27411   3.28455
 Alpha virt. eigenvalues --    3.29530   3.29546   3.30289   3.32321   3.38644
 Alpha virt. eigenvalues --    3.39666   3.39953   3.40130   3.40592   3.40882
 Alpha virt. eigenvalues --    3.42548   3.46544   3.46641   3.50377   3.50782
 Alpha virt. eigenvalues --    3.53073   3.54116   3.57284   3.58571   3.60119
 Alpha virt. eigenvalues --    3.60321   3.61330   3.61903   3.66411   3.72048
 Alpha virt. eigenvalues --    3.74571   3.79853   3.83557   3.84606   3.87550
 Alpha virt. eigenvalues --    3.88002   3.88734   3.90284   3.90705   3.91946
 Alpha virt. eigenvalues --    3.95330   4.00705   4.03470   4.04783   4.07123
 Alpha virt. eigenvalues --    4.10020   4.15272   4.21885   4.26777   4.31032
 Alpha virt. eigenvalues --    4.33358   4.34047   4.41021   4.46650   4.49031
 Alpha virt. eigenvalues --    4.53082   4.53365   4.57719   4.60738   4.61638
 Alpha virt. eigenvalues --    4.62733   4.63409   4.65905   4.68391   4.71697
 Alpha virt. eigenvalues --    4.76096   4.90053   4.94645   5.15100   5.17459
 Alpha virt. eigenvalues --    5.19548   5.21705   5.56028   5.65466   6.10922
 Alpha virt. eigenvalues --    6.31512   6.33601   6.40729   6.46025   6.78265
 Alpha virt. eigenvalues --    6.92683   7.04471  22.27452  22.32717  22.40628
 Alpha virt. eigenvalues --   22.45895  22.48133  22.49319  22.70626  43.74171
          Condensed to atoms (all electrons):
               1          2          3          4          5          6
     1  O    7.770977   0.000603   0.000212   0.027367   0.000001  -0.163415
     2  C    0.000603   4.999084   0.316902   0.303374  -0.048501  -0.042146
     3  C    0.000212   0.316902   5.003933  -0.051810   0.316436   0.005527
     4  C    0.027367   0.303374  -0.051810   4.994370   0.010965   0.175205
     5  C    0.000001  -0.048501   0.316436   0.010965   4.948145  -0.000691
     6  C   -0.163415  -0.042146   0.005527   0.175205  -0.000691   5.683091
     7  C   -0.000000   0.012681  -0.057208  -0.000845   0.311475   0.000030
     8  C    0.672132   0.007293   0.000505   0.007137   0.000021   0.090776
     9  H   -0.000024   0.402429  -0.038723  -0.037361  -0.005439  -0.005333
    10  H   -0.000023   0.402486  -0.038741  -0.037415  -0.005453  -0.005354
    11  H   -0.000031  -0.041556   0.408018  -0.005032  -0.041707   0.000427
    12  H   -0.000030  -0.041509   0.407971  -0.005035  -0.041682   0.000426
    13  H    0.005776  -0.049858  -0.002787   0.422193  -0.000162  -0.044948
    14  H    0.005817  -0.049915  -0.002788   0.422305  -0.000162  -0.045003
    15  H   -0.000000  -0.005376  -0.045937  -0.000198   0.411560   0.000017
    16  H   -0.000000  -0.005373  -0.045904  -0.000199   0.411540   0.000017
    17  H    0.003601  -0.004650  -0.000017  -0.029385  -0.000003   0.357860
    18  H    0.003612  -0.004667  -0.000016  -0.029365  -0.000003   0.357931
    19  H    0.000000  -0.000953   0.013549   0.000039  -0.049857  -0.000001
    20  H    0.000000  -0.000121  -0.006831  -0.000020  -0.040236   0.000001
    21  H    0.000000  -0.000120  -0.006825  -0.000020  -0.040237   0.000001
    22  H   -0.061331  -0.000566   0.000075   0.024534  -0.000000  -0.237995
               7          8          9         10         11         12
     1  O   -0.000000   0.672132  -0.000024  -0.000023  -0.000031  -0.000030
     2  C    0.012681   0.007293   0.402429   0.402486  -0.041556  -0.041509
     3  C   -0.057208   0.000505  -0.038723  -0.038741   0.408018   0.407971
     4  C   -0.000845   0.007137  -0.037361  -0.037415  -0.005032  -0.005035
     5  C    0.311475   0.000021  -0.005439  -0.005453  -0.041707  -0.041682
     6  C    0.000030   0.090776  -0.005333  -0.005354   0.000427   0.000426
     7  C    4.912615  -0.000001  -0.000013  -0.000012  -0.004244  -0.004240
     8  C   -0.000001   4.684384  -0.000461  -0.000459  -0.000089  -0.000089
     9  H   -0.000013  -0.000461   0.629021  -0.037972   0.009254  -0.006688
    10  H   -0.000012  -0.000459  -0.037972   0.629045  -0.006682   0.009254
    11  H   -0.004244  -0.000089   0.009254  -0.006682   0.623154  -0.035774
    12  H   -0.004240  -0.000089  -0.006688   0.009254  -0.035774   0.623145
    13  H   -0.000008  -0.002108  -0.005512   0.008198   0.000334   0.003650
    14  H   -0.000008  -0.002105   0.008192  -0.005501   0.003652   0.000335
    15  H   -0.039010  -0.000001   0.000238   0.004559  -0.006927   0.009550
    16  H   -0.038999  -0.000001   0.004552   0.000237   0.009550  -0.006939
    17  H    0.000000  -0.010935   0.000386   0.003110   0.000124  -0.000054
    18  H    0.000000  -0.010964   0.003100   0.000387  -0.000055   0.000123
    19  H    0.416893   0.000000   0.000008   0.000008  -0.000183  -0.000184
    20  H    0.408195   0.000000  -0.000024   0.000113   0.004777   0.000123
    21  H    0.408185   0.000000   0.000112  -0.000024   0.000122   0.004774
    22  H    0.000000   0.476936  -0.000030  -0.000030  -0.000003  -0.000003
              13         14         15         16         17         18
     1  O    0.005776   0.005817  -0.000000  -0.000000   0.003601   0.003612
     2  C   -0.049858  -0.049915  -0.005376  -0.005373  -0.004650  -0.004667
     3  C   -0.002787  -0.002788  -0.045937  -0.045904  -0.000017  -0.000016
     4  C    0.422193   0.422305  -0.000198  -0.000199  -0.029385  -0.029365
     5  C   -0.000162  -0.000162   0.411560   0.411540  -0.000003  -0.000003
     6  C   -0.044948  -0.045003   0.000017   0.000017   0.357860   0.357931
     7  C   -0.000008  -0.000008  -0.039010  -0.038999   0.000000   0.000000
     8  C   -0.002108  -0.002105  -0.000001  -0.000001  -0.010935  -0.010964
     9  H   -0.005512   0.008192   0.000238   0.004552   0.000386   0.003100
    10  H    0.008198  -0.005501   0.004559   0.000237   0.003110   0.000387
    11  H    0.000334   0.003652  -0.006927   0.009550   0.000124  -0.000055
    12  H    0.003650   0.000335   0.009550  -0.006939  -0.000054   0.000123
    13  H    0.587662  -0.024441  -0.000039   0.000140   0.007962  -0.004891
    14  H   -0.024441   0.587504   0.000141  -0.000039  -0.004879   0.007961
    15  H   -0.000039   0.000141   0.630121  -0.038046  -0.000026   0.000011
    16  H    0.000140  -0.000039  -0.038046   0.630105   0.000011  -0.000026
    17  H    0.007962  -0.004879  -0.000026   0.000011   0.591510  -0.028426
    18  H   -0.004891   0.007961   0.000011  -0.000026  -0.028426   0.591447
    19  H    0.000001   0.000001  -0.004493  -0.004494   0.000000   0.000000
    20  H    0.000011  -0.000021  -0.006155   0.008713   0.000000  -0.000000
    21  H   -0.000021   0.000011   0.008714  -0.006153  -0.000000   0.000000
    22  H    0.000781   0.000787  -0.000000  -0.000000   0.008441   0.008449
              19         20         21         22
     1  O    0.000000   0.000000   0.000000  -0.061331
     2  C   -0.000953  -0.000121  -0.000120  -0.000566
     3  C    0.013549  -0.006831  -0.006825   0.000075
     4  C    0.000039  -0.000020  -0.000020   0.024534
     5  C   -0.049857  -0.040236  -0.040237  -0.000000
     6  C   -0.000001   0.000001   0.000001  -0.237995
     7  C    0.416893   0.408195   0.408185   0.000000
     8  C    0.000000   0.000000   0.000000   0.476936
     9  H    0.000008  -0.000024   0.000112  -0.000030
    10  H    0.000008   0.000113  -0.000024  -0.000030
    11  H   -0.000183   0.004777   0.000122  -0.000003
    12  H   -0.000184   0.000123   0.004774  -0.000003
    13  H    0.000001   0.000011  -0.000021   0.000781
    14  H    0.000001  -0.000021   0.000011   0.000787
    15  H   -0.004493  -0.006155   0.008714  -0.000000
    16  H   -0.004494   0.008713  -0.006153  -0.000000
    17  H    0.000000   0.000000  -0.000000   0.008441
    18  H    0.000000  -0.000000   0.000000   0.008449
    19  H    0.572993  -0.027104  -0.027107  -0.000000
    20  H   -0.027104   0.587504  -0.030713   0.000000
    21  H   -0.027107  -0.030713   0.587515   0.000000
    22  H   -0.000000   0.000000   0.000000   0.709312
 Mulliken charges:
               1
     1  O   -0.265246
     2  C   -0.149541
     3  C   -0.175539
     4  C   -0.190802
     5  C   -0.136010
     6  C   -0.126422
     7  C   -0.325486
     8  C    0.088030
     9  H    0.080290
    10  H    0.080270
    11  H    0.082871
    12  H    0.082878
    13  H    0.098069
    14  H    0.098158
    15  H    0.081298
    16  H    0.081309
    17  H    0.105371
    18  H    0.105392
    19  H    0.110887
    20  H    0.101791
    21  H    0.101786
    22  H    0.070644
 Sum of Mulliken charges =  -0.00000
 Mulliken charges with hydrogens summed into heavy atoms:
               1
     1  O   -0.265246
     2  C    0.011018
     3  C   -0.009790
     4  C    0.005426
     5  C    0.026597
     6  C    0.084341
     7  C   -0.011021
     8  C    0.158675
 APT charges:
               1
     1  O   -0.641098
     2  C    0.114679
     3  C    0.089395
     4  C    0.081398
     5  C    0.121483
     6  C   -0.062217
     7  C    0.074762
     8  C    0.770561
     9  H   -0.048450
    10  H   -0.048456
    11  H   -0.044906
    12  H   -0.044916
    13  H   -0.023856
    14  H   -0.023739
    15  H   -0.050200
    16  H   -0.050204
    17  H   -0.007459
    18  H   -0.007489
    19  H   -0.038151
    20  H   -0.026103
    21  H   -0.026102
    22  H   -0.108931
 Sum of APT charges =  -0.00000
 APT charges with hydrogens summed into heavy atoms:
               1
     1  O   -0.641098
     2  C    0.017772
     3  C   -0.000427
     4  C    0.033803
     5  C    0.021080
     6  C   -0.077165
     7  C   -0.015595
     8  C    0.661630
 Electronic spatial extent (au):  <R**2>=           2061.7734
 Charge=              0.0000 electrons
 Dipole moment (field-independent basis, Debye):
    X=              1.1597    Y=              2.4761    Z=              0.0003  Tot=              2.7343
 Quadrupole moment (field-independent basis, Debye-Ang):
   XX=            -58.8668   YY=            -54.9961   ZZ=            -50.7875
   XY=             -8.8194   XZ=             -0.0012   YZ=             -0.0002
 Traceless Quadrupole moment (field-independent basis, Debye-Ang):
   XX=             -3.9833   YY=             -0.1126   ZZ=              4.0960
   XY=             -8.8194   XZ=             -0.0012   YZ=             -0.0002
 Octapole moment (field-independent basis, Debye-Ang**2):
  XXX=              7.3300  YYY=             -0.5700  ZZZ=             -0.0005  XYY=              2.1399
  XXY=             34.1171  XXZ=              0.0079  XZZ=             -6.3929  YZZ=             -1.0648
  YYZ=              0.0011  XYZ=              0.0058
 Hexadecapole moment (field-independent basis, Debye-Ang**3):
 XXXX=          -2601.1460 YYYY=           -232.6376 ZZZZ=            -96.0224 XXXY=            -94.6592
 XXXZ=             -0.0231 YYYX=              2.9513 YYYZ=              0.0202 ZZZX=              0.0170
 ZZZY=             -0.0048 XXYY=           -485.4197 XXZZ=           -421.5976 YYZZ=            -49.3853
 XXYZ=             -0.0230 YYXZ=             -0.0053 ZZXY=              2.7576
 N-N= 3.601463019381D+02 E-N=-1.534909351521D+03  KE= 3.486728038696D+02
  Exact polarizability: 109.184  -1.746  85.637   0.001  -0.004  71.549
 Approx polarizability: 117.816   1.997 131.939   0.002  -0.003 110.772
 No NMR shielding tensors so no spin-rotation constants.
 Leave Link  601 at Wed Feb  7 19:46:12 2024, MaxMem=  6710886400 cpu:               3.2 elap:               0.2
 (Enter /tmpu/scunam/7/gaussian-2016.03/g1/g16/l701.exe)
 ... and contract with generalized density number  0.
 Compute integral second derivatives.
   1 Symmetry operations used in ECPInt.
 ECPInt:  NShTT=   10440 NPrTT=   30108 LenC2=    9710 LenP2D=   21945.
 LDataN:  DoStor=T MaxTD1= 8 Len=  415
 Leave Link  701 at Wed Feb  7 19:46:12 2024, MaxMem=  6710886400 cpu:               4.0 elap:               0.3
 (Enter /tmpu/scunam/7/gaussian-2016.03/g1/g16/l702.exe)
 L702 exits ... SP integral derivatives will be done elsewhere.
 Leave Link  702 at Wed Feb  7 19:46:12 2024, MaxMem=  6710886400 cpu:               0.3 elap:               0.0
 (Enter /tmpu/scunam/7/gaussian-2016.03/g1/g16/l703.exe)
 Integral derivatives from FoFJK, PRISM(SPDF).
 Compute integral second derivatives, UseDBF=F ICtDFT=           0.
 Calling FoFJK, ICntrl=    100127 FMM=F ISym2X=0 I1Cent= 0 IOpClX= 0 NMat=1 NMatS=1 NMatT=0.
 FoFJK:  IHMeth= 1 ICntrl=  100127 DoSepK=F KAlg= 0 I1Cent=           0 FoldK=F
 IRaf=         0 NMat=       1 IRICut=       1 DoRegI=T DoRafI=F ISym2E= 0 IDoP0=0 IntGTp=1.
 FoFCou: FMM=F IPFlag=           0 FMFlag=      100000 FMFlg1=         800
         NFxFlg=           0 DoJE=F BraDBF=F KetDBF=F FulRan=T
         wScrn=  0.000000 ICntrl=    100127 IOpCl=  0 I1Cent=           0 NGrid=           0
         NMat0=    1 NMatS0=      1 NMatT0=    0 NMatD0=    1 NMtDS0=    0 NMtDT0=    0
 Symmetry not used in FoFCou.
 Leave Link  703 at Wed Feb  7 19:48:11 2024, MaxMem=  6710886400 cpu:            1908.8 elap:             119.3
 (Enter /tmpu/scunam/7/gaussian-2016.03/g1/g16/l716.exe)
 Dipole        = 4.56266796D-01 9.74191650D-01 1.24033798D-04
 Polarizability= 1.09184396D+02-1.74634279D+00 8.56374379D+01
                 9.97605022D-04-4.22616121D-03 7.15487332D+01
 HyperPolar    =-2.25510650D+01 6.37459298D+01-1.84334368D+01
                 7.78577361D+01-9.56298473D-02 5.61084134D-03
                -2.00744060D-02 1.66320613D+01 1.17101093D+01
                 5.84483508D-02
 Full mass-weighted force constant matrix:
 Low frequencies ---   -2.6359   -0.0013   -0.0011   -0.0006    2.6867    6.0201
 Low frequencies ---   48.2681   66.1904   83.7589
 Diagonal vibrational polarizability:
       16.3109310       2.8651066      33.3255553
 Diagonal vibrational hyperpolarizability:
       53.8368492      12.6100177       0.2002044
 Harmonic frequencies (cm**-1), IR intensities (KM/Mole), Raman scattering
 activities (A**4/AMU), depolarization ratios for plane and unpolarized
 incident light, reduced masses (AMU), force constants (mDyne/A),
 and normal coordinates:
                      1                      2                      3
                      A                      A                      A
 Frequencies --     48.2678                66.1902                83.7588
 Red. masses --      2.3704                 2.4440                 4.1559
 Frc consts  --      0.0033                 0.0063                 0.0172
 IR Inten    --      1.5810                 1.8516                 2.3890
 Raman Activ --      0.0527                 0.5343                 0.2238
 Depolar (P) --      0.7500                 0.7500                 0.6799
 Depolar (U) --      0.8571                 0.8571                 0.8095
  Atom  AN      X      Y      Z        X      Y      Z        X      Y      Z
     1   8    -0.00   0.00   0.18    -0.00   0.00  -0.06     0.22  -0.15  -0.00
     2   6     0.00  -0.00  -0.04    -0.00  -0.00  -0.14    -0.01   0.21  -0.00
     3   6     0.00  -0.00  -0.13     0.00  -0.00  -0.10    -0.07   0.13  -0.00
     4   6     0.00  -0.00  -0.16     0.00  -0.00  -0.11     0.01   0.18  -0.00
     5   6     0.00   0.00   0.15    -0.00   0.00  -0.08     0.02  -0.04   0.00
     6   6     0.00  -0.00  -0.10     0.00  -0.00   0.12    -0.07   0.08   0.00
     7   6     0.00   0.00   0.04     0.00   0.00   0.20    -0.12  -0.23   0.00
     8   6    -0.00   0.00   0.04    -0.00   0.00   0.15     0.02  -0.12   0.00
     9   1    -0.02  -0.12   0.05     0.00   0.02  -0.15     0.01   0.20   0.00
    10   1     0.02   0.12   0.05    -0.00  -0.02  -0.15     0.01   0.20  -0.00
    11   1     0.08   0.18  -0.27     0.02  -0.03  -0.07    -0.13   0.13   0.00
    12   1    -0.08  -0.18  -0.27    -0.02   0.03  -0.07    -0.13   0.13  -0.00
    13   1    -0.02  -0.09  -0.23     0.08  -0.10  -0.19     0.04   0.17  -0.00
    14   1     0.02   0.09  -0.23    -0.08   0.10  -0.19     0.04   0.18   0.00
    15   1     0.08   0.20   0.31     0.09  -0.14  -0.18     0.12  -0.05  -0.00
    16   1    -0.08  -0.20   0.31    -0.09   0.14  -0.18     0.12  -0.05   0.00
    17   1    -0.07  -0.02  -0.11    -0.08   0.12   0.22    -0.15   0.07  -0.00
    18   1     0.07   0.02  -0.11     0.08  -0.12   0.22    -0.15   0.07   0.00
    19   1     0.00   0.00   0.27     0.00   0.00   0.19    -0.03  -0.38   0.00
    20   1     0.08   0.21  -0.11     0.08  -0.16   0.32    -0.23  -0.23   0.00
    21   1    -0.08  -0.21  -0.11    -0.08   0.16   0.32    -0.23  -0.23   0.00
    22   1     0.00   0.00   0.02    -0.00   0.00   0.38    -0.09  -0.26   0.00
                      4                      5                      6
                      A                      A                      A
 Frequencies --    121.4341               138.9756               183.6379
 Red. masses --      1.7478                 2.2044                 1.7165
 Frc consts  --      0.0152                 0.0251                 0.0341
 IR Inten    --      0.5086                 0.7179                 1.0620
 Raman Activ --      0.0491                 0.6412                 1.4872
 Depolar (P) --      0.7500                 0.7500                 0.7500
 Depolar (U) --      0.8571                 0.8571                 0.8571
  Atom  AN      X      Y      Z        X      Y      Z        X      Y      Z
     1   8     0.00  -0.00   0.06    -0.00   0.00  -0.04    -0.00  -0.00  -0.08
     2   6     0.00   0.00   0.16     0.00   0.00  -0.10     0.00   0.00   0.09
     3   6     0.00   0.00   0.07     0.00   0.00   0.21     0.00   0.00  -0.03
     4   6     0.00  -0.00  -0.15     0.00  -0.00  -0.14     0.00   0.00   0.03
     5   6    -0.00  -0.00  -0.08     0.00   0.00   0.10     0.00   0.00  -0.02
     6   6     0.00  -0.00  -0.03     0.00  -0.00  -0.03     0.00  -0.00  -0.14
     7   6    -0.00  -0.00   0.00    -0.00  -0.00  -0.10     0.00  -0.00   0.01
     8   6     0.00  -0.00  -0.03    -0.00  -0.00   0.11    -0.00  -0.00   0.15
     9   1    -0.09  -0.20   0.31    -0.11   0.14  -0.20     0.01  -0.10   0.16
    10   1     0.09   0.20   0.31     0.11  -0.14  -0.20    -0.01   0.10   0.16
    11   1    -0.08  -0.02   0.09     0.05  -0.21   0.36    -0.03   0.08  -0.09
    12   1     0.08   0.02   0.09    -0.05   0.21   0.36     0.03  -0.08  -0.09
    13   1    -0.09  -0.22  -0.32     0.01  -0.06  -0.19    -0.08   0.08   0.09
    14   1     0.09   0.22  -0.32    -0.01   0.06  -0.19     0.08  -0.08   0.09
    15   1    -0.04  -0.13  -0.18    -0.10   0.03   0.12     0.01  -0.01  -0.03
    16   1     0.04   0.13  -0.18     0.10  -0.03   0.12    -0.01   0.01  -0.03
    17   1    -0.02   0.09   0.04    -0.10  -0.00  -0.03    -0.08  -0.29  -0.37
    18   1     0.02  -0.09   0.04     0.10  -0.00  -0.03     0.09   0.28  -0.37
    19   1    -0.00  -0.00  -0.21    -0.00  -0.00  -0.15     0.00  -0.00  -0.04
    20   1    -0.08  -0.19   0.14    -0.10   0.08  -0.16    -0.01  -0.06   0.05
    21   1     0.08   0.19   0.14     0.09  -0.08  -0.16     0.01   0.06   0.05
    22   1     0.00  -0.00  -0.11    -0.00   0.00   0.38    -0.00   0.00   0.57
                      7                      8                      9
                      A                      A                      A
 Frequencies --    191.2856               244.0956               273.7280
 Red. masses --      4.6128                 1.1189                 3.5298
 Frc consts  --      0.0994                 0.0393                 0.1558
 IR Inten    --      5.3863                 0.0002                 0.0547
 Raman Activ --      0.5755                 0.0227                 3.3452
 Depolar (P) --      0.2600                 0.7499                 0.1888
 Depolar (U) --      0.4127                 0.8571                 0.3176
  Atom  AN      X      Y      Z        X      Y      Z        X      Y      Z
     1   8     0.32   0.01  -0.00     0.00   0.00  -0.00    -0.11  -0.07  -0.00
     2   6    -0.03  -0.13   0.00    -0.00  -0.00   0.03     0.07   0.06   0.00
     3   6    -0.10  -0.22   0.00     0.00   0.00   0.04     0.03  -0.08   0.00
     4   6    -0.10   0.06  -0.00    -0.00  -0.00  -0.01    -0.04   0.18  -0.00
     5   6    -0.18  -0.10   0.00    -0.00  -0.00  -0.08     0.10  -0.14  -0.00
     6   6    -0.01   0.17  -0.00     0.00  -0.00  -0.01    -0.17   0.07   0.00
     7   6     0.00   0.15  -0.00    -0.00   0.00   0.01     0.26   0.03  -0.00
     8   6     0.07   0.04   0.00     0.00   0.00   0.00    -0.14  -0.06  -0.00
     9   1     0.05  -0.13  -0.00    -0.01  -0.01   0.05     0.15   0.05   0.00
    10   1     0.05  -0.13   0.00     0.01   0.01   0.05     0.15   0.05  -0.00
    11   1    -0.10  -0.21  -0.01    -0.05  -0.08   0.11    -0.03  -0.08  -0.00
    12   1    -0.10  -0.21   0.01     0.05   0.08   0.10    -0.03  -0.08   0.00
    13   1    -0.20   0.06  -0.01    -0.02  -0.02  -0.02    -0.04   0.17  -0.01
    14   1    -0.20   0.06   0.00     0.02   0.02  -0.02    -0.04   0.17   0.01
    15   1    -0.29  -0.08   0.00    -0.01  -0.09  -0.15     0.07  -0.13   0.01
    16   1    -0.28  -0.08  -0.00     0.01   0.09  -0.15     0.07  -0.13  -0.01
    17   1     0.00   0.16  -0.01    -0.00  -0.01  -0.01    -0.27   0.07  -0.00
    18   1     0.01   0.16   0.01     0.00   0.01  -0.01    -0.27   0.07   0.00
    19   1    -0.12   0.36  -0.00     0.00   0.00   0.58     0.13   0.24   0.00
    20   1     0.15   0.15  -0.00     0.34   0.32  -0.22     0.41   0.04  -0.00
    21   1     0.15   0.15   0.00    -0.34  -0.33  -0.22     0.41   0.04   0.00
    22   1    -0.06  -0.12   0.00     0.00   0.00   0.02    -0.17  -0.10  -0.00
                     10                     11                     12
                      A                      A                      A
 Frequencies --    381.7752               453.7887               668.1728
 Red. masses --      3.4891                 2.9433                 1.1537
 Frc consts  --      0.2996                 0.3571                 0.3035
 IR Inten    --      5.4232                 0.1112                 2.6167
 Raman Activ --      2.5457                 0.1420                 2.4981
 Depolar (P) --      0.2658                 0.5596                 0.7500
 Depolar (U) --      0.4199                 0.7176                 0.8571
  Atom  AN      X      Y      Z        X      Y      Z        X      Y      Z
     1   8    -0.12  -0.02  -0.00    -0.06  -0.05  -0.00    -0.00  -0.00   0.02
     2   6     0.11   0.16  -0.00     0.19  -0.12   0.00    -0.00  -0.00   0.01
     3   6    -0.14  -0.08   0.00     0.15  -0.13   0.00    -0.00   0.00   0.01
     4   6     0.21   0.09  -0.00     0.04   0.13  -0.00    -0.00   0.00  -0.02
     5   6    -0.18  -0.12   0.00    -0.03   0.13  -0.00     0.00   0.00   0.00
     6   6     0.12  -0.09   0.00    -0.04   0.08  -0.00     0.00   0.00  -0.11
     7   6    -0.08   0.07  -0.00    -0.17   0.03   0.00     0.00  -0.00  -0.00
     8   6     0.10  -0.05   0.00    -0.04  -0.05  -0.00     0.00  -0.00  -0.02
     9   1     0.18   0.14   0.01     0.31  -0.12  -0.01    -0.04  -0.04   0.04
    10   1     0.18   0.14  -0.01     0.31  -0.12   0.01     0.04   0.04   0.04
    11   1    -0.26  -0.06  -0.01     0.27  -0.13  -0.01    -0.00   0.03  -0.02
    12   1    -0.26  -0.06   0.01     0.27  -0.13   0.01     0.00  -0.03  -0.02
    13   1     0.32   0.08  -0.00    -0.02   0.12  -0.01    -0.07   0.28   0.19
    14   1     0.32   0.08  -0.00    -0.02   0.12   0.01     0.07  -0.28   0.19
    15   1    -0.25  -0.10   0.01    -0.09   0.12  -0.01    -0.01  -0.02  -0.01
    16   1    -0.25  -0.10  -0.01    -0.09   0.12   0.01     0.01   0.02  -0.01
    17   1     0.07  -0.08   0.01    -0.13   0.08  -0.00     0.08   0.46   0.26
    18   1     0.07  -0.08  -0.01    -0.13   0.08   0.00    -0.08  -0.46   0.26
    19   1    -0.18   0.24   0.00    -0.03  -0.22   0.00     0.00   0.00  -0.00
    20   1     0.04   0.07  -0.00    -0.35   0.02   0.01    -0.00   0.00  -0.00
    21   1     0.04   0.07   0.00    -0.35   0.02  -0.01     0.00  -0.00  -0.00
    22   1     0.19   0.08  -0.00    -0.05  -0.05   0.00     0.00   0.00   0.41
                     13                     14                     15
                      A                      A                      A
 Frequencies --    704.9550               734.3052               761.8957
 Red. masses --      4.8959                 1.0691                 1.1376
 Frc consts  --      1.4335                 0.3396                 0.3891
 IR Inten    --     11.5076                 3.2707                 0.0937
 Raman Activ --      2.2039                 0.0407                 0.5815
 Depolar (P) --      0.5957                 0.7499                 0.7500
 Depolar (U) --      0.7466                 0.8571                 0.8571
  Atom  AN      X      Y      Z        X      Y      Z        X      Y      Z
     1   8    -0.20  -0.11  -0.00    -0.00  -0.00  -0.00     0.00   0.00   0.01
     2   6    -0.13  -0.10   0.00    -0.00  -0.00  -0.04     0.00   0.00   0.06
     3   6    -0.04   0.04  -0.00    -0.00  -0.00  -0.05     0.00  -0.00  -0.01
     4   6    -0.12   0.12   0.00    -0.00   0.00  -0.01     0.00  -0.00   0.04
     5   6     0.02   0.03  -0.00    -0.00  -0.00  -0.04    -0.00  -0.00  -0.06
     6   6     0.20   0.21   0.00     0.00   0.00   0.01    -0.00  -0.00  -0.04
     7   6     0.04  -0.02  -0.00    -0.00   0.00  -0.00    -0.00   0.00  -0.02
     8   6     0.33  -0.16   0.00     0.00  -0.00   0.01    -0.00   0.00  -0.02
     9   1    -0.18  -0.08  -0.01     0.02  -0.31   0.20     0.09   0.30  -0.17
    10   1    -0.18  -0.08   0.01    -0.02   0.31   0.19    -0.09  -0.30  -0.17
    11   1    -0.00   0.02   0.00    -0.03  -0.37   0.24    -0.15  -0.04   0.03
    12   1    -0.00   0.03  -0.00     0.03   0.37   0.24     0.15   0.04   0.03
    13   1    -0.35   0.13  -0.00     0.08   0.12   0.09    -0.14  -0.23  -0.14
    14   1    -0.35   0.14  -0.00    -0.08  -0.12   0.09     0.14   0.23  -0.14
    15   1     0.06   0.03   0.00     0.07   0.28   0.18     0.00   0.33   0.19
    16   1     0.06   0.02   0.00    -0.07  -0.28   0.18    -0.00  -0.33   0.19
    17   1     0.03   0.17  -0.03    -0.03  -0.02  -0.01     0.10   0.07   0.03
    18   1     0.03   0.18   0.02     0.03   0.02  -0.01    -0.10  -0.07   0.03
    19   1     0.05  -0.03   0.00     0.00   0.00   0.04     0.00   0.00   0.10
    20   1     0.04  -0.02  -0.00     0.07  -0.09   0.06     0.16  -0.16   0.11
    21   1     0.04  -0.02   0.00    -0.07   0.09   0.06    -0.16   0.16   0.11
    22   1     0.47   0.01  -0.00     0.00   0.00  -0.06    -0.00  -0.00   0.19
                     16                     17                     18
                      A                      A                      A
 Frequencies --    841.6710               881.4024               912.1896
 Red. masses --      1.2035                 2.6803                 2.0344
 Frc consts  --      0.5023                 1.2268                 0.9974
 IR Inten    --      0.4511                 6.0624                13.1514
 Raman Activ --      1.3919                 0.7126                12.4715
 Depolar (P) --      0.7500                 0.5289                 0.2765
 Depolar (U) --      0.8571                 0.6919                 0.4333
  Atom  AN      X      Y      Z        X      Y      Z        X      Y      Z
     1   8     0.00  -0.00   0.01    -0.03  -0.07   0.00     0.01   0.05  -0.00
     2   6     0.00   0.00  -0.01     0.06  -0.04  -0.00     0.03  -0.02   0.00
     3   6    -0.00  -0.00  -0.07     0.05   0.14   0.00     0.12   0.09  -0.00
     4   6     0.00  -0.00   0.08     0.07  -0.10   0.00    -0.07   0.03  -0.00
     5   6     0.00  -0.00   0.04    -0.04  -0.10   0.00    -0.01  -0.11   0.00
     6   6     0.00   0.00  -0.03     0.10   0.21   0.00    -0.09  -0.10  -0.00
     7   6    -0.00   0.00   0.04    -0.10  -0.01  -0.00    -0.13  -0.00   0.00
     8   6    -0.00   0.00  -0.04    -0.16  -0.03  -0.00     0.12   0.01   0.00
     9   1     0.21  -0.06   0.02    -0.04  -0.03  -0.00     0.02  -0.00  -0.01
    10   1    -0.21   0.06   0.02    -0.04  -0.03   0.00     0.02  -0.00   0.01
    11   1     0.06  -0.27   0.13     0.06   0.12   0.01     0.19   0.07   0.01
    12   1    -0.06   0.27   0.13     0.06   0.12  -0.01     0.19   0.07  -0.01
    13   1    -0.05  -0.27  -0.13    -0.00  -0.08   0.01    -0.11   0.02  -0.01
    14   1     0.05   0.27  -0.14    -0.00  -0.08  -0.01    -0.11   0.02   0.01
    15   1     0.17  -0.17  -0.08     0.10  -0.10   0.00     0.16  -0.12   0.00
    16   1    -0.17   0.17  -0.08     0.10  -0.10  -0.00     0.16  -0.12  -0.00
    17   1     0.21   0.02  -0.00     0.31   0.17  -0.02    -0.28  -0.07   0.01
    18   1    -0.21  -0.02  -0.00     0.31   0.17   0.02    -0.28  -0.08  -0.01
    19   1    -0.00   0.00  -0.15    -0.34   0.40   0.00    -0.42   0.47  -0.00
    20   1    -0.22   0.19  -0.11     0.19   0.03  -0.03     0.20   0.05  -0.03
    21   1     0.22  -0.19  -0.11     0.19   0.03   0.03     0.20   0.05   0.03
    22   1    -0.00  -0.00   0.30    -0.31  -0.22  -0.00     0.22   0.15  -0.00
                     19                     20                     21
                      A                      A                      A
 Frequencies --    935.6913              1011.9673              1018.6601
 Red. masses --      1.2108                 3.4906                 1.1719
 Frc consts  --      0.6246                 2.1061                 0.7164
 IR Inten    --      0.0001                 0.2461                 0.2502
 Raman Activ --      2.2664                 1.8244                 1.2403
 Depolar (P) --      0.7500                 0.7484                 0.7500
 Depolar (U) --      0.8571                 0.8561                 0.8571
  Atom  AN      X      Y      Z        X      Y      Z        X      Y      Z
     1   8     0.00   0.00   0.02    -0.01  -0.02   0.00    -0.00   0.00   0.02
     2   6     0.00  -0.00  -0.07    -0.05   0.23  -0.00     0.00  -0.00   0.02
     3   6     0.00   0.00   0.05     0.14  -0.16   0.00    -0.00   0.00   0.02
     4   6    -0.00   0.00   0.04    -0.16  -0.05  -0.00     0.00  -0.00  -0.04
     5   6     0.00  -0.00   0.01     0.17  -0.14  -0.00    -0.00   0.00  -0.05
     6   6    -0.00  -0.00   0.02     0.07   0.00   0.00    -0.00   0.00   0.05
     7   6    -0.00  -0.00  -0.05    -0.11   0.17   0.00     0.00  -0.00   0.04
     8   6     0.00   0.00  -0.08    -0.01  -0.01  -0.00     0.00   0.00  -0.07
     9   1    -0.04  -0.21   0.09    -0.11   0.23   0.00    -0.31   0.07  -0.02
    10   1     0.04   0.21   0.09    -0.11   0.23  -0.01     0.31  -0.07  -0.02
    11   1     0.20   0.13  -0.06     0.01  -0.15  -0.00    -0.31   0.07  -0.02
    12   1    -0.20  -0.13  -0.06     0.02  -0.15   0.00     0.31  -0.07  -0.02
    13   1     0.21  -0.13  -0.05    -0.15  -0.03   0.01     0.26   0.09   0.04
    14   1    -0.21   0.13  -0.05    -0.15  -0.03  -0.01    -0.26  -0.09   0.04
    15   1    -0.25  -0.01  -0.01     0.05  -0.14  -0.00     0.24   0.10   0.04
    16   1     0.25   0.01  -0.01     0.05  -0.14   0.00    -0.24  -0.10   0.04
    17   1     0.29  -0.10  -0.05     0.30  -0.03  -0.01     0.18  -0.14  -0.05
    18   1    -0.30   0.10  -0.05     0.30  -0.03   0.01    -0.18   0.14  -0.05
    19   1    -0.00   0.00   0.13     0.05  -0.11  -0.00    -0.00  -0.00  -0.11
    20   1     0.19  -0.17   0.08    -0.37   0.14   0.02    -0.15   0.14  -0.06
    21   1    -0.19   0.17   0.08    -0.37   0.14  -0.02     0.15  -0.14  -0.06
    22   1     0.00   0.00   0.38    -0.03  -0.05   0.00     0.00   0.00   0.28
                     22                     23                     24
                      A                      A                      A
 Frequencies --   1050.9099              1062.4155              1072.3793
 Red. masses --      2.8283                 2.3991                 2.1419
 Frc consts  --      1.8404                 1.5954                 1.4513
 IR Inten    --      0.1470                 2.5284                 1.5064
 Raman Activ --      1.1526                 1.8971                 8.0982
 Depolar (P) --      0.2507                 0.4433                 0.6699
 Depolar (U) --      0.4009                 0.6143                 0.8023
  Atom  AN      X      Y      Z        X      Y      Z        X      Y      Z
     1   8    -0.02  -0.00  -0.00    -0.01   0.01  -0.00    -0.01   0.01  -0.00
     2   6     0.24   0.10  -0.00     0.08  -0.07   0.00    -0.11   0.05  -0.00
     3   6     0.03   0.10  -0.00    -0.14   0.03   0.00     0.15  -0.02  -0.00
     4   6    -0.16  -0.17   0.00     0.10  -0.11   0.00     0.14  -0.08   0.00
     5   6    -0.13  -0.01   0.00     0.17  -0.06  -0.00    -0.09  -0.06   0.00
     6   6    -0.03   0.04  -0.00    -0.09   0.09  -0.00    -0.09   0.11  -0.00
     7   6     0.09  -0.02  -0.00    -0.06   0.12  -0.00     0.04   0.00  -0.00
     8   6     0.07  -0.01   0.00     0.06  -0.01   0.00     0.06  -0.01   0.00
     9   1     0.27   0.10   0.00     0.03  -0.09   0.01    -0.35   0.06   0.00
    10   1     0.27   0.10  -0.00     0.03  -0.09  -0.01    -0.35   0.06  -0.00
    11   1    -0.12   0.13  -0.01    -0.38   0.03   0.01     0.18  -0.02   0.00
    12   1    -0.12   0.13   0.01    -0.38   0.03  -0.01     0.18  -0.02  -0.00
    13   1    -0.34  -0.16  -0.00     0.04  -0.11  -0.00     0.20  -0.07   0.01
    14   1    -0.34  -0.16   0.00     0.04  -0.11   0.00     0.20  -0.07  -0.01
    15   1    -0.33   0.01   0.01     0.24  -0.06   0.01    -0.30  -0.05  -0.00
    16   1    -0.33   0.01  -0.01     0.24  -0.06  -0.01    -0.30  -0.05   0.00
    17   1    -0.05   0.02  -0.01    -0.34   0.10   0.00    -0.32   0.13   0.00
    18   1    -0.05   0.02   0.01    -0.34   0.10  -0.00    -0.32   0.13  -0.00
    19   1     0.20  -0.21   0.00     0.06  -0.08  -0.00     0.13  -0.15   0.00
    20   1    -0.05  -0.06   0.02    -0.25   0.10   0.01    -0.09  -0.03   0.02
    21   1    -0.05  -0.06  -0.02    -0.25   0.10  -0.01    -0.09  -0.03  -0.02
    22   1     0.08  -0.00  -0.00     0.07   0.01  -0.00     0.05  -0.01  -0.00
                     25                     26                     27
                      A                      A                      A
 Frequencies --   1140.6855              1165.1538              1225.0633
 Red. masses --      2.7027                 1.7385                 1.5897
 Frc consts  --      2.0720                 1.3906                 1.4057
 IR Inten    --      7.0179                 0.1432                 0.0181
 Raman Activ --      6.9019                 0.4560                 0.2092
 Depolar (P) --      0.1872                 0.7500                 0.7500
 Depolar (U) --      0.3154                 0.8571                 0.8571
  Atom  AN      X      Y      Z        X      Y      Z        X      Y      Z
     1   8    -0.02  -0.00  -0.00     0.00   0.00  -0.03     0.00   0.00  -0.01
     2   6    -0.01   0.15  -0.00     0.00  -0.00  -0.08     0.00   0.00   0.08
     3   6    -0.06  -0.19   0.00     0.00   0.00   0.06    -0.00  -0.00  -0.11
     4   6    -0.01  -0.15   0.00    -0.00   0.00   0.10    -0.00  -0.00  -0.04
     5   6     0.03   0.19  -0.00    -0.00  -0.00  -0.05     0.00   0.00   0.13
     6   6    -0.06   0.10  -0.00     0.00  -0.00  -0.13     0.00  -0.00  -0.02
     7   6    -0.05  -0.11   0.00     0.00   0.00   0.03    -0.00  -0.00  -0.09
     8   6     0.07  -0.01   0.00    -0.00   0.00   0.16    -0.00   0.00   0.06
     9   1     0.12   0.12   0.02    -0.18  -0.15   0.05    -0.17   0.18  -0.05
    10   1     0.12   0.12  -0.02     0.18   0.15   0.05     0.17  -0.18  -0.05
    11   1     0.05  -0.17  -0.01    -0.10   0.14  -0.04    -0.13  -0.22   0.07
    12   1     0.05  -0.17   0.01     0.10  -0.14  -0.04     0.13   0.22   0.07
    13   1     0.12  -0.14   0.02     0.21  -0.23  -0.07     0.23   0.06   0.02
    14   1     0.12  -0.14  -0.01    -0.21   0.23  -0.07    -0.23  -0.06   0.02
    15   1     0.24   0.15  -0.01     0.07   0.10   0.03     0.04  -0.27  -0.07
    16   1     0.24   0.15   0.01    -0.07  -0.10   0.03    -0.04   0.27  -0.07
    17   1    -0.07   0.08  -0.01     0.28   0.21   0.06     0.29   0.01  -0.00
    18   1    -0.07   0.08   0.01    -0.28  -0.21   0.06    -0.29  -0.01  -0.00
    19   1    -0.30   0.33  -0.00    -0.00  -0.00  -0.06     0.00   0.00   0.18
    20   1     0.36  -0.02  -0.06    -0.07   0.07  -0.03     0.18  -0.22   0.08
    21   1     0.36  -0.02   0.06     0.07  -0.07  -0.03    -0.18   0.22   0.08
    22   1     0.02  -0.06  -0.00     0.00   0.00  -0.49     0.00   0.00  -0.18
                     28                     29                     30
                      A                      A                      A
 Frequencies --   1258.8653              1277.0754              1318.5604
 Red. masses --      1.3339                 1.3088                 1.4039
 Frc consts  --      1.2455                 1.2577                 1.4381
 IR Inten    --      1.8709                 0.0055                 9.7784
 Raman Activ --      0.5503                 0.0355                 0.8219
 Depolar (P) --      0.1758                 0.7500                 0.3284
 Depolar (U) --      0.2991                 0.8571                 0.4945
  Atom  AN      X      Y      Z        X      Y      Z        X      Y      Z
     1   8    -0.01  -0.00  -0.00     0.00   0.00  -0.01     0.01  -0.00   0.00
     2   6    -0.07  -0.01   0.00     0.00   0.00   0.08    -0.01   0.05   0.00
     3   6    -0.05   0.05  -0.00     0.00  -0.00  -0.01    -0.08  -0.01  -0.01
     4   6    -0.06  -0.02  -0.00     0.00  -0.00  -0.09     0.05  -0.03   0.00
     5   6    -0.03  -0.05   0.00    -0.00  -0.00  -0.07    -0.07  -0.02   0.00
     6   6    -0.07   0.04  -0.00    -0.00   0.00   0.02     0.11  -0.01  -0.00
     7   6     0.02   0.04  -0.00     0.00   0.00   0.07     0.02   0.04   0.00
     8   6     0.05  -0.01   0.00    -0.00   0.00   0.05    -0.06   0.00  -0.00
     9   1     0.40  -0.04   0.00     0.19   0.14  -0.04     0.07   0.04   0.00
    10   1     0.40  -0.04  -0.00    -0.19  -0.14  -0.04     0.09   0.02  -0.01
    11   1     0.31   0.02   0.00     0.30  -0.05   0.01     0.38  -0.05  -0.00
    12   1     0.31   0.02  -0.00    -0.30   0.05   0.01     0.39  -0.03   0.01
    13   1     0.39  -0.04   0.01     0.07   0.17   0.04    -0.27  -0.02  -0.01
    14   1     0.39  -0.04  -0.01    -0.07  -0.17   0.04    -0.34   0.00   0.00
    15   1     0.12  -0.06   0.01    -0.26   0.14   0.03     0.28  -0.04   0.00
    16   1     0.12  -0.06  -0.01     0.26  -0.14   0.03     0.35  -0.05  -0.00
    17   1     0.20   0.01  -0.01     0.39  -0.06  -0.02    -0.35   0.01  -0.00
    18   1     0.20   0.01   0.01    -0.39   0.06  -0.02    -0.29  -0.01   0.01
    19   1     0.10  -0.10  -0.00    -0.00  -0.00  -0.13     0.11  -0.11  -0.01
    20   1    -0.10  -0.01   0.03    -0.11   0.15  -0.05    -0.07  -0.03   0.04
    21   1    -0.10  -0.01  -0.03     0.11  -0.15  -0.05    -0.05  -0.04  -0.05
    22   1     0.02  -0.05  -0.00     0.00  -0.00  -0.13    -0.03   0.05   0.01
                     31                     32                     33
                      A                      A                      A
 Frequencies --   1318.7684              1333.4929              1337.8101
 Red. masses --      1.1410                 1.0690                 1.0870
 Frc consts  --      1.1692                 1.1200                 1.1463
 IR Inten    --      0.1163                 0.0072                 0.5447
 Raman Activ --      9.3502                10.2721                 2.0598
 Depolar (P) --      0.7496                 0.7500                 0.7500
 Depolar (U) --      0.8569                 0.8571                 0.8571
  Atom  AN      X      Y      Z        X      Y      Z        X      Y      Z
     1   8    -0.00   0.00   0.00    -0.00  -0.00  -0.00    -0.00   0.00  -0.00
     2   6     0.00  -0.00   0.04    -0.00  -0.00  -0.00     0.00  -0.00  -0.06
     3   6     0.01   0.00  -0.06     0.00   0.00   0.05    -0.00  -0.00  -0.03
     4   6    -0.00   0.00   0.04    -0.00  -0.00  -0.04     0.00  -0.00  -0.00
     5   6     0.01   0.00  -0.00     0.00   0.00   0.02    -0.00   0.00   0.04
     6   6    -0.01   0.00  -0.04    -0.00  -0.00  -0.01    -0.00   0.00   0.03
     7   6    -0.00  -0.00   0.04    -0.00  -0.00  -0.02     0.00   0.00   0.03
     8   6     0.00  -0.00  -0.03     0.00   0.00   0.00    -0.00   0.00   0.01
     9   1    -0.09   0.08  -0.02     0.55  -0.05   0.00    -0.02  -0.10   0.01
    10   1     0.08  -0.09  -0.01    -0.55   0.05   0.00     0.02   0.10   0.01
    11   1    -0.07  -0.10   0.02    -0.29   0.12  -0.01    -0.44  -0.03   0.01
    12   1     0.01   0.11   0.02     0.29  -0.12  -0.01     0.44   0.03   0.01
    13   1     0.42  -0.11  -0.02     0.28   0.05   0.01    -0.30   0.03  -0.00
    14   1    -0.38   0.11  -0.02    -0.28  -0.05   0.01     0.30  -0.03  -0.00
    15   1    -0.42   0.03  -0.00     0.06  -0.04  -0.00    -0.41  -0.04  -0.01
    16   1     0.37  -0.02  -0.00    -0.06   0.04  -0.00     0.41   0.03  -0.01
    17   1    -0.31   0.09   0.02    -0.01   0.02  -0.00     0.15  -0.05  -0.01
    18   1     0.35  -0.09   0.02     0.01  -0.02  -0.00    -0.15   0.05  -0.01
    19   1    -0.01   0.01  -0.06    -0.00   0.00   0.04     0.00  -0.00  -0.01
    20   1    -0.07   0.09  -0.03     0.01  -0.03   0.01    -0.06   0.05  -0.01
    21   1     0.07  -0.09  -0.02    -0.01   0.03   0.01     0.06  -0.05  -0.01
    22   1     0.00  -0.00   0.07     0.00  -0.00  -0.01    -0.00  -0.00  -0.03
                     34                     35                     36
                      A                      A                      A
 Frequencies --   1371.9249              1400.4152              1403.5211
 Red. masses --      1.5066                 1.5649                 1.5811
 Frc consts  --      1.6707                 1.8082                 1.8350
 IR Inten    --      5.0651                 9.2227                 2.0674
 Raman Activ --      0.9372                 1.0782                 0.2403
 Depolar (P) --      0.3091                 0.4434                 0.6939
 Depolar (U) --      0.4723                 0.6143                 0.8193
  Atom  AN      X      Y      Z        X      Y      Z        X      Y      Z
     1   8     0.01  -0.00   0.00     0.01  -0.01   0.00     0.01  -0.01   0.00
     2   6    -0.10   0.01  -0.00    -0.01  -0.01   0.00     0.13  -0.01  -0.00
     3   6     0.00   0.03  -0.00     0.11  -0.01  -0.00    -0.10   0.00   0.00
     4   6    -0.03  -0.03  -0.00    -0.10  -0.00  -0.00    -0.12   0.01  -0.00
     5   6     0.12  -0.01  -0.00    -0.11   0.02   0.00     0.05  -0.01  -0.00
     6   6     0.12   0.01   0.00     0.10   0.03   0.00     0.05   0.02   0.00
     7   6    -0.02  -0.03   0.00     0.03   0.01  -0.00    -0.04   0.02   0.00
     8   6    -0.05  -0.00  -0.00    -0.05  -0.00  -0.00    -0.03  -0.01  -0.00
     9   1     0.38  -0.03  -0.00     0.01  -0.01  -0.01    -0.40   0.04  -0.01
    10   1     0.38  -0.03   0.00     0.01  -0.01   0.01    -0.40   0.04   0.01
    11   1    -0.00   0.01   0.01    -0.37   0.01   0.00     0.30  -0.02  -0.00
    12   1    -0.00   0.01  -0.01    -0.37   0.01  -0.00     0.30  -0.02   0.00
    13   1     0.08  -0.01   0.02     0.34   0.01   0.04     0.34   0.02   0.04
    14   1     0.08  -0.01  -0.02     0.34   0.01  -0.04     0.34   0.02  -0.04
    15   1    -0.43   0.03   0.00     0.35  -0.02  -0.00    -0.14   0.00   0.00
    16   1    -0.42   0.03  -0.00     0.35  -0.02   0.00    -0.14   0.00  -0.00
    17   1    -0.34  -0.03  -0.04    -0.25  -0.07  -0.08    -0.13  -0.06  -0.07
    18   1    -0.35  -0.03   0.04    -0.25  -0.07   0.07    -0.13  -0.06   0.07
    19   1    -0.11   0.11  -0.00     0.03   0.01  -0.00     0.07  -0.16   0.00
    20   1     0.02   0.07  -0.07    -0.08  -0.04   0.03     0.17  -0.04   0.04
    21   1     0.02   0.07   0.07    -0.08  -0.04  -0.03     0.17  -0.04  -0.04
    22   1     0.00   0.09   0.00     0.09   0.18   0.00     0.08   0.14   0.00
                     37                     38                     39
                      A                      A                      A
 Frequencies --   1416.4724              1417.9907              1448.1086
 Red. masses --      1.2529                 1.1628                 1.1321
 Frc consts  --      1.4811                 1.3776                 1.3988
 IR Inten    --      1.1134                11.1077                16.7117
 Raman Activ --      0.1915                11.0651                 4.1620
 Depolar (P) --      0.6651                 0.5629                 0.7203
 Depolar (U) --      0.7989                 0.7203                 0.8374
  Atom  AN      X      Y      Z        X      Y      Z        X      Y      Z
     1   8    -0.00   0.00   0.00     0.02  -0.07   0.00    -0.01   0.01  -0.00
     2   6     0.05   0.00  -0.00    -0.00   0.01  -0.00     0.01   0.00  -0.00
     3   6    -0.04  -0.00   0.00    -0.01  -0.00   0.00     0.00  -0.00  -0.00
     4   6    -0.02   0.00  -0.00     0.02  -0.01   0.00    -0.04   0.01  -0.00
     5   6    -0.00   0.00  -0.00     0.00   0.00  -0.00    -0.00   0.00   0.00
     6   6     0.01   0.00  -0.00    -0.04   0.00  -0.00     0.05  -0.08   0.00
     7   6     0.11  -0.08  -0.00     0.01  -0.01   0.00     0.00   0.00  -0.00
     8   6     0.00  -0.00  -0.00    -0.07   0.00   0.00     0.02   0.01   0.00
     9   1    -0.13   0.02  -0.00     0.02  -0.00   0.01    -0.03  -0.03   0.03
    10   1    -0.13   0.02   0.00     0.02  -0.00  -0.01    -0.03  -0.03  -0.03
    11   1     0.12  -0.03   0.01     0.02  -0.00  -0.00    -0.01   0.02  -0.01
    12   1     0.12  -0.03  -0.01     0.02  -0.00   0.00    -0.01   0.02   0.01
    13   1     0.06   0.01   0.01    -0.03  -0.03  -0.02     0.10  -0.04  -0.03
    14   1     0.06   0.01  -0.01    -0.03  -0.03   0.02     0.10  -0.04   0.03
    15   1    -0.00   0.01  -0.00    -0.01   0.00  -0.00     0.01  -0.00  -0.00
    16   1    -0.00   0.01   0.00    -0.01   0.00   0.00     0.01  -0.00   0.00
    17   1    -0.01  -0.03  -0.02     0.12   0.23   0.16    -0.08   0.50   0.42
    18   1    -0.01  -0.03   0.02     0.12   0.23  -0.16    -0.08   0.50  -0.42
    19   1    -0.25   0.48  -0.00    -0.02   0.04  -0.00     0.00  -0.00  -0.00
    20   1    -0.47   0.21  -0.19    -0.03   0.02  -0.02    -0.00  -0.00   0.00
    21   1    -0.47   0.21   0.19    -0.03   0.02   0.02    -0.00  -0.00  -0.00
    22   1    -0.03  -0.04  -0.00     0.50   0.74   0.00    -0.18  -0.26  -0.00
                     40                     41                     42
                      A                      A                      A
 Frequencies --   1485.9031              1486.9274              1494.6630
 Red. masses --      1.0741                 1.0712                 1.0667
 Frc consts  --      1.3972                 1.3955                 1.4040
 IR Inten    --      0.0544                 0.1472                 2.5971
 Raman Activ --     15.1055                10.1420                 9.6625
 Depolar (P) --      0.6752                 0.6936                 0.7236
 Depolar (U) --      0.8061                 0.8191                 0.8397
  Atom  AN      X      Y      Z        X      Y      Z        X      Y      Z
     1   8    -0.00   0.00  -0.00    -0.00  -0.00   0.00    -0.00  -0.00   0.00
     2   6    -0.00  -0.06   0.00     0.00   0.01  -0.00     0.00  -0.00   0.00
     3   6     0.00   0.04  -0.00     0.00   0.05  -0.00     0.00   0.03  -0.00
     4   6    -0.00   0.03  -0.00     0.00  -0.03   0.00     0.00  -0.05   0.00
     5   6    -0.00   0.00  -0.00    -0.00  -0.05   0.00    -0.02   0.03  -0.00
     6   6     0.00   0.00   0.00    -0.00  -0.01   0.00    -0.01  -0.01   0.00
     7   6    -0.00  -0.00  -0.00     0.00   0.01  -0.00    -0.02  -0.02   0.00
     8   6    -0.00  -0.00   0.00     0.00   0.00   0.00     0.00   0.00   0.00
     9   1     0.03   0.41  -0.33    -0.00  -0.05   0.04     0.01  -0.01   0.00
    10   1     0.03   0.41   0.33    -0.00  -0.05  -0.04     0.01  -0.01  -0.00
    11   1    -0.02  -0.25   0.20    -0.02  -0.33   0.27    -0.02  -0.19   0.16
    12   1    -0.02  -0.25  -0.20    -0.02  -0.33  -0.27    -0.02  -0.19  -0.16
    13   1     0.01  -0.25  -0.20    -0.01   0.19   0.16    -0.01   0.30   0.25
    14   1     0.01  -0.25   0.20    -0.01   0.19  -0.16    -0.01   0.30  -0.25
    15   1     0.01  -0.02  -0.01     0.01   0.37   0.29     0.02  -0.24  -0.19
    16   1     0.01  -0.02   0.01     0.01   0.36  -0.29     0.02  -0.24   0.19
    17   1    -0.01   0.02   0.01     0.01   0.02   0.02     0.01   0.03   0.03
    18   1    -0.01   0.02  -0.01     0.01   0.02  -0.02     0.01   0.03  -0.03
    19   1     0.03  -0.05   0.00    -0.04   0.07   0.00     0.12  -0.22   0.00
    20   1     0.03   0.06  -0.05    -0.03  -0.12   0.09     0.10   0.31  -0.23
    21   1     0.03   0.06   0.05    -0.03  -0.12  -0.09     0.10   0.31   0.23
    22   1    -0.01  -0.01   0.00    -0.00  -0.00  -0.00    -0.00  -0.00  -0.00
                     43                     44                     45
                      A                      A                      A
 Frequencies --   1499.7123              1505.0127              1514.3170
 Red. masses --      1.0398                 1.0838                 1.0951
 Frc consts  --      1.3779                 1.4464                 1.4796
 IR Inten    --      7.5728                 0.3350                11.1407
 Raman Activ --      8.3350                 0.7478                 0.3495
 Depolar (P) --      0.7500                 0.7444                 0.7157
 Depolar (U) --      0.8571                 0.8535                 0.8343
  Atom  AN      X      Y      Z        X      Y      Z        X      Y      Z
     1   8     0.00   0.00   0.00     0.00   0.00  -0.00    -0.00  -0.00   0.00
     2   6     0.00   0.00   0.00     0.00   0.04  -0.00    -0.01  -0.04   0.00
     3   6    -0.00  -0.00   0.00     0.01   0.01  -0.00     0.00  -0.05   0.00
     4   6    -0.00   0.00   0.00    -0.01   0.05  -0.00     0.00  -0.03   0.00
     5   6    -0.00  -0.00  -0.02    -0.02  -0.04   0.00    -0.01  -0.05   0.00
     6   6     0.00   0.00  -0.00     0.01   0.01  -0.00    -0.00  -0.00   0.00
     7   6    -0.00  -0.00  -0.05    -0.02  -0.03   0.00    -0.01  -0.02   0.00
     8   6    -0.00  -0.00  -0.00    -0.00  -0.00  -0.00     0.00   0.00   0.00
     9   1    -0.01   0.00  -0.00    -0.03  -0.25   0.20     0.02   0.24  -0.20
    10   1     0.01  -0.00  -0.00    -0.03  -0.25  -0.20     0.02   0.24   0.20
    11   1     0.03  -0.00  -0.00    -0.01  -0.06   0.05     0.01   0.28  -0.23
    12   1    -0.03   0.00  -0.00    -0.01  -0.06  -0.05     0.01   0.28   0.23
    13   1     0.00  -0.00   0.00     0.01  -0.28  -0.23     0.00   0.16   0.13
    14   1    -0.00   0.00   0.00     0.01  -0.28   0.23     0.00   0.16  -0.14
    15   1    -0.03   0.03  -0.00     0.05   0.17   0.15     0.05   0.28   0.24
    16   1     0.03  -0.03  -0.00     0.05   0.17  -0.15     0.05   0.28  -0.24
    17   1    -0.00   0.00   0.00    -0.00  -0.03  -0.03     0.00   0.02   0.02
    18   1     0.00  -0.00   0.00    -0.00  -0.03   0.03     0.00   0.02  -0.02
    19   1     0.00   0.00   0.71     0.11  -0.23  -0.00     0.07  -0.14   0.00
    20   1    -0.48  -0.10   0.05     0.09   0.32  -0.24     0.05   0.20  -0.16
    21   1     0.48   0.10   0.05     0.09   0.32   0.24     0.05   0.21   0.16
    22   1     0.00   0.00   0.00     0.00   0.00   0.00    -0.00  -0.00  -0.00
                     46                     47                     48
                      A                      A                      A
 Frequencies --   1805.3197              2859.4312              2992.4191
 Red. masses --      9.8404                 1.0819                 1.0598
 Frc consts  --     18.8960                 5.2118                 5.5915
 IR Inten    --    169.5028               158.1106                11.4930
 Raman Activ --     10.3350               218.5317                13.0963
 Depolar (P) --      0.5750                 0.3290                 0.0210
 Depolar (U) --      0.7302                 0.4951                 0.0412
  Atom  AN      X      Y      Z        X      Y      Z        X      Y      Z
     1   8    -0.07  -0.47  -0.00     0.00   0.00   0.00     0.00  -0.00  -0.00
     2   6     0.00  -0.01   0.00    -0.00   0.00  -0.00    -0.00  -0.03   0.00
     3   6     0.00   0.00  -0.00    -0.00   0.00  -0.00     0.00   0.01  -0.00
     4   6     0.00   0.01  -0.00     0.00  -0.00   0.00     0.00  -0.00   0.00
     5   6    -0.00  -0.00   0.00    -0.00  -0.00  -0.00    -0.00   0.00   0.00
     6   6    -0.00  -0.04  -0.00     0.00  -0.00   0.00     0.00   0.06  -0.00
     7   6     0.00   0.00  -0.00    -0.00  -0.00   0.00     0.00  -0.00  -0.00
     8   6     0.15   0.69   0.00    -0.07   0.05  -0.00    -0.00   0.00  -0.00
     9   1    -0.02  -0.00  -0.00     0.00   0.00   0.00     0.01   0.20   0.29
    10   1    -0.02  -0.00   0.00     0.00   0.00  -0.00     0.01   0.20  -0.29
    11   1    -0.00   0.00   0.00    -0.00  -0.00  -0.00    -0.01  -0.09  -0.12
    12   1    -0.00   0.00  -0.00    -0.00  -0.00   0.00    -0.01  -0.09   0.12
    13   1     0.03   0.02  -0.01     0.00  -0.00   0.01     0.00   0.02  -0.02
    14   1     0.03   0.02   0.01     0.00  -0.00  -0.01     0.00   0.02   0.02
    15   1    -0.00  -0.00   0.00     0.00   0.00  -0.00     0.00  -0.01   0.01
    16   1    -0.00  -0.00  -0.00     0.00   0.00   0.00     0.00  -0.01  -0.01
    17   1    -0.16  -0.13  -0.09    -0.01   0.03  -0.05    -0.01  -0.35   0.48
    18   1    -0.16  -0.13   0.09    -0.01   0.03   0.05    -0.01  -0.34  -0.47
    19   1     0.00  -0.00   0.00     0.00   0.00  -0.00    -0.00  -0.00   0.00
    20   1     0.00   0.00   0.00     0.00  -0.00  -0.00     0.00   0.01   0.01
    21   1     0.00   0.00  -0.00     0.00  -0.00   0.00     0.00   0.01  -0.01
    22   1    -0.40  -0.13  -0.00     0.79  -0.60   0.00     0.06  -0.04   0.00
                     49                     50                     51
                      A                      A                      A
 Frequencies --   2995.9458              3000.4508              3010.6006
 Red. masses --      1.0585                 1.0580                 1.0971
 Frc consts  --      5.5979                 5.6120                 5.8585
 IR Inten    --     16.5993                 6.6952                 9.7377
 Raman Activ --    296.0524                54.5458               140.5157
 Depolar (P) --      0.0250                 0.0661                 0.7499
 Depolar (U) --      0.0487                 0.1239                 0.8571
  Atom  AN      X      Y      Z        X      Y      Z        X      Y      Z
     1   8     0.00  -0.00  -0.00    -0.00  -0.00  -0.00    -0.00   0.00  -0.00
     2   6     0.00   0.05  -0.00     0.00   0.02  -0.00    -0.00  -0.00  -0.02
     3   6    -0.00  -0.03   0.00     0.00   0.05  -0.00     0.00   0.00   0.01
     4   6    -0.00  -0.01   0.00    -0.00  -0.01   0.00    -0.00   0.00   0.02
     5   6     0.00  -0.00  -0.00    -0.00  -0.04   0.00     0.00   0.00  -0.00
     6   6     0.00   0.04  -0.00    -0.00   0.00  -0.00     0.00  -0.00  -0.08
     7   6    -0.00   0.00   0.00     0.00   0.00  -0.00    -0.00  -0.00   0.00
     8   6    -0.00   0.00  -0.00    -0.00   0.00  -0.00     0.00  -0.00  -0.00
     9   1    -0.02  -0.29  -0.42    -0.01  -0.15  -0.21     0.01   0.11   0.14
    10   1    -0.02  -0.29   0.42    -0.01  -0.15   0.21    -0.01  -0.11   0.14
    11   1     0.01   0.17   0.24    -0.02  -0.30  -0.43    -0.01  -0.07  -0.09
    12   1     0.01   0.17  -0.24    -0.02  -0.30   0.43     0.01   0.07  -0.09
    13   1     0.00   0.05  -0.07     0.00   0.04  -0.06     0.01   0.10  -0.13
    14   1     0.00   0.05   0.07     0.00   0.04   0.06    -0.01  -0.10  -0.13
    15   1    -0.00   0.01  -0.02     0.02   0.22  -0.32    -0.00  -0.03   0.03
    16   1    -0.00   0.01   0.02     0.02   0.22   0.32     0.00   0.02   0.03
    17   1    -0.01  -0.22   0.31     0.00  -0.02   0.02    -0.02  -0.40   0.50
    18   1    -0.01  -0.22  -0.30     0.00  -0.01  -0.02     0.02   0.41   0.51
    19   1     0.01   0.01  -0.00    -0.05  -0.03   0.00     0.00   0.00  -0.00
    20   1    -0.00  -0.01  -0.02     0.00   0.01   0.01     0.00  -0.00  -0.00
    21   1    -0.00  -0.01   0.02     0.00   0.01  -0.01    -0.00   0.00  -0.00
    22   1     0.04  -0.02   0.00     0.00  -0.00   0.00    -0.00   0.00   0.00
                     52                     53                     54
                      A                      A                      A
 Frequencies --   3011.6292              3012.0048              3024.4824
 Red. masses --      1.0596                 1.0997                 1.0356
 Frc consts  --      5.6624                 5.8780                 5.5814
 IR Inten    --     64.5578                 0.1254                38.4042
 Raman Activ --     85.0276                95.0996               148.5429
 Depolar (P) --      0.0513                 0.7499                 0.0044
 Depolar (U) --      0.0976                 0.8571                 0.0087
  Atom  AN      X      Y      Z        X      Y      Z        X      Y      Z
     1   8     0.00  -0.00  -0.00    -0.00   0.00  -0.00     0.00  -0.00   0.00
     2   6    -0.00  -0.02  -0.00     0.00   0.00   0.06    -0.00  -0.00  -0.00
     3   6    -0.00  -0.03   0.00    -0.00  -0.00  -0.06    -0.00  -0.01  -0.00
     4   6     0.00   0.01   0.00     0.00   0.00  -0.01     0.00   0.00   0.00
     5   6    -0.00  -0.06  -0.00    -0.00  -0.00   0.03    -0.00  -0.00   0.00
     6   6     0.00  -0.00  -0.00     0.00  -0.00  -0.03     0.00   0.00   0.00
     7   6     0.00   0.01   0.00     0.00   0.00  -0.00     0.03  -0.04  -0.00
     8   6     0.00  -0.00  -0.00     0.00  -0.00  -0.00    -0.00   0.00   0.00
     9   1     0.01   0.12   0.16    -0.02  -0.27  -0.35    -0.00   0.01   0.01
    10   1     0.01   0.11  -0.16     0.02   0.27  -0.36    -0.00   0.00  -0.00
    11   1     0.01   0.18   0.26     0.02   0.27   0.36     0.00   0.04   0.06
    12   1     0.01   0.19  -0.27    -0.02  -0.27   0.35     0.00   0.04  -0.06
    13   1    -0.00  -0.05   0.06    -0.00  -0.03   0.03    -0.00  -0.02   0.03
    14   1    -0.00  -0.05  -0.07     0.00   0.03   0.03    -0.00  -0.02  -0.03
    15   1     0.02   0.33  -0.47     0.01   0.13  -0.17     0.00   0.03  -0.05
    16   1     0.03   0.34   0.47    -0.01  -0.13  -0.16     0.00   0.03   0.04
    17   1    -0.00   0.01  -0.01    -0.01  -0.13   0.17    -0.00  -0.00   0.00
    18   1    -0.00   0.01   0.01     0.01   0.14   0.17    -0.00  -0.00  -0.01
    19   1    -0.01  -0.01   0.00    -0.00  -0.00  -0.00    -0.43  -0.27   0.00
    20   1    -0.00  -0.06  -0.09    -0.00   0.02   0.02     0.01   0.35   0.49
    21   1    -0.00  -0.06   0.09     0.00  -0.02   0.02     0.01   0.35  -0.49
    22   1    -0.00   0.00   0.00    -0.00   0.00   0.00     0.00  -0.00  -0.00
                     55                     56                     57
                      A                      A                      A
 Frequencies --   3024.7760              3035.9150              3046.8459
 Red. masses --      1.1028                 1.0595                 1.1052
 Frc consts  --      5.9445                 5.7535                 6.0449
 IR Inten    --      0.7029                35.0301                35.1142
 Raman Activ --     18.4896                57.3627                25.3980
 Depolar (P) --      0.7499                 0.0270                 0.7500
 Depolar (U) --      0.8570                 0.0525                 0.8571
  Atom  AN      X      Y      Z        X      Y      Z        X      Y      Z
     1   8    -0.00  -0.00   0.00     0.00  -0.00   0.00     0.00  -0.00  -0.00
     2   6     0.00   0.00   0.05     0.00   0.01  -0.00    -0.00  -0.00  -0.03
     3   6     0.00   0.00   0.03     0.00   0.01   0.00    -0.00  -0.00  -0.06
     4   6     0.00   0.00  -0.02     0.01   0.07  -0.00     0.00   0.00   0.02
     5   6    -0.00  -0.00  -0.06     0.00   0.00   0.00    -0.00  -0.00  -0.05
     6   6     0.00  -0.00  -0.01     0.00   0.01  -0.00    -0.00   0.00   0.01
     7   6     0.00  -0.00   0.01    -0.00   0.00  -0.00     0.00   0.00   0.02
     8   6     0.00  -0.00  -0.00     0.00   0.00  -0.00    -0.00   0.00   0.00
     9   1    -0.02  -0.25  -0.33    -0.00  -0.06  -0.08     0.01   0.13   0.17
    10   1     0.02   0.25  -0.33    -0.00  -0.06   0.08    -0.01  -0.13   0.17
    11   1    -0.01  -0.13  -0.17    -0.00  -0.04  -0.06     0.02   0.28   0.37
    12   1     0.01   0.13  -0.17    -0.00  -0.04   0.06    -0.02  -0.28   0.37
    13   1    -0.00  -0.08   0.10    -0.03  -0.40   0.56     0.01   0.11  -0.14
    14   1     0.00   0.08   0.10    -0.03  -0.40  -0.56    -0.01  -0.11  -0.15
    15   1    -0.02  -0.30   0.39    -0.00  -0.01   0.02    -0.02  -0.24   0.32
    16   1     0.02   0.30   0.39    -0.00  -0.02  -0.02     0.02   0.24   0.32
    17   1    -0.00  -0.05   0.06    -0.00  -0.04   0.06     0.00   0.03  -0.04
    18   1     0.00   0.05   0.06    -0.00  -0.04  -0.06    -0.00  -0.03  -0.04
    19   1    -0.00  -0.00   0.00     0.02   0.01  -0.00    -0.00  -0.00   0.01
    20   1    -0.00  -0.07  -0.09    -0.00  -0.01  -0.01    -0.01  -0.11  -0.15
    21   1     0.00   0.07  -0.09    -0.00  -0.01   0.01     0.01   0.11  -0.15
    22   1    -0.00   0.00   0.00    -0.00  -0.00  -0.00     0.00  -0.00   0.00
                     58                     59                     60
                      A                      A                      A
 Frequencies --   3071.3017              3082.9536              3088.1487
 Red. masses --      1.1043                 1.1024                 1.1009
 Frc consts  --      6.1373                 6.1735                 6.1858
 IR Inten    --     47.0267                68.7877                41.3348
 Raman Activ --      7.6028                33.1611                97.9852
 Depolar (P) --      0.7500                 0.7500                 0.5905
 Depolar (U) --      0.8571                 0.8571                 0.7425
  Atom  AN      X      Y      Z        X      Y      Z        X      Y      Z
     1   8    -0.00   0.00   0.00    -0.00   0.00   0.00    -0.00  -0.00   0.00
     2   6    -0.00  -0.00  -0.03    -0.00  -0.00  -0.00     0.00  -0.00   0.00
     3   6    -0.00  -0.00  -0.01    -0.00  -0.00  -0.01     0.00  -0.00   0.00
     4   6    -0.00  -0.00  -0.09    -0.00  -0.00  -0.01    -0.00  -0.00   0.00
     5   6    -0.00  -0.00  -0.00    -0.00  -0.00  -0.03    -0.00  -0.01   0.00
     6   6     0.00  -0.00  -0.02     0.00  -0.00  -0.00    -0.00  -0.00   0.00
     7   6     0.00   0.00   0.01    -0.00  -0.00  -0.09    -0.06  -0.07   0.00
     8   6     0.00  -0.00  -0.00     0.00  -0.00  -0.00     0.00  -0.00   0.00
     9   1     0.01   0.13   0.17     0.00   0.02   0.03    -0.00   0.00   0.01
    10   1    -0.01  -0.13   0.17    -0.00  -0.02   0.03    -0.00   0.00  -0.01
    11   1     0.00   0.07   0.09     0.01   0.05   0.07     0.00   0.01   0.01
    12   1    -0.00  -0.07   0.09    -0.01  -0.05   0.07     0.00   0.01  -0.01
    13   1    -0.03  -0.39   0.51    -0.00  -0.02   0.03     0.00   0.00  -0.00
    14   1     0.03   0.39   0.51     0.00   0.03   0.03     0.00   0.00   0.00
    15   1    -0.00  -0.02   0.02    -0.01  -0.13   0.17     0.00   0.04  -0.06
    16   1     0.00   0.02   0.02     0.01   0.13   0.17     0.00   0.04   0.06
    17   1     0.00  -0.08   0.10     0.00  -0.00   0.01    -0.00   0.00  -0.00
    18   1    -0.00   0.08   0.10    -0.00   0.00   0.01    -0.00   0.00   0.00
    19   1    -0.00  -0.00   0.00     0.00   0.00  -0.02     0.73   0.44  -0.00
    20   1    -0.00  -0.05  -0.06     0.01   0.40   0.53    -0.01   0.19   0.29
    21   1     0.00   0.05  -0.06    -0.01  -0.40   0.53    -0.01   0.19  -0.29
    22   1    -0.00   0.00  -0.00    -0.00   0.00  -0.00    -0.00   0.00  -0.00

 -------------------
 - Thermochemistry -
 -------------------
 Temperature   298.150 Kelvin.  Pressure   1.00000 Atm.
 Atom     1 has atomic number  8 and mass  15.99491
 Atom     2 has atomic number  6 and mass  12.00000
 Atom     3 has atomic number  6 and mass  12.00000
 Atom     4 has atomic number  6 and mass  12.00000
 Atom     5 has atomic number  6 and mass  12.00000
 Atom     6 has atomic number  6 and mass  12.00000
 Atom     7 has atomic number  6 and mass  12.00000
 Atom     8 has atomic number  6 and mass  12.00000
 Atom     9 has atomic number  1 and mass   1.00783
 Atom    10 has atomic number  1 and mass   1.00783
 Atom    11 has atomic number  1 and mass   1.00783
 Atom    12 has atomic number  1 and mass   1.00783
 Atom    13 has atomic number  1 and mass   1.00783
 Atom    14 has atomic number  1 and mass   1.00783
 Atom    15 has atomic number  1 and mass   1.00783
 Atom    16 has atomic number  1 and mass   1.00783
 Atom    17 has atomic number  1 and mass   1.00783
 Atom    18 has atomic number  1 and mass   1.00783
 Atom    19 has atomic number  1 and mass   1.00783
 Atom    20 has atomic number  1 and mass   1.00783
 Atom    21 has atomic number  1 and mass   1.00783
 Atom    22 has atomic number  1 and mass   1.00783
 Molecular mass:   114.10447 amu.
 Principal axes and moments of inertia in atomic units:
                           1         2         3
     Eigenvalues --   224.990543185.819213344.76154
           X            0.99989  -0.01504  -0.00001
           Y            0.01504   0.99989  -0.00008
           Z            0.00001   0.00008   1.00000
 This molecule is an asymmetric top.
 Rotational symmetry number  1.
 Rotational temperatures (Kelvin)      0.38497     0.02719     0.02590
 Rotational constants (GHZ):           8.02141     0.56649     0.53957
 Zero-point vibrational energy     518738.0 (Joules/Mol)
                                  123.98136 (Kcal/Mol)
 Warning -- explicit consideration of  11 degrees of freedom as
           vibrations may cause significant error
 Vibrational temperatures:     69.45    95.23   120.51   174.72   199.95
          (Kelvin)            264.21   275.22   351.20   393.83   549.29
                              652.90   961.35  1014.27  1056.50  1096.20
                             1210.98  1268.14  1312.44  1346.25  1456.00
                             1465.62  1512.02  1528.58  1542.91  1641.19
                             1676.40  1762.59  1811.23  1837.43  1897.11
                             1897.41  1918.60  1924.81  1973.89  2014.89
                             2019.35  2037.99  2040.17  2083.51  2137.88
                             2139.36  2150.49  2157.75  2165.38  2178.76
                             2597.45  4114.08  4305.42  4310.50  4316.98
                             4331.58  4333.06  4333.60  4351.56  4351.98
                             4368.00  4383.73  4418.92  4435.68  4443.16
 
 Zero-point correction=                           0.197577 (Hartree/Particle)
 Thermal correction to Energy=                    0.207873
 Thermal correction to Enthalpy=                  0.208817
 Thermal correction to Gibbs Free Energy=         0.161069
 Sum of electronic and zero-point Energies=           -350.342153
 Sum of electronic and thermal Energies=              -350.331857
 Sum of electronic and thermal Enthalpies=            -350.330912
 Sum of electronic and thermal Free Energies=         -350.378661
 
                     E (Thermal)             CV                S
                      KCal/Mol        Cal/Mol-Kelvin    Cal/Mol-Kelvin
 Total                  130.442             35.321            100.495
 Electronic               0.000              0.000              0.000
 Translational            0.889              2.981             40.111
 Rotational               0.889              2.981             29.262
 Vibrational            128.665             29.360             31.121
 Vibration     1          0.595              1.978              4.887
 Vibration     2          0.598              1.970              4.264
 Vibration     3          0.601              1.960              3.801
 Vibration     4          0.609              1.931              3.077
 Vibration     5          0.615              1.914              2.818
 Vibration     6          0.631              1.862              2.291
 Vibration     7          0.634              1.852              2.215
 Vibration     8          0.659              1.773              1.773
 Vibration     9          0.676              1.722              1.573
 Vibration    10          0.751              1.509              1.032
 Vibration    11          0.812              1.353              0.784
                       Q            Log10(Q)             Ln(Q)
 Total Bot       0.819452D-74        -74.086476       -170.590416
 Total V=0       0.620146D+17         16.792494         38.666146
 Vib (Bot)       0.308599D-87        -87.510605       -201.500615
 Vib (Bot)    1  0.428354D+01          0.631803          1.454779
 Vib (Bot)    2  0.311747D+01          0.493803          1.137023
 Vib (Bot)    3  0.245730D+01          0.390458          0.899064
 Vib (Bot)    4  0.168230D+01          0.225904          0.520164
 Vib (Bot)    5  0.146350D+01          0.165394          0.380834
 Vib (Bot)    6  0.109235D+01          0.038360          0.088328
 Vib (Bot)    7  0.104580D+01          0.019448          0.044781
 Vib (Bot)    8  0.801784D+00         -0.095942         -0.220916
 Vib (Bot)    9  0.704685D+00         -0.152005         -0.350004
 Vib (Bot)   10  0.473003D+00         -0.325137         -0.748655
 Vib (Bot)   11  0.376736D+00         -0.423963         -0.976210
 Vib (V=0)       0.233542D+04          3.368365          7.755947
 Vib (V=0)    1  0.481262D+01          0.682382          1.571242
 Vib (V=0)    2  0.365732D+01          0.563162          1.296729
 Vib (V=0)    3  0.300765D+01          0.478228          1.101161
 Vib (V=0)    4  0.225503D+01          0.353153          0.813165
 Vib (V=0)    5  0.204656D+01          0.311024          0.716160
 Vib (V=0)    6  0.170134D+01          0.230791          0.531417
 Vib (V=0)    7  0.165918D+01          0.219893          0.506323
 Vib (V=0)    8  0.144491D+01          0.159841          0.368048
 Vib (V=0)    9  0.136405D+01          0.134830          0.310458
 Vib (V=0)   10  0.118828D+01          0.074919          0.172508
 Vib (V=0)   11  0.112604D+01          0.051555          0.118710
 Electronic      0.100000D+01          0.000000          0.000000
 Translational   0.479080D+08          7.680408         17.684793
 Rotational      0.554269D+06          5.743721         13.225406
 ***** Axes restored to original set *****
 -------------------------------------------------------------------
 Center     Atomic                   Forces (Hartrees/Bohr)
 Number     Number              X              Y              Z
 -------------------------------------------------------------------
      1        8           0.000001907   -0.000018661    0.000004901
      2        6           0.000000639   -0.000002348   -0.000003669
      3        6          -0.000000474    0.000003841    0.000001959
      4        6          -0.000000485    0.000003569    0.000003117
      5        6          -0.000001235   -0.000002507    0.000001181
      6        6           0.000000028   -0.000005101   -0.000018946
      7        6          -0.000000147    0.000000514   -0.000000858
      8        6           0.000000835    0.000021629   -0.000000019
      9        1          -0.000000589   -0.000001163    0.000001790
     10        1          -0.000000203   -0.000000487   -0.000000458
     11        1           0.000000322   -0.000001230   -0.000000763
     12        1           0.000000242   -0.000001234   -0.000002372
     13        1          -0.000000168   -0.000001543   -0.000002075
     14        1           0.000000518   -0.000000711   -0.000002136
     15        1          -0.000000288    0.000000754   -0.000000011
     16        1           0.000000541    0.000001405   -0.000001374
     17        1          -0.000000742    0.000000964    0.000006004
     18        1          -0.000000751   -0.000001246    0.000009128
     19        1           0.000000980    0.000000917    0.000000781
     20        1          -0.000000099   -0.000000441    0.000001920
     21        1           0.000000233   -0.000000014    0.000001280
     22        1          -0.000001062    0.000003094    0.000000618
 -------------------------------------------------------------------
 Cartesian Forces:  Max     0.000021629 RMS     0.000004726
 Leave Link  716 at Wed Feb  7 19:48:11 2024, MaxMem=  6710886400 cpu:               0.5 elap:               0.1
 (Enter /tmpu/scunam/7/gaussian-2016.03/g1/g16/l103.exe)

 GradGradGradGradGradGradGradGradGradGradGradGradGradGradGradGradGradGrad
 Berny optimization.
 Search for a local minimum.
 Step number   1 out of a maximum of    2
 All quantities printed in internal units (Hartrees-Bohrs-Radians)
 Second derivative matrix not updated -- analytic derivatives used.
 ITU=  0
     Eigenvalues ---    0.00030   0.00042   0.00114   0.00116   0.00164
     Eigenvalues ---    0.00241   0.00281   0.00633   0.01208   0.01694
     Eigenvalues ---    0.02208   0.02444   0.02599   0.03050   0.03640
     Eigenvalues ---    0.04071   0.04325   0.05048   0.05299   0.05928
     Eigenvalues ---    0.06541   0.07126   0.07280   0.07594   0.07984
     Eigenvalues ---    0.08781   0.09297   0.10711   0.11124   0.12763
     Eigenvalues ---    0.13161   0.14384   0.14923   0.15988   0.16327
     Eigenvalues ---    0.17257   0.20340   0.20510   0.23633   0.24616
     Eigenvalues ---    0.26417   0.34910   0.45830   0.52308   0.54173
     Eigenvalues ---    0.59716   0.64382   0.69180   0.70512   0.70748
     Eigenvalues ---    0.72440   0.74966   0.78356   0.78482   0.81533
     Eigenvalues ---    0.82469   0.86407   0.86766   0.87265   1.67221
 Angle between quadratic step and forces=  82.65 degrees.
 Linear search not attempted -- first point.
 B after Tr=    -0.000014    0.000004    0.000261
         Rot=    1.000000   -0.000093    0.000037   -0.000002 Ang=  -0.01 deg.
 Variable       Old X    -DE/DX   Delta X   Delta X   Delta X     New X
                                 (Linear)    (Quad)   (Total)
    X1        6.71680   0.00000   0.00000  -0.00020  -0.00023   6.71657
    Y1        1.91339  -0.00002   0.00000   0.00010   0.00011   1.91350
    Z1        0.10958   0.00000   0.00000   0.00322   0.00433   0.11391
    X2       -0.99018   0.00000   0.00000  -0.00001  -0.00002  -0.99020
    Y2       -1.16139  -0.00000   0.00000  -0.00020  -0.00020  -1.16159
    Z2       -0.02275  -0.00000   0.00000  -0.00138  -0.00141  -0.02416
    X3       -3.26047  -0.00000   0.00000   0.00004   0.00002  -3.26045
    Y3        0.62429   0.00000   0.00000  -0.00012  -0.00013   0.62417
    Z3        0.02437   0.00000   0.00000  -0.00159  -0.00146   0.02292
    X4        1.55029  -0.00000   0.00000  -0.00004  -0.00006   1.55023
    Y4        0.21322   0.00000   0.00000  -0.00011  -0.00011   0.21312
    Z4        0.03483   0.00000   0.00000  -0.00212  -0.00170   0.03313
    X5       -5.80812  -0.00000   0.00000  -0.00006  -0.00007  -5.80819
    Y5       -0.73728  -0.00000   0.00000  -0.00001  -0.00002  -0.73730
    Z5       -0.03398   0.00000   0.00000   0.00031   0.00000  -0.03398
    X6        3.80062   0.00000   0.00000   0.00006   0.00006   3.80068
    Y6       -1.58186  -0.00001   0.00000  -0.00003  -0.00001  -1.58186
    Z6       -0.01415  -0.00002   0.00000  -0.00043  -0.00018  -0.01434
    X7       -8.06521  -0.00000   0.00000   0.00009   0.00008  -8.06514
    Y7        1.06146   0.00000   0.00000   0.00016   0.00013   1.06159
    Z7        0.01207  -0.00000   0.00000   0.00166   0.00152   0.01359
    X8        6.35498   0.00000   0.00000  -0.00004  -0.00006   6.35492
    Y8       -0.33138   0.00002   0.00000   0.00016   0.00018  -0.33121
    Z8        0.03687  -0.00000   0.00000   0.00143   0.00210   0.03897
    X9       -1.10933  -0.00000   0.00000   0.00021   0.00009  -1.10924
    Y9       -2.45727  -0.00000   0.00000   0.00044   0.00015  -2.45713
    Z9        1.58944   0.00000   0.00000  -0.00084  -0.00112   1.58832
   X10       -1.09287  -0.00000   0.00000  -0.00026  -0.00014  -1.09301
   Y10       -2.34878  -0.00000   0.00000  -0.00086  -0.00054  -2.34932
   Z10       -1.71752  -0.00000   0.00000  -0.00090  -0.00116  -1.71868
   X11       -3.14286   0.00000   0.00000  -0.00057  -0.00047  -3.14333
   Y11        1.92045  -0.00000   0.00000  -0.00105  -0.00076   1.91969
   Z11       -1.58688  -0.00000   0.00000  -0.00238  -0.00200  -1.58888
   X12       -3.16020   0.00000   0.00000   0.00080   0.00065  -3.15956
   Y12        1.81141  -0.00000   0.00000   0.00084   0.00052   1.81192
   Z12        1.71870  -0.00000   0.00000  -0.00232  -0.00196   1.71674
   X13        1.66949  -0.00000   0.00000  -0.00030  -0.00045   1.66904
   Y13        1.39971  -0.00000   0.00000   0.00109   0.00078   1.40049
   Z13        1.72217  -0.00000   0.00000  -0.00296  -0.00232   1.71986
   X14        1.68498   0.00000   0.00000   0.00012   0.00021   1.68519
   Y14        1.50874  -0.00000   0.00000  -0.00125  -0.00095   1.50778
   Z14       -1.56907  -0.00000   0.00000  -0.00304  -0.00238  -1.57144
   X15       -5.90722  -0.00000   0.00000  -0.00130  -0.00118  -5.90840
   Y15       -1.92334   0.00000   0.00000  -0.00026   0.00005  -1.92329
   Z15       -1.72740  -0.00000   0.00000   0.00056   0.00002  -1.72738
   X16       -5.92548   0.00000   0.00000   0.00098   0.00085  -5.92463
   Y16       -2.03100   0.00000   0.00000   0.00026  -0.00005  -2.03104
   Z16        1.57747  -0.00000   0.00000   0.00059   0.00004   1.57751
   X17        3.76484  -0.00000   0.00000   0.00125   0.00137   3.76621
   Y17       -2.79866   0.00000   0.00000  -0.00049  -0.00016  -2.79882
   Z17       -1.69602   0.00001   0.00000  -0.00007  -0.00005  -1.69607
   X18        3.75116  -0.00000   0.00000  -0.00093  -0.00105   3.75011
   Y18       -2.90591  -0.00000   0.00000   0.00044   0.00016  -2.90574
   Z18        1.58417   0.00001   0.00000  -0.00002  -0.00002   1.58415
   X19       -9.85194   0.00000   0.00000  -0.00001  -0.00002  -9.85197
   Y19        0.03065   0.00000   0.00000   0.00029   0.00027   0.03093
   Z19       -0.03122   0.00000   0.00000   0.00290   0.00243  -0.02879
   X20       -8.03712  -0.00000   0.00000  -0.00088  -0.00079  -8.03790
   Y20        2.33570  -0.00000   0.00000   0.00008   0.00036   2.33606
   Z20       -1.61300   0.00000   0.00000   0.00159   0.00169  -1.61131
   X21       -8.05542   0.00000   0.00000   0.00131   0.00116  -8.05425
   Y21        2.22761  -0.00000   0.00000   0.00023  -0.00011   2.22750
   Z21        1.71657   0.00000   0.00000   0.00161   0.00168   1.71825
   X22        7.98002  -0.00000   0.00000   0.00007   0.00006   7.98008
   Y22       -1.66359   0.00000   0.00000   0.00030   0.00033  -1.66326
   Z22        0.00160   0.00000   0.00000   0.00138   0.00192   0.00352
         Item               Value     Threshold  Converged?
 Maximum Force            0.000022     0.000450     YES
 RMS     Force            0.000005     0.000300     YES
 Maximum Displacement     0.004331     0.001800     NO 
 RMS     Displacement     0.001104     0.001200     YES
 Predicted change in Energy=-2.281353D-08
 GradGradGradGradGradGradGradGradGradGradGradGradGradGradGradGradGradGrad

 Leave Link  103 at Wed Feb  7 19:48:11 2024, MaxMem=  6710886400 cpu:               0.3 elap:               0.0
 (Enter /tmpu/scunam/7/gaussian-2016.03/g1/g16/l9999.exe)

 ----------------------------------------------------------------------

 Electric dipole moment (input orientation):
 (Debye = 10**-18 statcoulomb cm , SI units = C m)
                  (au)            (Debye)         (10**-30 SI)
   Tot        0.107575D+01      0.273427D+01      0.912055D+01
   x         -0.470786D+00     -0.119662D+01     -0.399149D+01
   y         -0.966703D+00     -0.245711D+01     -0.819605D+01
   z         -0.327849D-01     -0.833308D-01     -0.277962D+00

 Dipole polarizability, Alpha (input orientation).
 (esu units = cm**3 , SI units = C**2 m**2 J**-1)
 Alpha(0;0):
               (au)            (10**-24 esu)      (10**-40 SI)
   iso        0.887902D+02      0.131573D+02      0.146395D+02
   aniso      0.330733D+02      0.490096D+01      0.545306D+01
   xx         0.109126D+03      0.161708D+02      0.179925D+02
   yx        -0.210240D+01     -0.311544D+00     -0.346640D+00
   yy         0.856811D+02      0.126966D+02      0.141269D+02
   zx         0.111289D+00      0.164914D-01      0.183491D-01
   zy         0.442561D+00      0.655808D-01      0.729685D-01
   zz         0.715634D+02      0.106046D+02      0.117992D+02

 First dipole hyperpolarizability, Beta (input orientation).
 ||, _|_  parallel and perpendicular components, (z) with respect to z axis,
 vector components x,y,z.  Values do not include the 1/n! factor of 1/2.
 (esu units = statvolt**-1 cm**4 , SI units = C**3 m**3 J**-2)
 Beta(0;0,0):
               (au)            (10**-30 esu)      (10**-50 SI)
   || (z)    -0.289473D+01     -0.250082D-01     -0.928156D-02
   _|_(z)    -0.964911D+00     -0.833608D-02     -0.309385D-02
   x          0.661678D+02      0.571638D+00      0.212158D+00
   y         -0.460756D+03     -0.398057D+01     -0.147735D+01
   z         -0.144737D+02     -0.125041D+00     -0.464078D-01
   ||         0.931415D+02      0.804670D+00      0.298645D+00
   xxx        0.196946D+02      0.170146D+00      0.631479D-01
   xxy       -0.634713D+02     -0.548343D+00     -0.203512D+00
   yxy        0.191453D+02      0.165400D+00      0.613866D-01
   yyy       -0.786243D+02     -0.679253D+00     -0.252098D+00
   xxz       -0.185523D+01     -0.160277D-01     -0.594853D-02
   yxz        0.899557D+00      0.777147D-02      0.288431D-02
   yyz       -0.169671D+01     -0.146582D-01     -0.544026D-02
   zxz       -0.167839D+02     -0.145000D+00     -0.538153D-01
   zyz       -0.114896D+02     -0.992612D-01     -0.368398D-01
   zzz       -0.127262D+01     -0.109944D-01     -0.408048D-02

 ----------------------------------------------------------------------

 Dipole orientation:
     8          4.66172516         -2.30644868         -4.66230187
     6         -0.33342101          0.18717753          1.47770245
     6         -2.85894396          1.44877571          0.86514746
     6          1.17278496         -0.56193503         -0.87113537
     6         -4.37654568          2.20228188          3.20543542
     6          3.68528847         -1.81867970         -0.24135171
     6         -6.89723977          3.45974903          2.57540789
     6          5.25012784         -2.60005994         -2.48450874
     1          0.80217583          1.46777135          2.64523503
     1         -0.67587458         -1.49252512          2.64131620
     1         -3.99548308          0.16968757         -0.30199247
     1         -2.51852395          3.12901647         -0.29714866
     1          1.52559581          1.10424689         -2.04093921
     1          0.05343281         -1.84144416         -2.04539173
     1         -4.71606372          0.52256104          4.36624949
     1         -3.24070852          3.48185066          4.37025898
     1          3.41410879         -3.51883781          0.91902504
     1          4.88216933         -0.58351664          0.92142281
     1         -7.93181903          3.97339309          4.28498224
     1         -8.10277025          2.20089300          1.46755774
     1         -6.61646262          5.18232538          1.47122692
     1          7.07910376         -3.51350298         -1.99744258

 Electric dipole moment (dipole orientation):
 (Debye = 10**-18 statcoulomb cm , SI units = C m)
                  (au)            (Debye)         (10**-30 SI)
   Tot        0.107575D+01      0.273427D+01      0.912055D+01
   x          0.000000D+00      0.000000D+00      0.000000D+00
   y          0.000000D+00      0.000000D+00      0.000000D+00
   z          0.107575D+01      0.273427D+01      0.912055D+01

 Dipole polarizability, Alpha (dipole orientation).
 (esu units = cm**3 , SI units = C**2 m**2 J**-1)
 Alpha(0;0):
               (au)            (10**-24 esu)      (10**-40 SI)
   iso        0.887902D+02      0.131573D+02      0.146395D+02
   aniso      0.330733D+02      0.490096D+01      0.545306D+01
   xx         0.993638D+02      0.147242D+02      0.163829D+02
   yx        -0.138799D+02     -0.205678D+01     -0.228848D+01
   yy         0.784749D+02      0.116288D+02      0.129388D+02
   zx        -0.709494D+01     -0.105136D+01     -0.116980D+01
   zy         0.353396D+01      0.523679D+00      0.582672D+00
   zz         0.885319D+02      0.131191D+02      0.145969D+02

 First dipole hyperpolarizability, Beta (dipole orientation).
 ||, _|_  parallel and perpendicular components, (z) with respect to z axis,
 vector components x,y,z.  Values do not include the 1/n! factor of 1/2.
 (esu units = statvolt**-1 cm**4 , SI units = C**3 m**3 J**-2)
 Beta(0;0,0):
               (au)            (10**-30 esu)      (10**-50 SI)
   || (z)     0.771070D+02      0.666144D+00      0.247233D+00
   _|_(z)     0.257023D+02      0.222048D+00      0.824109D-01
   x          0.233663D+03      0.201866D+01      0.749207D+00
   y         -0.116825D+03     -0.100928D+01     -0.374585D+00
   z          0.385535D+03      0.333072D+01      0.123616D+01
   ||         0.931415D+02      0.804670D+00      0.298645D+00
   xxx        0.648736D+02      0.560458D+00      0.208008D+00
   xxy       -0.414522D+02     -0.358115D+00     -0.132911D+00
   yxy        0.139618D+02      0.120619D+00      0.447667D-01
   yyy        0.207450D+01      0.179220D-01      0.665158D-02
   xxz        0.378325D+02      0.326844D+00      0.121305D+00
   yxz       -0.100410D+02     -0.867466D-01     -0.321951D-01
   yyz        0.226567D+02      0.195736D+00      0.726455D-01
   zxz       -0.947929D+00     -0.818937D-02     -0.303940D-02
   zyz        0.435939D+00      0.376617D-02      0.139778D-02
   zzz        0.680224D+02      0.587660D+00      0.218104D+00

 ----------------------------------------------------------------------
 1\1\GINC-MN444\Freq\RB3LYP\def2TZVP\C7H14O1\AGRC_A\07-Feb-2024\0\\#P G
 eom=AllCheck Guess=TCheck SCRF=Check GenChk RB3LYP/def2TZVP Freq\\Hept
 anal\\0,1\O,3.554376157,1.0125235257,0.057987082\C,-0.5239800942,-0.61
 45836529,-0.0120378638\C,-1.7253656149,0.3303621511,0.0128978175\C,0.8
 203774813,0.1128327871,0.018430754\C,-3.0735253483,-0.3901539223,-0.01
 79827086\C,2.0112026563,-0.8370821087,-0.0074898954\C,-4.2679271722,0.
 5616989651,0.0063886096\C,3.3629103473,-0.1753595266,0.0195086566\H,-0
 .5870320541,-1.3003327556,0.8410930188\H,-0.5783220883,-1.2429183076,-
 0.908872972\H,-1.6631279188,1.0162599149,-0.8397416125\H,-1.6723078062
 ,0.9585543134,0.9094966189\H,0.8834534311,0.7406924529,0.9113347013\H,
 0.8916518965,0.7983881898,-0.8303138065\H,-3.1259685286,-1.0177889569,
 -0.9141014809\H,-3.1356278549,-1.0747569922,0.8347600722\H,1.992266902
 ,-1.4809851902,-0.8974939744\H,1.9850281664,-1.5377400101,0.8383063305
 \H,-5.2134232707,0.0162214043,-0.0165214197\H,-4.2530596612,1.23600027
 47,-0.8535634426\H,-4.2627423851,1.1788007203,0.9083697522\H,4.2228427
 597,-0.8803332761,0.0008457627\\Version=ES64L-G16RevA.03\State=1-A\HF=
 -350.5397297\RMSD=1.267e-09\RMSF=4.726e-06\ZeroPoint=0.1975769\Thermal
 =0.2078732\Dipole=-0.4707865,-0.9667027,-0.0327849\DipoleDeriv=-0.6365
 679,-0.1345227,-0.0057492,-0.2268376,-0.9857642,-0.0228256,-0.0086526,
 -0.0223485,-0.3009618,0.0383124,0.0062766,-0.000539,0.0215487,0.118527
 6,-0.0022838,-0.000078,-0.0022604,0.1871955,0.0144915,0.0048054,-0.000
 6113,-0.0238859,0.0887224,-0.0025263,-0.0015812,-0.0024645,0.1649713,0
 .0608587,0.0046286,-0.00016,0.0059974,0.0560613,-0.00214,-0.0000069,-0
 .002175,0.1272754,0.0940714,-0.0074413,-0.00057,0.0418895,0.1103401,-0
 .001479,0.0010104,-0.0016788,0.1600388,-0.3118296,-0.1766925,-0.007968
 2,-0.2767725,-0.0568541,-0.0090126,-0.0114353,-0.0087001,0.1820317,0.0
 080339,0.0380007,0.0006126,-0.0027535,0.0911117,-0.0010841,-0.0007362,
 -0.0008847,0.1251407,1.0874521,0.1675606,0.0096603,0.1884379,1.1064081
 ,0.0323844,0.0102942,0.0322585,0.117823,-0.0039711,-0.0024371,0.006642
 9,-0.0018061,-0.0591558,0.0940587,0.0063266,0.1236072,-0.0822241,-0.00
 3829,-0.0008039,-0.0058953,-0.0004842,-0.0450169,-0.0916029,-0.0055208
 ,-0.1211614,-0.096522,-0.0009447,-0.0090934,0.0108519,-0.0016517,-0.05
 63071,0.0916234,0.009754,0.1196716,-0.0774648,-0.0007678,-0.0071357,-0
 .0104988,-0.0000748,-0.0425212,-0.0893519,-0.0089221,-0.1174629,-0.091
 4605,0.0129956,0.0057372,0.0019459,0.0084339,-0.0189563,-0.0767643,-0.
 0084225,-0.0911501,-0.0656081,0.0131377,0.004968,-0.0009343,0.0071694,
 -0.0301691,0.079077,0.0095592,0.0934309,-0.0541846,-0.0063166,0.018909
 1,0.0129788,-0.0055556,-0.0498921,-0.0980217,-0.0086144,-0.1263618,-0.
 0943912,-0.0063117,0.0182577,-0.0108694,-0.0072394,-0.0646594,0.099911
 8,0.0091065,0.1285143,-0.0796408,0.0020411,-0.0104145,0.0067711,0.0639
 353,0.0182486,-0.0685774,0.0146861,-0.1078613,-0.0426658,0.0021352,-0.
 0107758,-0.0071223,0.0642125,0.0064512,0.0723783,-0.0100206,0.1110779,
 -0.0310534,-0.1801534,-0.0512865,-0.0030199,-0.0931686,-0.0049243,-0.0
 02976,-0.0044075,-0.0027422,0.0706233,0.0393143,-0.0078981,0.034622,0.
 0437758,-0.0385019,0.0922136,-0.0110752,0.1160985,-0.0791225,0.0395484
 ,-0.0044178,-0.0336415,0.0439224,-0.025198,-0.0882327,0.0153108,-0.112
 6556,-0.0926575,-0.2617005,0.1537755,0.0034936,0.1509071,-0.1179505,-0
 .0047689,0.0034257,-0.0047516,0.0528573\Polar=109.1260322,-2.102404,85
 .6811018,0.1112894,0.4425612,71.5634328\PolarDeriv=1.7645649,3.8703684
 ,0.91336,0.1266029,0.030793,0.0494455,0.6489816,6.2697093,8.0564078,0.
 1635731,0.1305427,1.7071551,0.0190934,0.1714092,0.0628845,0.987909,3.1
 138216,0.260407,0.1422394,-2.7763226,0.771271,-0.0936746,-0.0334441,0.
 4404507,-4.4797881,0.998331,3.3601443,-0.0280846,-0.2491115,4.9752967,
 -0.1480458,-0.0254083,-0.287187,0.4233772,6.0856615,0.5711651,-0.51431
 01,2.7512316,-0.891755,0.0931158,0.0342504,-0.4898376,4.4528028,-0.916
 1796,-3.6449684,0.0334063,0.2489019,-5.0519163,0.1506918,0.0315011,0.2
 888909,-0.4254152,-6.2860208,-0.5888886,1.236575,2.0952115,-0.8275041,
 0.0783883,0.0180758,-0.2613788,3.6812125,-0.9156103,-3.0370854,0.02329
 01,0.2398688,-4.8373798,0.1316751,0.0180227,0.2650975,-0.4065895,-5.62
 25071,-0.5394018,-2.2788389,-3.0240172,1.033479,-0.113853,-0.0322536,0
 .393792,-4.5403477,1.1690228,3.4233483,-0.0233339,-0.2664232,5.1321805
 ,-0.1618436,-0.0244496,-0.3153324,0.2722033,6.6130492,0.6044925,-0.361
 1106,-1.3478449,1.0413368,-0.0446932,0.0148267,-0.3317375,-2.3718681,1
 .8252943,4.8023614,0.0161393,-0.1685601,4.5181765,-0.0733327,0.0202876
 ,-0.2065715,0.3825326,5.6290872,0.5176915,2.2374947,4.6743363,-0.48452
 55,0.162767,0.0521403,-0.3617998,6.763,0.6129306,-1.6191745,0.0611096,
 0.2835261,-4.6784018,0.2246102,0.0555571,0.3054705,0.6502828,-5.534662
 1,-0.5073454,-1.4089239,2.1350143,-2.9096179,0.0553346,-0.1062675,0.91
 82406,7.1132065,-7.6387127,-1.9134699,-0.2221505,-0.0097841,-1.0087921
 ,0.2142812,-0.2422504,0.0309158,0.4612457,-1.6301132,-0.127088,-0.2046
 566,-0.4783575,-0.257973,1.1815227,0.086279,-0.1649132,-0.4686049,-0.2
 644187,-3.5649668,0.0987503,2.1327581,-2.0433615,2.4381829,-0.0133932,
 2.387508,-0.2298588,-3.0447683,3.7493596,-0.1555431,-0.3989562,-0.2251
 344,-1.2081266,-0.0650939,-0.1583075,-0.306709,-0.2393631,-3.1409085,-
 0.0832483,-2.0184152,-2.0531189,-2.4633325,0.038351,-2.2070563,-0.2302
 426,-3.0678323,-4.2902393,0.1562899,0.4205761,0.1647823,-1.12306,-0.03
 47599,0.1384439,0.3546189,0.1545869,3.5817578,-0.0069957,-2.1538421,2.
 0164557,-2.4172082,0.0791145,-2.4946391,0.1697254,3.0732337,-3.7862339
 ,0.1063453,0.3472022,0.1365837,1.1468671,0.0077286,0.1225214,0.1946842
 ,0.1387366,3.1466738,-0.0125898,2.0406494,2.0266881,2.4316206,-0.10869
 43,2.3113959,0.1578035,3.1030203,4.3344055,0.1401738,0.3545293,0.13941
 22,1.0967714,0.0501061,0.2135178,0.4348131,0.2809754,2.9242252,0.09860
 66,1.8963068,2.0739926,2.2557436,-0.0226293,2.0794161,0.348043,2.89314
 75,4.2036448,0.1820391,0.4253115,0.167328,-1.0743621,-0.0773258,0.2212
 925,0.5865441,0.3055301,3.325445,-0.1166847,-2.0131179,2.0716573,-2.22
 83824,-0.0036904,-2.2512379,0.3465287,2.8776173,-3.6712821,0.1953753,-
 0.4681146,-0.2702849,-1.2808413,-0.0994038,-0.2547255,-0.1745879,-0.64
 56967,-3.5133443,-0.3331206,-2.2277079,-2.2167579,-2.1758735,-0.168503
 6,-2.4736502,-0.6264772,-3.3929814,-4.602719,0.1423134,-0.5543646,-0.3
 133902,1.2589269,0.1289335,-0.259728,-0.3236658,-0.7054539,-3.9792115,
 0.351124,2.3412651,-2.1922674,2.1740363,0.1967145,2.6674112,-0.6024386
 ,-3.3540919,4.0038837,-0.2260824,-0.7658985,0.188177,-1.2750505,0.1968
 642,0.0571515,-0.9082651,-0.4407704,-4.2038171,0.087673,-2.2573223,-2.
 2938811,-2.1534852,0.1246903,-2.5906741,0.0451382,-3.311586,-4.3583549
 ,-0.2624773,-0.8453953,0.1893337,1.2199886,-0.1667188,0.0209029,-1.045
 7053,-0.4442043,-4.6767481,-0.1078581,2.3289536,-2.2625983,2.0824316,-
 0.1367267,2.7321019,0.0253753,-3.2566607,3.7828278,-10.6661096,-2.3584
 78,-1.0938948,-0.1219196,-0.0249318,-0.7352244,-4.2180366,-2.0294616,-
 1.8943353,-0.0376206,-0.0715294,-0.1035962,-0.1783593,-0.0287117,-0.07
 19567,-1.5586967,0.0666881,-0.0198158,-0.3658985,0.3081451,0.0967326,-
 1.2007271,0.1137434,-0.0628229,0.2914292,-0.9857586,3.6961894,0.559418
 1,-2.3554657,2.3955068,-1.8318246,0.8133478,-2.3807994,-1.0276234,3.06
 17813,-4.3684989,-0.4130256,0.2396786,0.087496,1.2270389,-0.1330052,-0
 .1032608,0.1837706,-0.9205608,3.2502309,-0.5748257,2.2168676,2.3797416
 ,1.8666023,-0.8359745,2.2099373,-1.135645,3.0486552,4.8971976,10.55356
 59,-4.6038556,2.3447875,-0.1110163,0.0394636,0.6079773,-5.867485,4.391
 0737,-4.3787542,0.053422,-0.0683606,-0.5547796,-0.1572813,0.0614365,-0
 .061925,1.9728225,-1.064539,-0.0652074\HyperPolar=19.6945789,-63.47131
 46,19.1452544,-78.6242998,-1.8552285,0.8995571,-1.6967091,-16.7839154,
 -11.4896012,-1.2726191\Quadrupole=-3.1569246,0.1166957,3.0402289,-6.50
 67449,-0.2350275,-0.1237334\PG=C01 [X(C7H14O1)]\NImag=0\\0.10456195,0.
 11970052,0.83362494,0.00415454,0.02624223,0.02303803,0.00089071,-0.000
 97385,-0.00003061,0.44880280,-0.00122703,0.00202325,0.00004005,0.00700
 500,0.52359563,-0.00003573,0.00003955,0.00060597,-0.00042215,-0.001798
 91,0.57897903,0.00030601,-0.00040661,-0.00001062,-0.13395580,0.0493450
 9,0.00134723,0.44860376,-0.00003471,-0.00043917,-0.00000739,0.04983649
 ,-0.12477303,-0.00125276,0.00633958,0.52483314,0.00000101,-0.00000928,
 -0.00020589,0.00135263,-0.00125191,-0.07900730,-0.00048754,-0.00180400
 ,0.58048665,0.00370342,0.00401424,0.00015083,-0.15158408,-0.04646707,-
 0.00188280,-0.02947826,-0.01077287,-0.00049680,0.45216312,-0.00047114,
 -0.00276848,0.00000521,-0.04592591,-0.10757198,-0.00112320,0.01788799,
 0.01356278,0.00056953,0.00656723,0.52949993,0.00000603,0.00002467,-0.0
 0287708,-0.00185088,-0.00112469,-0.08024153,0.00044898,0.00042791,-0.0
 0102500,-0.00042799,-0.00192874,0.58830872,0.00008441,-0.00006605,-0.0
 0000199,-0.02916639,-0.01025107,-0.00048298,-0.15059859,-0.04572811,-0
 .00187938,-0.00181539,0.00296706,0.00009082,0.44561682,0.00014141,0.00
 029731,0.00000886,0.01849211,0.01366891,0.00058399,-0.04478040,-0.1078
 6392,-0.00117160,0.00324253,-0.00462173,-0.00011232,0.00258246,0.52565
 710,0.00000501,0.00000813,0.00003647,0.00045913,0.00043294,-0.00114988
 ,-0.00185493,-0.00117619,-0.07947219,0.00010212,-0.00011235,-0.0007298
 5,-0.00067715,-0.00184273,0.58252837,0.00300303,-0.02790052,-0.0009875
 0,-0.03118615,0.02042652,0.00053196,-0.00363206,-0.00406453,-0.0001483
 4,-0.13568000,0.04901693,0.00137466,-0.00043196,0.00171840,0.00005128,
 0.46567050,-0.04490889,-0.03867758,-0.00226460,-0.01031890,0.01331063,
 0.00044550,-0.00311676,-0.00344165,-0.00011992,0.05238759,-0.12858234,
 -0.00134230,-0.00099285,0.00155683,0.00002447,-0.01523923,0.52037413,-
 0.00152241,-0.00218321,0.02592190,-0.00047365,0.00058618,-0.00168055,-
 0.00011965,-0.00012329,-0.00026029,0.00148676,-0.00135415,-0.08032214,
 -0.00003814,0.00003785,0.00064469,-0.00072986,-0.00016967,0.51922916,-
 0.00003112,-0.00007653,-0.00000247,-0.00342172,-0.00373137,-0.00013929
 ,-0.03027633,0.01919710,0.00046465,-0.00053077,0.00151503,0.00004358,-
 0.14153723,0.05208064,0.00135056,-0.00048203,-0.00044913,-0.00001687,0
 .50653430,-0.00009080,-0.00013870,-0.00000422,-0.00329725,-0.00301369,
 -0.00009954,-0.01054866,0.01281656,0.00037637,-0.00101604,0.00128456,0
 .00001618,0.05390024,-0.12463812,-0.00118435,-0.00048715,-0.00049045,-
 0.00001802,0.05120423,0.52314611,-0.00000303,-0.00000429,-0.00001744,-
 0.00012174,-0.00010044,-0.00056122,-0.00050649,0.00053955,-0.00046466,
 -0.00003906,0.00002891,0.00065005,0.00140577,-0.00119173,-0.07920845,-
 0.00001848,-0.00001806,-0.00001068,0.00137136,-0.00087311,0.55895265,-
 0.12276404,-0.09856547,-0.00337105,-0.00121232,0.00303424,0.00009882,-
 0.00046780,-0.00067243,-0.00002727,-0.03328330,-0.00688859,-0.00037701
 ,-0.00026621,-0.00002498,-0.00000216,-0.18464397,-0.01790055,-0.000980
 97,0.00000568,0.00009113,0.00000288,0.53708859,-0.09200634,-0.74504332
 ,-0.02195099,0.00414704,-0.00724720,-0.00021187,0.00199063,0.00184858,
 0.00004808,0.01692812,0.01906096,0.00068401,0.00038232,-0.00088066,-0.
 00002663,-0.01410165,-0.08671167,-0.00003445,0.00024578,0.00031126,0.0
 0001122,0.03375438,0.96200906,-0.00316675,-0.02198302,-0.06559959,0.00
 012598,-0.00021599,-0.00014318,0.00005871,0.00003485,0.00067497,0.0004
 1453,0.00059021,-0.00010271,0.00001126,-0.00002848,-0.00000233,-0.0008
 6899,-0.00004971,-0.08699529,0.00000792,0.00001026,0.00000527,0.002480
 46,0.02391268,0.21323794,-0.00024849,0.00053802,-0.00009079,-0.0475473
 9,-0.00859803,0.01060416,-0.00063019,0.01684583,-0.02155133,-0.0043067
 1,-0.01866237,0.02459987,0.00175253,0.00073459,-0.00107030,0.00207004,
 -0.00091692,0.00090919,-0.00007294,0.00005847,0.00011617,-0.00013758,-
 0.00066421,-0.00032478,0.05688911,-0.00004639,0.00029594,-0.00002894,-
 0.00861924,-0.13931645,0.11651864,0.00060254,-0.01488235,0.01790980,-0
 .00237578,-0.01132071,0.01375192,-0.00125916,0.00036812,-0.00003579,0.
 00116662,0.00047282,-0.00040969,0.00007219,0.00013045,-0.00030685,-0.0
 0022801,-0.00028267,-0.00028808,0.00915659,0.15392655,-0.00014411,-0.0
 0029680,-0.00008873,0.01078348,0.11735017,-0.20196653,-0.00028360,-0.0
 0012317,0.00018888,0.00008457,-0.00044238,0.00057944,0.00031643,-0.000
 00204,0.00004150,-0.00039766,-0.00011830,0.00030535,-0.00021806,-0.000
 30616,0.00031542,0.00036955,-0.00001705,0.00025913,-0.01212899,-0.1315
 7737,0.21732498,-0.00024934,0.00052727,0.00012359,-0.04733710,-0.00679
 447,-0.00949353,-0.00086079,0.01540032,0.02260350,-0.00406399,-0.01700
 554,-0.02581033,0.00174452,0.00066509,0.00113704,0.00207448,-0.0008599
 7,-0.00095499,-0.00007356,0.00006326,-0.00011647,-0.00013615,-0.000683
 03,0.00027814,-0.00028423,0.00116745,0.00151509,0.05666795,-0.00005550
 ,0.00027207,0.00005171,-0.00681281,-0.12428215,-0.11147845,0.00077103,
 -0.01366094,-0.01882281,-0.00222628,-0.01039287,-0.01449126,-0.0012392
 1,0.00036509,0.00004388,0.00113643,0.00043886,0.00043016,0.00005414,0.
 00009122,0.00029300,-0.00020468,-0.00029879,0.00025069,0.00110712,0.01
 163265,0.01616112,0.00711079,0.13697940,0.00013882,0.00032571,-0.00006
 416,-0.00967386,-0.11230683,-0.21719170,0.00032564,-0.00063500,-0.0008
 1195,-0.00027873,-0.00045063,-0.00060320,-0.00038304,0.00003043,0.0000
 5321,0.00049301,0.00011945,0.00033720,0.00021782,0.00029252,0.00035640
 ,-0.00038772,-0.00002591,0.00027735,-0.00122041,-0.01392009,-0.0223170
 8,0.01097752,0.12636729,0.23449049,-0.00003610,-0.00011639,0.00000916,
 -0.00079093,0.01689340,-0.02155381,-0.04742654,-0.00831669,0.01074832,
 0.00169632,0.00069966,-0.00104189,-0.00436888,-0.01884647,0.02433469,-
 0.00009146,0.00002427,0.00016256,0.00180732,-0.00076139,0.00089351,0.0
 0011364,0.00003582,0.00008322,-0.00402555,0.00345516,0.00014967,0.0010
 0954,-0.00076651,0.00041342,0.05662775,0.00007116,0.00008825,-0.000011
 13,0.00059099,-0.01480284,0.01765068,-0.00825082,-0.13988704,0.1172780
 4,-0.00119131,0.00038407,-0.00005916,-0.00254841,-0.01152181,0.0137947
 6,0.00009217,0.00016180,-0.00033594,0.00096403,0.00058522,-0.00040359,
 -0.00008452,-0.00003518,-0.00005270,0.00338532,-0.00216117,-0.00027064
 ,-0.00073921,0.00037481,-0.00018791,0.00884180,0.15450191,-0.00002383,
 -0.00013300,0.00003651,-0.00019187,-0.00032780,0.00030473,0.01064577,0
 .11805651,-0.20256257,0.00025669,-0.00002584,0.00006957,0.00003130,-0.
 00032204,0.00033350,-0.00025405,-0.00035450,0.00029543,-0.00014664,-0.
 00014901,0.00017413,0.00003221,0.00020017,-0.00002817,0.00020799,-0.00
 033239,0.00170416,-0.00047515,0.00017363,0.00093044,-0.01199975,-0.132
 14101,0.21783197,-0.00003643,-0.00011678,-0.00001729,-0.00101765,0.015
 43683,0.02261396,-0.04722031,-0.00643039,-0.00952317,0.00168840,0.0006
 2577,0.00109862,-0.00409972,-0.01720174,-0.02556464,-0.00009306,0.0000
 3154,-0.00016485,0.00181457,-0.00070314,-0.00092221,0.00011482,0.00004
 295,-0.00007968,0.00101036,-0.00073623,-0.00046218,-0.00402351,0.00345
 668,0.00001932,-0.00026627,0.00107680,0.00148680,0.05638112,0.00006941
 ,0.00007856,0.00001414,0.00076265,-0.01360292,-0.01856689,-0.00638018,
 -0.12467150,-0.11220093,-0.00117053,0.00037634,0.00006730,-0.00238925,
 -0.01058082,-0.01453040,0.00007284,0.00011683,0.00032431,0.00094463,0.
 00054567,0.00043918,-0.00008288,-0.00002527,0.00005258,-0.00077126,0.0
 0037753,0.00014357,0.00339233,-0.00218646,0.00004774,0.00100650,0.0116
 5651,0.01620683,0.00673058,0.13738955,0.00002784,0.00013440,0.00004606
 ,0.00022782,-0.00042746,-0.00065986,-0.00941914,-0.11298362,-0.2179831
 4,-0.00031622,0.00005201,0.00008373,-0.00023270,-0.00057741,-0.0008728
 1,0.00025548,0.00034270,0.00034037,0.00022531,0.00016517,0.00020255,-0
 .00003629,-0.00019918,-0.00003861,0.00042649,-0.00021764,0.00092948,-0
 .00004394,0.00011303,0.00172742,-0.00118693,-0.01395710,-0.02223976,0.
 01072675,0.12689841,0.23518043,-0.00007620,-0.00138890,-0.00022303,-0.
 00380994,-0.01693713,-0.02539067,0.00184444,-0.00087153,-0.00108632,-0
 .04765226,-0.00722834,-0.01237450,-0.00012975,-0.00009810,0.00011545,-
 0.00048566,0.01527504,0.02297144,0.00003508,0.00007915,0.00008701,0.00
 118854,0.00184294,0.00074766,0.00125964,0.00059974,0.00048829,-0.00505
 705,-0.00286752,0.00003385,-0.00008718,0.00006934,0.00000466,-0.000322
 87,0.00053793,0.00061579,0.05649855,0.00008497,0.00105520,0.00017037,-
 0.00250098,-0.01021443,-0.01384502,0.00096064,0.00041888,0.00026241,-0
 .00688270,-0.12769702,-0.11655678,-0.00000899,0.00005813,0.00025173,0.
 00135453,-0.01352260,-0.01783842,-0.00000545,0.00002894,0.00004612,-0.
 00117245,-0.00049073,0.00013596,0.00060657,0.00013097,0.00007045,-0.00
 271267,-0.00091384,0.00013889,-0.00003249,0.00005143,0.00009933,-0.000
 36124,0.00064186,0.00018533,0.00718645,0.14059113,-0.00065550,0.001398
 84,0.00055276,-0.00049058,-0.00014934,-0.00020620,0.00033167,0.0000459
 8,0.00009369,-0.01100782,-0.11696886,-0.22230636,-0.00014757,0.0002995
 4,0.00034203,0.00131837,0.00045141,0.00018782,-0.00005912,-0.00004352,
 -0.00002907,-0.00080200,-0.00203912,0.00002609,-0.00047851,-0.00011445
 ,0.00088880,0.00015103,0.00016228,0.00172631,-0.00002440,-0.00007681,-
 0.00007409,-0.00054211,0.00029395,0.00029285,0.01308858,0.13038107,0.2
 3871068,-0.00008703,-0.00138920,0.00012997,-0.00405474,-0.01857442,0.0
 2417267,0.00183696,-0.00094339,0.00104665,-0.04787330,-0.00920804,0.01
 340231,-0.00012920,-0.00008713,-0.00012615,-0.00026190,0.01677052,-0.0
 2192317,0.00003549,0.00008431,-0.00008081,0.00118491,0.00186775,-0.000
 61964,-0.00505235,-0.00285474,-0.00028877,0.00125779,0.00062893,-0.000
 44396,-0.00032191,0.00058054,-0.00058576,-0.00008730,0.00006895,-0.000
 00023,-0.00016881,0.00081634,-0.00123178,0.05675994,0.00003714,0.00115
 938,-0.00013703,-0.00265611,-0.01108623,0.01309198,0.00098545,0.000439
 46,-0.00023040,-0.00876714,-0.14354798,0.12171803,-0.00001540,0.000095
 60,-0.00026909,0.00128088,-0.01461749,0.01687981,-0.00000888,0.0000288
 0,-0.00004219,-0.00122377,-0.00061541,-0.00018400,-0.00269074,-0.00088
 028,-0.00033848,0.00057376,0.00013024,-0.00011481,-0.00039480,0.000672
 76,-0.00016474,-0.00003299,0.00005233,-0.00009146,0.00086831,0.0116629
 5,-0.01405386,0.00934285,0.15825434,0.00065990,-0.00137434,0.00045869,
 0.00028168,-0.00074733,0.00090541,-0.00025247,-0.00003325,0.00008340,0
 .01205667,0.12211939,-0.20626118,0.00014201,-0.00031673,0.00030524,-0.
 00124653,-0.00127241,0.00105927,0.00005932,0.00004808,-0.00002915,0.00
 073562,0.00201848,0.00014764,-0.00039497,-0.00036059,0.00168898,0.0005
 2079,0.00007061,0.00088758,0.00051169,-0.00026400,0.00026275,0.0000222
 8,0.00008580,-0.00007500,0.00149514,0.01631366,-0.02231565,-0.01417239
 ,-0.13564749,0.22082591,-0.00000266,0.00002302,0.00000892,0.00182275,-
 0.00092704,-0.00109146,-0.00413069,-0.01720773,-0.02564431,-0.00008544
 ,-0.00008571,0.00013195,-0.04715356,-0.00704796,-0.00971415,0.00002331
 ,0.00008182,0.00009362,-0.00053066,0.01626757,0.02306495,0.00001053,-0
 .00003253,-0.00000143,-0.00008071,0.00006971,-0.00000119,-0.00030682,0
 .00054965,0.00061357,0.00125429,0.00060484,0.00048813,-0.00517573,-0.0
 0286903,0.00001576,0.00012658,0.00018842,0.00019372,0.00001266,-0.0000
 1972,-0.00002097,0.05664074,-0.00001626,0.00000179,0.00001231,0.000971
 66,0.00028033,0.00020721,-0.00248708,-0.01063509,-0.01470717,-0.000017
 40,0.00011235,0.00026765,-0.00694000,-0.12577512,-0.11278478,-0.000034
 08,0.00000539,0.00004744,0.00054441,-0.01290410,-0.01782146,0.00002133
 ,0.00000546,-0.00000761,-0.00004389,0.00006088,0.00008390,-0.00037520,
 0.00068112,0.00024021,0.00062920,0.00013677,0.00009466,-0.00301602,-0.
 00103233,0.00011165,0.00020515,0.00005114,0.00006316,-0.00001621,-0.00
 004902,-0.00001469,0.00699147,0.13791346,-0.00000086,0.00002463,0.0000
 0292,0.00035704,-0.00002843,0.00004196,-0.00045703,-0.00059597,-0.0009
 0264,-0.00015954,0.00032933,0.00037006,-0.00969513,-0.11396688,-0.2189
 7738,-0.00007653,-0.00005530,-0.00002549,0.00033149,0.00026338,0.00024
 625,-0.00000990,0.00000608,0.00000163,-0.00001586,-0.00007318,-0.00007
 227,-0.00058557,0.00034155,0.00034901,-0.00044090,-0.00011900,0.000940
 24,-0.00005990,0.00010904,0.00178036,0.00021159,0.00006364,-0.00001415
 ,0.00002281,0.00000826,-0.00003097,0.01080355,0.12739612,0.23596083,-0
 .00000270,0.00002379,-0.00000747,0.00181470,-0.00099482,0.00104423,-0.
 00440418,-0.01884437,0.02442516,-0.00008648,-0.00007317,-0.00014182,-0
 .04738660,-0.00901206,0.01100680,0.00002325,0.00008707,-0.00008773,-0.
 00027787,0.01773896,-0.02197037,0.00001059,-0.00003250,-0.00000057,-0.
 00030697,0.00059219,-0.00058207,-0.00008086,0.00006831,0.00000561,-0.0
 0517333,-0.00285586,-0.00027771,0.00125606,0.00063504,-0.00044403,0.00
 001255,-0.00002096,0.00001994,0.00013060,0.00020154,-0.00017948,-0.000
 32351,0.00099280,-0.00123629,0.05689132,-0.00001621,0.00000423,-0.0000
 1233,0.00099083,0.00028959,-0.00018101,-0.00266672,-0.01158296,0.01396
 978,-0.00002534,0.00015237,-0.00028112,-0.00888720,-0.14088698,0.11778
 212,-0.00003853,0.00000477,-0.00004596,0.00037190,-0.01399239,0.016906
 09,0.00002066,0.00000528,0.00000803,-0.00040948,0.00071664,-0.00021902
 ,-0.00004405,0.00006101,-0.00007554,-0.00301002,-0.00100348,-0.0003253
 0,0.00060084,0.00013915,-0.00014041,-0.00001485,-0.00004930,0.00001316
 ,0.00021890,0.00005900,-0.00005618,0.00106869,0.01184490,-0.01389697,0
 .00918066,0.15486747,-0.00000022,-0.00002427,0.00000048,-0.00027124,0.
 00003458,0.00003827,0.00024205,-0.00031188,0.00032477,0.00015382,-0.00
 034430,0.00032969,0.01099410,0.11896467,-0.20363463,0.00007458,0.00005
 823,-0.00002505,-0.00031410,-0.00099460,0.00108394,0.00001124,-0.00000
 621,0.00000181,0.00055270,-0.00031056,0.00031141,0.00001253,0.00008274
 ,-0.00007192,-0.00021332,-0.00032430,0.00174946,0.00048458,0.00007281,
 0.00094073,-0.00002321,-0.00000953,-0.00003055,-0.00019600,-0.00005652
 ,-0.00002604,0.00154743,0.01613757,-0.02233559,-0.01216189,-0.13258613
 ,0.21875162,-0.00450319,-0.00193935,0.00406185,0.00194126,0.00070769,0
 .00115600,-0.00012889,0.00008346,-0.00007227,-0.00005660,0.01513882,0.
 02205049,0.00000951,-0.00006153,-0.00006379,-0.04808315,-0.00400808,-0
 .01097385,0.00001438,0.00000376,-0.00000563,0.00255966,-0.01809154,-0.
 02779468,-0.00008995,-0.00009176,0.00000736,-0.00030071,-0.00043786,-0
 .00065601,0.00002199,-0.00000231,0.00002304,0.00007780,-0.00020242,-0.
 00018535,-0.00431989,0.00319406,-0.00025442,0.00098879,-0.00071137,-0.
 00050687,-0.00005496,-0.00002961,-0.00002134,-0.00000242,0.00000003,0.
 00000426,0.05123456,-0.00365903,0.00056265,0.00161394,-0.00118630,0.00
 049788,0.00025830,0.00000796,0.00004444,0.00020143,-0.00017457,-0.0125
 9038,-0.01692704,0.00000147,0.00001036,0.00005334,-0.00141648,-0.12243
 488,-0.11998104,-0.00000199,0.00001376,-0.00000655,-0.00120521,-0.0147
 6269,-0.01431386,0.00000339,0.00002845,0.00010692,0.00051711,0.0005704
 6,0.00021173,0.00001998,-0.00005576,-0.00000326,-0.00015774,0.00008835
 ,0.00007861,0.00325063,-0.00202759,0.00029286,-0.00041246,0.00026740,0
 .00018342,0.00003135,0.00001898,0.00000026,-0.00000234,0.00000091,0.00
 000369,0.00313367,0.13823068,-0.00020882,0.00105825,-0.00080607,-0.000
 29520,0.00010728,0.00029254,0.00018290,0.00026419,0.00023568,0.0007303
 7,-0.00016357,0.00022836,0.00003984,-0.00006916,-0.00002327,-0.0070059
 3,-0.11733972,-0.20567070,0.00002071,0.00002089,0.00000154,0.00140635,
 -0.00002719,-0.00064055,0.00005565,-0.00006134,-0.00016294,0.00050399,
 0.00011785,0.00020578,-0.00003116,0.00003010,-0.00002118,-0.00014767,0
 .00007241,-0.00001541,-0.00004901,0.00013926,0.00154660,0.00035505,0.0
 0000277,0.00078419,0.00000934,-0.00000111,0.00001883,0.00000653,0.0000
 0234,-0.00001360,0.00762448,0.12998723,0.22700183,-0.00447885,-0.00167
 292,-0.00420651,0.00194953,0.00077940,-0.00108758,-0.00012913,0.000080
 69,0.00007468,0.00014233,0.01654668,-0.02102040,0.00000917,-0.00006593
 ,0.00006010,-0.04826026,-0.00572923,0.01188191,0.00001443,0.00000347,0
 .00000598,0.00235586,-0.01985736,0.02658376,-0.00030297,-0.00047852,0.
 00062038,-0.00008936,-0.00009132,-0.00001293,0.00007484,-0.00021371,0.
 00017267,0.00002186,-0.00000048,-0.00002261,0.00098943,-0.00074443,0.0
 0046105,-0.00432507,0.00317206,0.00041149,-0.00000233,0.00000032,-0.00
 000420,-0.00005507,-0.00003094,0.00001861,0.00035521,0.00178180,-0.002
 19636,0.05137433,-0.00365671,0.00072787,-0.00153529,-0.00119649,0.0005
 1861,-0.00025396,0.00002281,0.00007593,-0.00021089,-0.00027604,-0.0136
 5028,0.01601590,0.00000458,0.00000906,-0.00005133,-0.00292793,-0.13829
 888,0.12441815,-0.00000066,0.00001472,0.00000738,-0.00121312,-0.015624
 22,0.01330943,0.00055010,0.00058936,-0.00018041,0.00000803,0.00003065,
 -0.00009405,-0.00016621,0.00009788,-0.00007294,0.00001781,-0.00005378,
 0.00000118,-0.00038793,0.00028350,-0.00022029,0.00324693,-0.00198587,-
 0.00049445,-0.00000187,0.00000125,-0.00000270,0.00003195,0.00001896,0.
 00000005,0.00175498,0.01109160,-0.01416146,0.00476844,0.15559089,-0.00
 005802,-0.00097027,-0.00100505,0.00022832,-0.00008428,0.00025995,-0.00
 018510,-0.00027346,0.00020287,-0.00074732,-0.00061175,0.00111011,-0.00
 003924,0.00007064,-0.00002200,0.00811648,0.12176318,-0.18974412,-0.000
 02067,-0.00001994,0.00000050,-0.00147574,-0.00112520,0.00044069,-0.000
 47276,-0.00009611,0.00018632,-0.00005429,0.00007318,-0.00016538,0.0001
 3776,-0.00006684,-0.00002194,0.00003271,-0.00003215,-0.00002288,-0.000
 38010,-0.00004215,0.00077207,0.00021305,-0.00034678,0.00150859,-0.0000
 0651,-0.00000134,-0.00001402,-0.00000796,0.00000084,0.00001898,0.00250
 879,0.01642656,-0.02329083,-0.00875514,-0.13467159,0.20959232,-0.00009
 742,-0.00008308,-0.00000306,-0.00093017,-0.00159321,-0.00006114,-0.002
 63836,0.00572988,0.00017185,-0.00029820,0.00063628,0.00001950,-0.02133
 783,-0.01424847,-0.00057265,-0.00022774,-0.00029379,-0.00001070,-0.238
 28216,-0.11403246,-0.00475254,0.00013981,0.00017087,0.00000613,-0.0000
 1374,0.00005708,-0.00010657,-0.00001387,0.00004924,0.00011018,0.000326
 54,0.00006942,0.00010272,0.00032330,0.00007218,-0.00009761,0.00002219,
 -0.00000201,-0.00002015,0.00002215,-0.00000334,0.00002010,0.00088251,-
 0.00007977,0.00065669,0.00089237,-0.00003381,-0.00065140,0.00000137,0.
 00001503,0.00001534,0.00000143,0.00001604,-0.00001427,0.26142425,0.000
 00033,0.00003025,0.00000090,0.00108152,0.00092519,0.00001692,0.0024220
 0,-0.00308972,-0.00009569,0.00026970,-0.00036970,-0.00001077,0.0204227
 6,0.01221782,0.00055556,0.00012219,0.00011076,0.00000428,-0.11567939,-
 0.11562863,-0.00285433,0.00001307,-0.00007668,-0.00000222,-0.00007091,
 0.00003903,0.00004574,-0.00006578,0.00003852,-0.00004249,0.00011715,0.
 00004562,-0.00029084,0.00009194,0.00000794,0.00027753,-0.00001298,-0.0
 0000731,0.00001703,-0.00001271,-0.00000651,-0.00001774,-0.00086645,0.0
 0094423,-0.00005119,-0.00085306,0.00095996,0.00009939,-0.00000204,0.00
 000011,-0.00000453,-0.00000198,-0.00000030,0.00000458,0.12397022,0.123
 96030,-0.00000053,0.00000045,0.00000191,0.00002687,0.00000168,0.000587
 55,0.00006277,-0.00007654,0.00026723,0.00000705,-0.00000836,-0.0000011
 8,0.00055340,0.00036498,-0.00140143,0.00000268,0.00000204,-0.00000260,
 -0.00480607,-0.00284552,-0.04743116,0.00000121,-0.00000133,-0.00000600
 ,0.00006904,-0.00004938,-0.00002188,-0.00007334,0.00005387,-0.00002089
 ,-0.00033706,-0.00029769,0.00022235,0.00034540,0.00028369,0.00026265,0
 .00000126,-0.00000545,0.00000221,-0.00000189,0.00000483,0.00000161,0.0
 0019457,0.00034038,0.00007787,-0.00024140,-0.00028324,0.00005315,0.000
 00122,-0.00000137,-0.00000134,-0.00000133,0.00000162,-0.00000112,0.005
 20791,0.00320485,0.04637607,0.00000864,-0.00000464,0.00000266,-0.00009
 001,0.00014609,0.00010936,0.00193213,0.00061770,-0.00120818,0.00001698
 ,-0.00009506,0.00007820,-0.00022894,0.01645896,-0.02201441,0.00002844,
 0.00001928,0.00000730,-0.04737423,-0.00504284,0.00584632,-0.00001065,-
 0.00000272,-0.00000330,0.00006818,-0.00021832,0.00017755,0.00001613,0.
 00000461,-0.00002425,-0.00026220,-0.00042628,0.00054663,-0.00009759,-0
 .00005602,0.00000672,-0.00000335,0.00000141,-0.00000429,-0.00005482,-0
 .00002583,0.00001311,0.00107658,-0.00085130,0.00032408,-0.00400331,0.0
 0356864,0.00009051,0.00000008,0.00000052,-0.00000393,0.00000864,-0.000
 00377,0.00000378,-0.00018587,-0.01624544,0.02310393,0.05007654,0.00002
 881,0.00002527,-0.00000450,0.00002901,0.00011851,-0.00022664,-0.001248
 55,0.00053426,-0.00021252,0.00001507,0.00000934,-0.00006446,-0.0000289
 9,-0.01436030,0.01744963,0.00001445,0.00003438,0.00000823,-0.00441353,
 -0.14194262,0.12322237,-0.00004552,-0.00003136,0.00000229,-0.00020146,
 0.00012072,-0.00008944,0.00000735,-0.00005444,0.00000376,0.00061376,0.
 00065935,-0.00023974,0.00006500,0.00005981,-0.00005638,-0.00000167,-0.
 00000057,0.00000029,0.00003882,0.00001671,0.00000055,-0.00070971,0.000
 29574,-0.00024812,0.00387690,-0.00190547,-0.00068653,0.00000229,-0.000
 00968,-0.00000025,-0.00000437,-0.00000437,-0.00000231,-0.00030715,-0.0
 1046062,0.01310228,0.00154045,0.15462659,-0.00001418,-0.00003612,0.000
 00547,-0.00017765,-0.00028000,0.00028199,0.00022770,-0.00014463,0.0001
 1240,-0.00004540,0.00006777,-0.00002815,-0.00030867,-0.00074414,0.0010
 6162,-0.00003428,-0.00003508,-0.00000015,0.00500385,0.12377654,-0.2092
 1291,0.00002673,0.00004640,-0.00000219,0.00016226,-0.00008095,-0.00002
 239,0.00001644,-0.00001429,-0.00002584,-0.00059011,-0.00013960,0.00019
 421,-0.00000444,0.00008401,-0.00009016,-0.00000336,0.00000347,-0.00000
 917,-0.00001274,0.00000209,0.00001951,-0.00051937,0.00014978,0.0008675
 2,0.00035061,-0.00038610,0.00166245,0.00000146,0.00000326,-0.00000108,
 0.00000410,-0.00000177,0.00000146,0.00067985,-0.00137177,0.00105680,-0
 .00603650,-0.13751983,0.22535068,0.00000849,-0.00000485,-0.00000296,-0
 .00009105,0.00015019,-0.00010315,0.00192152,0.00053304,0.00126377,0.00
 001727,-0.00008915,-0.00008385,-0.00047722,0.01499249,0.02302648,0.000
 02816,0.00001934,-0.00000577,-0.04727230,-0.00338050,-0.00425221,-0.00
 001033,-0.00000244,0.00000307,0.00001618,0.00000274,0.00002498,0.00007
 178,-0.00020720,-0.00019082,-0.00009753,-0.00005502,-0.00001005,-0.000
 26276,-0.00039005,-0.00057834,-0.00005483,-0.00002487,-0.00001553,-0.0
 0000349,0.00000115,0.00000447,-0.00400047,0.00356650,0.00007842,0.0010
 7463,-0.00082650,-0.00037658,0.00000872,-0.00000352,-0.00000395,0.0000
 0007,0.00000028,0.00000396,0.00008144,-0.01472265,-0.02411591,-0.00093
 216,0.00071367,0.00128160,0.04996316,0.00002780,0.00002254,0.00000580,
 0.00001545,0.00008590,0.00021414,-0.00123370,0.00051030,0.00022390,0.0
 0001137,0.00000949,0.00006708,0.00014644,-0.01321654,-0.01838475,0.000
 01221,0.00003246,-0.00000595,-0.00281370,-0.12624090,-0.11787085,-0.00
 004371,-0.00002805,-0.00000432,0.00000843,-0.00005489,-0.00000566,-0.0
 0019154,0.00010923,0.00009628,0.00006442,0.00006108,0.00006696,0.00057
 195,0.00063205,0.00027492,0.00003799,0.00001692,-0.00000030,-0.0000018
 8,-0.00000036,0.00000026,0.00388656,-0.00196250,0.00049355,-0.00074444
 ,0.00029205,0.00020258,-0.00000414,-0.00000460,0.00000187,0.00000239,-
 0.00000945,-0.00000028,-0.00011418,-0.00964753,-0.01379199,0.00061733,
 0.01227095,0.01662371,-0.00026986,0.13712419,0.00001606,0.00003714,0.0
 0000825,0.00017500,0.00026866,0.00031452,-0.00028843,0.00017670,0.0001
 4880,0.00004670,-0.00006626,-0.00002862,0.00030298,-0.00001950,0.00017
 157,0.00003543,0.00003737,0.00000201,-0.00337239,-0.11843047,-0.225025
 45,-0.00002972,-0.00004805,-0.00000564,-0.00001558,0.00001250,-0.00002
 507,-0.00017408,0.00008725,-0.00001454,0.00000905,-0.00007478,-0.00009
 208,0.00062307,0.00016305,0.00022094,0.00001445,-0.00000255,0.00001931
 ,0.00000327,-0.00000291,-0.00000932,-0.00016100,0.00018952,0.00171671,
 0.00047450,-0.00019668,0.00087190,-0.00000430,0.00000135,0.00000161,-0
 .00000128,-0.00000380,-0.00000128,-0.00069993,0.00051452,-0.00002330,-
 0.00101497,-0.01443945,-0.02122116,0.00405213,0.13179378,0.24297157,0.
 02004692,0.00987825,0.00031382,-0.00102632,0.00217120,0.00006590,-0.00
 046690,-0.00077733,-0.00002730,-0.00263306,-0.00586843,-0.00021633,-0.
 00008948,0.00036607,0.00001166,-0.01936180,0.02003780,0.00048983,-0.00
 009832,-0.00013432,-0.00000491,-0.20184026,0.08406570,0.00205900,0.000
 03372,-0.00003385,0.00007586,0.00003517,-0.00002807,-0.00007704,0.0000
 1564,0.00002104,-0.00003381,0.00001490,0.00001908,0.00003542,0.0001908
 0,0.00007586,0.00016941,0.00019064,0.00008695,-0.00016059,-0.00000240,
 -0.00001600,-0.00002263,-0.00000275,-0.00001751,0.00002154,0.00032642,
 -0.00054327,-0.00100851,0.00034591,-0.00059123,0.00097229,-0.00009201,
 0.00002248,0.00000021,0.00001079,0.00001536,-0.00000792,0.00001069,0.0
 0001482,0.00000903,0.20439168,0.02602746,-0.05320226,-0.00220910,-0.00
 043491,0.00059649,0.00001133,-0.00021626,-0.00015696,-0.00000222,-0.00
 207278,-0.00133871,-0.00014203,-0.00005264,0.00004166,0.00000184,-0.01
 020408,0.01015787,-0.00023663,-0.00001345,-0.00000770,-0.00000037,0.09
 262107,-0.11108671,-0.00117701,0.00003485,0.00000841,0.00002504,0.0000
 3871,0.00001417,-0.00002077,0.00000982,-0.00001016,-0.00001568,0.00000
 755,-0.00000942,0.00001569,-0.00014373,-0.00006766,0.00024697,-0.00016
 465,-0.00004982,-0.00024107,0.00000466,0.00000438,0.00000191,0.0000043
 7,0.00000429,-0.00000149,0.00156324,0.00045956,0.00002389,0.00175594,0
 .00057686,0.00000549,0.00000502,0.00000728,0.00000021,-0.00000277,-0.0
 0000220,-0.00000275,-0.00000281,-0.00000234,0.00000261,-0.10876462,0.1
 5406295,0.00082477,-0.00227940,0.01994859,-0.00001853,0.00002185,0.000
 19604,-0.00000843,-0.00000455,-0.00012373,-0.00008842,-0.00016196,0.00
 279728,-0.00000193,0.00000378,-0.00002399,-0.00048579,-0.00010480,0.01
 641386,-0.00000088,-0.00000091,0.00000149,0.00233474,-0.00121397,-0.06
 150826,0.00006074,0.00007053,-0.00004696,-0.00005796,-0.00006703,-0.00
 005451,-0.00003372,0.00002860,-0.00000966,0.00003465,-0.00002845,-0.00
 000994,-0.00034497,0.00003821,-0.00017598,0.00033752,-0.00002801,-0.00
 019149,-0.00000513,-0.00000341,-0.00000167,0.00000539,0.00000362,-0.00
 000128,0.00309958,0.00181021,0.00032999,-0.00298638,-0.00179878,0.0001
 9475,-0.00000026,0.00000029,0.00000151,-0.00000032,0.00000078,-0.00000
 093,0.00000025,-0.00000074,-0.00000073,-0.00266492,0.00371413,0.022265
 63\\-0.00000191,0.00001866,-0.00000490,-0.00000064,0.00000235,0.000003
 67,0.00000047,-0.00000384,-0.00000196,0.00000049,-0.00000357,-0.000003
 12,0.00000123,0.00000251,-0.00000118,-0.00000003,0.00000510,0.00001895
 ,0.00000015,-0.00000051,0.00000086,-0.00000083,-0.00002163,0.00000002,
 0.00000059,0.00000116,-0.00000179,0.00000020,0.00000049,0.00000046,-0.
 00000032,0.00000123,0.00000076,-0.00000024,0.00000123,0.00000237,0.000
 00017,0.00000154,0.00000207,-0.00000052,0.00000071,0.00000214,0.000000
 29,-0.00000075,0.00000001,-0.00000054,-0.00000140,0.00000137,0.0000007
 4,-0.00000096,-0.00000600,0.00000075,0.00000125,-0.00000913,-0.0000009
 8,-0.00000092,-0.00000078,0.00000010,0.00000044,-0.00000192,-0.0000002
 3,0.00000001,-0.00000128,0.00000106,-0.00000309,-0.00000062\\\@


 Not by the face shall a man be known, but by the mask.
                               -- Karen Blixen
 Job cpu time:       0 days  1 hours 48 minutes 40.8 seconds.
 Elapsed time:       0 days  0 hours  6 minutes 48.0 seconds.
 File lengths (MBytes):  RWF=    223 Int=      0 D2E=      0 Chk=     10 Scr=      1
 Normal termination of Gaussian 16 at Wed Feb  7 19:48:12 2024.


PS:

Read file <Heptanal.err> for stderr output of this job.

