Sender: LSF System <lsfadmin@mn140>
Subject: Job 425563: <#!/bin/bash;#BSUB -q q_hpc;#BSUB -oo Benzaldehyde.out;#BSUB -eo Benzaldehyde.err;#BSUB -n 16; #BSUB -R "span[hosts=1]";#BSUB -m "g1 g3_a g3_b"; module load gaussian/2016.03;input=Benzaldehyde.com; sed -i "s/\( % nprocshared =\).*/\1 $LSB_DJOB_NUMPROC /g" $input;echo " Ejecucion de Gaussian ";g16 < $input> in cluster <cluster1> Done

Job <#!/bin/bash;#BSUB -q q_hpc;#BSUB -oo Benzaldehyde.out;#BSUB -eo Benzaldehyde.err;#BSUB -n 16; #BSUB -R "span[hosts=1]";#BSUB -m "g1 g3_a g3_b"; module load gaussian/2016.03;input=Benzaldehyde.com; sed -i "s/\( % nprocshared =\).*/\1 $LSB_DJOB_NUMPROC /g" $input;echo " Ejecucion de Gaussian ";g16 < $input> was submitted from host <mn325> by user <agrc_a> in cluster <cluster1>.
Job was executed on host(s) <16*mn140>, in queue <q_hpc>, as user <agrc_a> in cluster <cluster1>.
</home/ilgs_g/agrc_a> was used as the home directory.
</home/ilgs_g/agrc_a/work/g16scrdir/Test/Apocinaceas> was used as the working directory.
Started at Wed Feb  7 14:27:24 2024
Results reported on Wed Feb  7 14:40:07 2024

Your job looked like:

------------------------------------------------------------
# LSBATCH: User input
#!/bin/bash
#BSUB -q q_hpc
#BSUB -oo Benzaldehyde.out
#BSUB -eo Benzaldehyde.err
#BSUB -n 16

#BSUB -R "span[hosts=1]"
#BSUB -m "g1 g3_a g3_b"

module load gaussian/2016.03
input=Benzaldehyde.com

sed -i "s/\( % nprocshared =\).*/\1 $LSB_DJOB_NUMPROC /g" $input
echo " Ejecucion de Gaussian "
g16 < $input


------------------------------------------------------------

Successfully completed.

Resource usage summary:

    CPU time :                                   12070.10 sec.
    Max Memory :                                 8598.66 MB
    Average Memory :                             1619.74 MB
    Total Requested Memory :                     -
    Delta Memory :                               -
    Max Swap :                                   54731 MB
    Max Processes :                              5
    Max Threads :                                21

The output (if any) follows:

	 Directorio de scratch es: 	 /tmpu/ilgs_g/agrc_a/g16scrdir
 Ejecucion de Gaussian 
 Entering Gaussian System, Link 0=g16
 Initial command:
 /tmpu/scunam/7/gaussian-2016.03/g1/g16/l1.exe "/tmpu/ilgs_g/agrc_a/g16scrdir/Gau-65353.inp" -scrdir="/tmpu/ilgs_g/agrc_a/g16scrdir/"
 Entering Link 1 = /tmpu/scunam/7/gaussian-2016.03/g1/g16/l1.exe PID=     65354.
  
 Copyright (c) 1988,1990,1992,1993,1995,1998,2003,2009,2016,
            Gaussian, Inc.  All Rights Reserved.
  
 This is part of the Gaussian(R) 16 program.  It is based on
 the Gaussian(R) 09 system (copyright 2009, Gaussian, Inc.),
 the Gaussian(R) 03 system (copyright 2003, Gaussian, Inc.),
 the Gaussian(R) 98 system (copyright 1998, Gaussian, Inc.),
 the Gaussian(R) 94 system (copyright 1995, Gaussian, Inc.),
 the Gaussian 92(TM) system (copyright 1992, Gaussian, Inc.),
 the Gaussian 90(TM) system (copyright 1990, Gaussian, Inc.),
 the Gaussian 88(TM) system (copyright 1988, Gaussian, Inc.),
 the Gaussian 86(TM) system (copyright 1986, Carnegie Mellon
 University), and the Gaussian 82(TM) system (copyright 1983,
 Carnegie Mellon University). Gaussian is a federally registered
 trademark of Gaussian, Inc.
  
 This software contains proprietary and confidential information,
 including trade secrets, belonging to Gaussian, Inc.
  
 This software is provided under written license and may be
 used, copied, transmitted, or stored only in accord with that
 written license.
  
 The following legend is applicable only to US Government
 contracts under FAR:
  
                    RESTRICTED RIGHTS LEGEND
  
 Use, reproduction and disclosure by the US Government is
 subject to restrictions as set forth in subparagraphs (a)
 and (c) of the Commercial Computer Software - Restricted
 Rights clause in FAR 52.227-19.
  
 Gaussian, Inc.
 340 Quinnipiac St., Bldg. 40, Wallingford CT 06492
  
  
 ---------------------------------------------------------------
 Warning -- This program may not be used in any manner that
 competes with the business of Gaussian, Inc. or will provide
 assistance to any competitor of Gaussian, Inc.  The licensee
 of this program is prohibited from giving any competitor of
 Gaussian, Inc. access to this program.  By using this program,
 the user acknowledges that Gaussian, Inc. is engaged in the
 business of creating and licensing software in the field of
 computational chemistry and represents and warrants to the
 licensee that it is not a competitor of Gaussian, Inc. and that
 it will not use this program in any manner prohibited above.
 ---------------------------------------------------------------
  

 Cite this work as:
 Gaussian 16, Revision A.03,
 M. J. Frisch, G. W. Trucks, H. B. Schlegel, G. E. Scuseria, 
 M. A. Robb, J. R. Cheeseman, G. Scalmani, V. Barone, 
 G. A. Petersson, H. Nakatsuji, X. Li, M. Caricato, A. V. Marenich, 
 J. Bloino, B. G. Janesko, R. Gomperts, B. Mennucci, H. P. Hratchian, 
 J. V. Ortiz, A. F. Izmaylov, J. L. Sonnenberg, D. Williams-Young, 
 F. Ding, F. Lipparini, F. Egidi, J. Goings, B. Peng, A. Petrone, 
 T. Henderson, D. Ranasinghe, V. G. Zakrzewski, J. Gao, N. Rega, 
 G. Zheng, W. Liang, M. Hada, M. Ehara, K. Toyota, R. Fukuda, 
 J. Hasegawa, M. Ishida, T. Nakajima, Y. Honda, O. Kitao, H. Nakai, 
 T. Vreven, K. Throssell, J. A. Montgomery, Jr., J. E. Peralta, 
 F. Ogliaro, M. J. Bearpark, J. J. Heyd, E. N. Brothers, K. N. Kudin, 
 V. N. Staroverov, T. A. Keith, R. Kobayashi, J. Normand, 
 K. Raghavachari, A. P. Rendell, J. C. Burant, S. S. Iyengar, 
 J. Tomasi, M. Cossi, J. M. Millam, M. Klene, C. Adamo, R. Cammi, 
 J. W. Ochterski, R. L. Martin, K. Morokuma, O. Farkas, 
 J. B. Foresman, and D. J. Fox, Gaussian, Inc., Wallingford CT, 2016.
 
 ******************************************
 Gaussian 16:  ES64L-G16RevA.03 25-Dec-2016
                 7-Feb-2024 
 ******************************************
 %NProcShared=16
 Will use up to   16 processors via shared memory.
 %Mem=50GB
 %chk=Benzaldehyde.chk
 ----------------------------------------------------------------------
 #p b3lyp/def2TZVP opt=(cartesian,maxcycle=500,vtight) freq=raman scf=(
 maxcycle=1024,direct)
 ----------------------------------------------------------------------
 1/6=500,7=1,10=7,18=10,26=3,38=1/1,3;
 2/12=2,17=6,18=5,29=2,40=1/2;
 3/5=44,7=101,11=2,25=1,30=1,71=1,74=-5/1,2,3;
 4//1;
 5/5=2,7=1024,38=5/2;
 6/7=2,8=2,9=2,10=2,28=1/1;
 7/7=1,29=1/1,2,3,16;
 1/6=500,7=1,10=7,18=10,26=3/3(2);
 2/29=1/2;
 99/12=1/99;
 2/29=1/2;
 3/5=44,7=101,11=2,25=1,30=1,71=1,74=-5/1,2,3;
 4/5=5,16=3,69=1/1;
 5/5=2,7=1024,38=5/2;
 7/7=1/1,2,3,16;
 1/6=500,7=1,18=10,26=3/3(-5);
 2/29=1/2;
 6/7=2,8=2,9=2,10=2,19=2,28=1/1;
 99/9=1,12=1/99;
 Leave Link    1 at Wed Feb  7 14:27:24 2024, MaxMem=  6710886400 cpu:               0.7 elap:               0.0
 (Enter /tmpu/scunam/7/gaussian-2016.03/g1/g16/l101.exe)
 ------------
 Benzaldehyde
 ------------
 Symbolic Z-matrix:
 Charge =  0 Multiplicity = 1
 O                     2.8466   -0.387     0.0002 
 C                     0.5644    0.2371    0. 
 C                    -0.3437    1.296     0. 
 C                     0.1013   -1.0787    0. 
 C                    -1.7147    1.0393    0.0001 
 C                    -1.2698   -1.3354   -0.0001 
 C                    -2.1777   -0.2764    0. 
 C                     1.9937    0.505    -0.0003 
 H                     0.0016    2.3267    0. 
 H                     0.7902   -1.9194   -0.0001 
 H                    -2.4218    1.8637    0.0001 
 H                    -1.6308   -2.3599   -0.0001 
 H                    -3.2452   -0.4764    0. 
 H                     2.2986    1.5653   -0.0006 
 
 ITRead=  0  0  0  0  0  0  0  0  0  0  0  0  0  0
 MicOpt= -1 -1 -1 -1 -1 -1 -1 -1 -1 -1 -1 -1 -1 -1
 NAtoms=     14 NQM=       14 NQMF=       0 NMMI=      0 NMMIF=      0
                NMic=       0 NMicF=      0.
                    Isotopes and Nuclear Properties:
 (Nuclear quadrupole moments (NQMom) in fm**2, nuclear magnetic moments (NMagM)
  in nuclear magnetons)

  Atom         1           2           3           4           5           6           7           8           9          10
 IAtWgt=          16          12          12          12          12          12          12          12           1           1
 AtmWgt=  15.9949146  12.0000000  12.0000000  12.0000000  12.0000000  12.0000000  12.0000000  12.0000000   1.0078250   1.0078250
 NucSpn=           0           0           0           0           0           0           0           0           1           1
 AtZEff=  -0.0000000  -0.0000000  -0.0000000  -0.0000000  -0.0000000  -0.0000000  -0.0000000  -0.0000000  -0.0000000  -0.0000000
 NQMom=    0.0000000   0.0000000   0.0000000   0.0000000   0.0000000   0.0000000   0.0000000   0.0000000   0.0000000   0.0000000
 NMagM=    0.0000000   0.0000000   0.0000000   0.0000000   0.0000000   0.0000000   0.0000000   0.0000000   2.7928460   2.7928460
 AtZNuc=   8.0000000   6.0000000   6.0000000   6.0000000   6.0000000   6.0000000   6.0000000   6.0000000   1.0000000   1.0000000

  Atom        11          12          13          14
 IAtWgt=           1           1           1           1
 AtmWgt=   1.0078250   1.0078250   1.0078250   1.0078250
 NucSpn=           1           1           1           1
 AtZEff=  -0.0000000  -0.0000000  -0.0000000  -0.0000000
 NQMom=    0.0000000   0.0000000   0.0000000   0.0000000
 NMagM=    2.7928460   2.7928460   2.7928460   2.7928460
 AtZNuc=   1.0000000   1.0000000   1.0000000   1.0000000
 Leave Link  101 at Wed Feb  7 14:27:24 2024, MaxMem=  6710886400 cpu:               1.3 elap:               0.1
 (Enter /tmpu/scunam/7/gaussian-2016.03/g1/g16/l103.exe)

 GradGradGradGradGradGradGradGradGradGradGradGradGradGradGradGradGradGrad
 Berny optimization.
 Initialization pass.
 No Z-matrix variables, so optimization will use Cartesian coordinates.
 Trust Radius=3.00D-01 FncErr=1.00D-07 GrdErr=1.00D-06 EigMax=2.50D+02 EigMin=1.00D-04
 Number of steps in this run=    100 maximum allowed number of steps=    100.
 GradGradGradGradGradGradGradGradGradGradGradGradGradGradGradGradGradGrad

 Leave Link  103 at Wed Feb  7 14:27:24 2024, MaxMem=  6710886400 cpu:               0.3 elap:               0.0
 (Enter /tmpu/scunam/7/gaussian-2016.03/g1/g16/l202.exe)
 ---------------------------------------------------------------------------------------------------
                            Z-MATRIX (ANGSTROMS AND DEGREES)
   CD    Cent   Atom    N1       Length/X        N2       Alpha/Y        N3        Beta/Z          J
 ---------------------------------------------------------------------------------------------------
      1      1  O        0   2.846600         -0.387000          0.000200
      2      2  C        0   0.564400          0.237100          0.000000
      3      3  C        0  -0.343700          1.296000          0.000000
      4      4  C        0   0.101300         -1.078700          0.000000
      5      5  C        0  -1.714700          1.039300          0.000100
      6      6  C        0  -1.269800         -1.335400         -0.000100
      7      7  C        0  -2.177700         -0.276400          0.000000
      8      8  C        0   1.993700          0.505000         -0.000300
      9      9  H        0   0.001600          2.326700          0.000000
     10     10  H        0   0.790200         -1.919400         -0.000100
     11     11  H        0  -2.421800          1.863700          0.000100
     12     12  H        0  -1.630800         -2.359900         -0.000100
     13     13  H        0  -3.245200         -0.476400          0.000000
     14     14  H        0   2.298600          1.565300         -0.000600
 ---------------------------------------------------------------------------------------------------
                         Z-Matrix orientation:                         
 ---------------------------------------------------------------------
 Center     Atomic      Atomic             Coordinates (Angstroms)
 Number     Number       Type             X           Y           Z
 ---------------------------------------------------------------------
      1          8           0        2.846600   -0.387000    0.000200
      2          6           0        0.564400    0.237100    0.000000
      3          6           0       -0.343700    1.296000    0.000000
      4          6           0        0.101300   -1.078700    0.000000
      5          6           0       -1.714700    1.039300    0.000100
      6          6           0       -1.269800   -1.335400   -0.000100
      7          6           0       -2.177700   -0.276400    0.000000
      8          6           0        1.993700    0.505000   -0.000300
      9          1           0        0.001600    2.326700    0.000000
     10          1           0        0.790200   -1.919400   -0.000100
     11          1           0       -2.421800    1.863700    0.000100
     12          1           0       -1.630800   -2.359900   -0.000100
     13          1           0       -3.245200   -0.476400    0.000000
     14          1           0        2.298600    1.565300   -0.000600
 ---------------------------------------------------------------------
                    Distance matrix (angstroms):
                    1          2          3          4          5
     1  O    0.000000
     2  C    2.365996   0.000000
     3  C    3.607008   1.394961   0.000000
     4  C    2.831099   1.394916   2.416035   0.000000
     5  C    4.779099   2.416158   1.394825   2.789943   0.000000
     6  C    4.224241   2.415998   2.789611   1.394923   2.416017
     7  C    5.025517   2.789766   2.415781   2.416097   1.394789
     8  C    1.234140   1.454190   2.467614   2.467647   3.746693
     9  H    3.931691   2.164064   1.087003   3.406859   2.145480
    10  H    2.564572   2.168289   3.409476   1.086904   3.876652
    11  H    5.729022   3.400473   2.154248   3.876048   1.086106
    12  H    4.892795   3.400487   3.875852   2.154447   3.400235
    13  H    6.092456   3.875840   3.400015   3.400269   2.154014
    14  H    2.027752   2.184391   2.655988   3.437857   4.047623
                    6          7          8          9         10
     6  C    0.000000
     7  C    1.394906   0.000000
     8  C    3.746666   4.243956   0.000000
     9  H    3.876523   3.394919   2.699454   0.000000
    10  H    2.141181   3.392327   2.706682   4.318710   0.000000
    11  H    3.400198   2.153976   4.619817   2.467233   4.962740
    12  H    1.086242   2.154083   4.620027   4.962756   2.460748
    13  H    2.154086   1.086074   5.330030   4.289415   4.285639
    14  H    4.598645   4.840364   1.103268   2.419905   3.797157
                   11         12         13         14
    11  H    0.000000
    12  H    4.297031   0.000000
    13  H    2.480737   2.480697   0.000000
    14  H    4.729822   5.554042   5.907813   0.000000
 Stoichiometry    C7H6O
 Framework group  C1[X(C7H6O)]
 Deg. of freedom    36
 Full point group                 C1      NOp   1
 Largest Abelian subgroup         C1      NOp   1
 Largest concise Abelian subgroup C1      NOp   1
                         Standard orientation:                         
 ---------------------------------------------------------------------
 Center     Atomic      Atomic             Coordinates (Angstroms)
 Number     Number       Type             X           Y           Z
 ---------------------------------------------------------------------
      1          8           0       -2.817391   -0.409796   -0.000216
      2          6           0       -0.539397    0.229488   -0.000016
      3          6           0        0.361631    1.294412   -0.000016
      4          6           0       -0.067545   -1.083199   -0.000016
      5          6           0        1.734310    1.046848   -0.000116
      6          6           0        1.305234   -1.330763    0.000084
      7          6           0        2.206061   -0.265740   -0.000016
      8          6           0       -1.970450    0.487864    0.000284
      9          1           0        0.009475    2.322790   -0.000016
     10          1           0       -0.750831   -1.928468    0.000084
     11          1           0        2.435904    1.875938   -0.000116
     12          1           0        1.673048   -2.352836    0.000084
     13          1           0        3.274870   -0.458627   -0.000016
     14          1           0       -2.282404    1.546110    0.000584
 ---------------------------------------------------------------------
 Rotational constants (GHZ):           5.2373135           1.5847677           1.2166266
 Leave Link  202 at Wed Feb  7 14:27:25 2024, MaxMem=  6710886400 cpu:               0.2 elap:               0.0
 (Enter /tmpu/scunam/7/gaussian-2016.03/g1/g16/l301.exe)
 Standard basis: def2TZVP (5D, 7F)
 Ernie: Thresh=  0.10000D-02 Tol=  0.10000D-05 Strict=F.
 There are   324 symmetry adapted cartesian basis functions of A   symmetry.
 There are   284 symmetry adapted basis functions of A   symmetry.
   284 basis functions,   456 primitive gaussians,   324 cartesian basis functions
    28 alpha electrons       28 beta electrons
       nuclear repulsion energy       321.6659104475 Hartrees.
 IExCor=  402 DFT=T Ex+Corr=B3LYP ExCW=0 ScaHFX=  0.200000
 ScaDFX=  0.800000  0.720000  1.000000  0.810000 ScalE2=  1.000000  1.000000
 IRadAn=      5 IRanWt=     -1 IRanGd=            0 ICorTp=0 IEmpDi=  4
 NAtoms=   14 NActive=   14 NUniq=   14 SFac= 1.00D+00 NAtFMM=   60 NAOKFM=F Big=F
 Integral buffers will be    131072 words long.
 Raffenetti 2 integral format.
 Two-electron integral symmetry is turned on.
 Leave Link  301 at Wed Feb  7 14:27:25 2024, MaxMem=  6710886400 cpu:               0.9 elap:               0.1
 (Enter /tmpu/scunam/7/gaussian-2016.03/g1/g16/l302.exe)
 NPDir=0 NMtPBC=     1 NCelOv=     1 NCel=       1 NClECP=     1 NCelD=      1
         NCelK=      1 NCelE2=     1 NClLst=     1 CellRange=     0.0.
 One-electron integrals computed using PRISM.
 One-electron integral symmetry used in STVInt
   1 Symmetry operations used in ECPInt.
 ECPInt:  NShTT=    6328 NPrTT=   19500 LenC2=    6196 LenP2D=   15449.
 LDataN:  DoStor=T MaxTD1= 6 Len=  172
 NBasis=   284 RedAO= T EigKep=  9.05D-06  NBF=   284
 NBsUse=   284 1.00D-06 EigRej= -1.00D+00 NBFU=   284
 Precomputing XC quadrature grid using
 IXCGrd= 4 IRadAn=           5 IRanWt=          -1 IRanGd=           0 AccXCQ= 0.00D+00.
 Generated NRdTot=       0 NPtTot=           0 NUsed=           0 NTot=          32
 NSgBfM=   323   323   323   323   323 MxSgAt=    14 MxSgA2=    14.
 Leave Link  302 at Wed Feb  7 14:27:25 2024, MaxMem=  6710886400 cpu:               4.6 elap:               0.3
 (Enter /tmpu/scunam/7/gaussian-2016.03/g1/g16/l303.exe)
 DipDrv:  MaxL=1.
 Leave Link  303 at Wed Feb  7 14:27:25 2024, MaxMem=  6710886400 cpu:               0.6 elap:               0.1
 (Enter /tmpu/scunam/7/gaussian-2016.03/g1/g16/l401.exe)
 ExpMin= 9.52D-02 ExpMax= 2.70D+04 ExpMxC= 9.22D+02 IAcc=3 IRadAn=         5 AccDes= 0.00D+00
 Harris functional with IExCor=  402 and IRadAn=       5 diagonalized for initial guess.
 HarFok:  IExCor=  402 AccDes= 0.00D+00 IRadAn=         5 IDoV= 1 UseB2=F ITyADJ=14
 ICtDFT=  3500011 ScaDFX=  1.000000  1.000000  1.000000  1.000000
 FoFCou: FMM=F IPFlag=           0 FMFlag=      100000 FMFlg1=           0
         NFxFlg=           0 DoJE=T BraDBF=F KetDBF=T FulRan=T
         wScrn=  0.000000 ICntrl=       500 IOpCl=  0 I1Cent=   200000004 NGrid=           0
         NMat0=    1 NMatS0=      1 NMatT0=    0 NMatD0=    1 NMtDS0=    0 NMtDT0=    0
 Petite list used in FoFCou.
 Harris En= -345.739749375636    
 JPrj=0 DoOrth=F DoCkMO=F.
 Leave Link  401 at Wed Feb  7 14:27:26 2024, MaxMem=  6710886400 cpu:              16.3 elap:               1.0
 (Enter /tmpu/scunam/7/gaussian-2016.03/g1/g16/l502.exe)
 Integral symmetry usage will be decided dynamically.
 Closed shell SCF:
 Using DIIS extrapolation, IDIIS=  1040.
 NGot=  6710886400 LenX=  6710668346 LenY=  6710562929
 Requested convergence on RMS density matrix=1.00D-08 within1024 cycles.
 Requested convergence on MAX density matrix=1.00D-06.
 Requested convergence on             energy=1.00D-06.
 No special actions if energy rises.
 Fock matrices will be formed incrementally for  20 cycles.
 Integral accuracy reduced to 1.0D-05 until final iterations.

 Cycle   1  Pass 0  IDiag  1:
 FoFJK:  IHMeth= 1 ICntrl=       0 DoSepK=F KAlg= 0 I1Cent=           0 FoldK=F
 IRaf= 950000000 NMat=       1 IRICut=       1 DoRegI=T DoRafI=F ISym2E= 0 IDoP0=0 IntGTp=1.
 FoFCou: FMM=F IPFlag=           0 FMFlag=      100000 FMFlg1=           0
         NFxFlg=           0 DoJE=F BraDBF=F KetDBF=F FulRan=T
         wScrn=  0.000000 ICntrl=         0 IOpCl=  0 I1Cent=           0 NGrid=           0
         NMat0=    1 NMatS0=      1 NMatT0=    0 NMatD0=    1 NMtDS0=    0 NMtDT0=    0
 Symmetry not used in FoFCou.
 E= -345.505694028235    
 DIIS: error= 3.48D-02 at cycle   1 NSaved=   1.
 NSaved= 1 IEnMin= 1 EnMin= -345.505694028235     IErMin= 1 ErrMin= 3.48D-02
 ErrMax= 3.48D-02  0.00D+00 EMaxC= 1.00D-01 BMatC= 2.23D-01 BMatP= 2.23D-01
 IDIUse=3 WtCom= 6.52D-01 WtEn= 3.48D-01
 Coeff-Com:  0.100D+01
 Coeff-En:   0.100D+01
 Coeff:      0.100D+01
 Gap=     0.140 Goal=   None    Shift=    0.000
 GapD=    0.140 DampG=1.000 DampE=0.500 DampFc=0.5000 IDamp=-1.
 Damping current iteration by 5.00D-01
 RMSDP=1.07D-02 MaxDP=1.47D+00              OVMax= 2.12D-01

 Cycle   2  Pass 0  IDiag  1:
 RMSU=  5.33D-03    CP:  1.03D+00
 E= -345.568073723811     Delta-E=       -0.062379695576 Rises=F Damp=T
 DIIS: error= 1.04D-02 at cycle   2 NSaved=   2.
 NSaved= 2 IEnMin= 2 EnMin= -345.568073723811     IErMin= 2 ErrMin= 1.04D-02
 ErrMax= 1.04D-02  0.00D+00 EMaxC= 1.00D-01 BMatC= 3.37D-02 BMatP= 2.23D-01
 IDIUse=3 WtCom= 8.96D-01 WtEn= 1.04D-01
 Coeff-Com:  0.188D+00 0.812D+00
 Coeff-En:   0.298D+00 0.702D+00
 Coeff:      0.199D+00 0.801D+00
 Gap=     0.203 Goal=   None    Shift=    0.000
 RMSDP=4.06D-03 MaxDP=5.88D-01 DE=-6.24D-02 OVMax= 2.25D-01

 Cycle   3  Pass 0  IDiag  1:
 RMSU=  1.45D-03    CP:  9.72D-01  2.97D-01
 E= -345.674844858070     Delta-E=       -0.106771134259 Rises=F Damp=F
 DIIS: error= 1.40D-02 at cycle   3 NSaved=   3.
 NSaved= 3 IEnMin= 3 EnMin= -345.674844858070     IErMin= 2 ErrMin= 1.04D-02
 ErrMax= 1.40D-02  0.00D+00 EMaxC= 1.00D-01 BMatC= 3.90D-02 BMatP= 3.37D-02
 IDIUse=2 WtCom= 0.00D+00 WtEn= 1.00D+00
 Coeff-En:   0.000D+00 0.000D+00 0.100D+01
 Coeff:      0.000D+00 0.000D+00 0.100D+01
 Gap=     0.208 Goal=   None    Shift=    0.000
 RMSDP=4.42D-03 MaxDP=6.26D-01 DE=-1.07D-01 OVMax= 2.12D-01

 Cycle   4  Pass 0  IDiag  1:
 RMSU=  1.34D-03    CP:  1.03D+00  1.06D+00  3.60D-01
 E= -345.505210790694     Delta-E=        0.169634067376 Rises=F Damp=F
 DIIS: error= 3.62D-02 at cycle   4 NSaved=   4.
 NSaved= 4 IEnMin= 3 EnMin= -345.674844858070     IErMin= 2 ErrMin= 1.04D-02
 ErrMax= 3.62D-02  0.00D+00 EMaxC= 1.00D-01 BMatC= 2.55D-01 BMatP= 3.37D-02
 IDIUse=2 WtCom= 0.00D+00 WtEn= 1.00D+00
 Coeff-En:   0.000D+00 0.000D+00 0.807D+00 0.193D+00
 Coeff:      0.000D+00 0.000D+00 0.807D+00 0.193D+00
 Gap=     0.165 Goal=   None    Shift=    0.000
 RMSDP=2.99D-03 MaxDP=4.41D-01 DE= 1.70D-01 OVMax= 1.07D-01

 Cycle   5  Pass 0  IDiag  1:
 RMSU=  1.91D-04    CP:  9.95D-01  5.32D-01  7.71D-01  5.02D-01
 E= -345.689849005676     Delta-E=       -0.184638214982 Rises=F Damp=F
 DIIS: error= 1.04D-02 at cycle   5 NSaved=   5.
 NSaved= 5 IEnMin= 5 EnMin= -345.689849005676     IErMin= 2 ErrMin= 1.04D-02
 ErrMax= 1.04D-02  0.00D+00 EMaxC= 1.00D-01 BMatC= 2.12D-02 BMatP= 3.37D-02
 IDIUse=3 WtCom= 8.96D-01 WtEn= 1.04D-01
 Coeff-Com: -0.215D-03 0.277D-01 0.301D+00-0.121D+00 0.792D+00
 Coeff-En:   0.000D+00 0.000D+00 0.383D+00 0.000D+00 0.617D+00
 Coeff:     -0.193D-03 0.248D-01 0.309D+00-0.108D+00 0.774D+00
 Gap=     0.186 Goal=   None    Shift=    0.000
 RMSDP=7.25D-04 MaxDP=9.56D-02 DE=-1.85D-01 OVMax= 4.03D-02

 Cycle   6  Pass 0  IDiag  1:
 RMSU=  4.31D-05    CP:  9.84D-01  4.12D-01  8.81D-01  2.94D-01  7.99D-01
 E= -345.706288809118     Delta-E=       -0.016439803442 Rises=F Damp=F
 DIIS: error= 1.64D-04 at cycle   6 NSaved=   6.
 NSaved= 6 IEnMin= 6 EnMin= -345.706288809118     IErMin= 6 ErrMin= 1.64D-04
 ErrMax= 1.64D-04  0.00D+00 EMaxC= 1.00D-01 BMatC= 6.29D-06 BMatP= 2.12D-02
 IDIUse=3 WtCom= 9.98D-01 WtEn= 1.64D-03
 Coeff-Com:  0.168D-03 0.958D-03 0.838D-01-0.315D-01 0.222D+00 0.725D+00
 Coeff-En:   0.000D+00 0.000D+00 0.000D+00 0.000D+00 0.000D+00 0.100D+01
 Coeff:      0.168D-03 0.957D-03 0.837D-01-0.315D-01 0.221D+00 0.725D+00
 Gap=     0.186 Goal=   None    Shift=    0.000
 RMSDP=2.02D-05 MaxDP=2.04D-03 DE=-1.64D-02 OVMax= 1.80D-03

 Cycle   7  Pass 0  IDiag  1:
 RMSU=  1.24D-05    CP:  9.84D-01  4.10D-01  8.83D-01  2.94D-01  7.93D-01
                    CP:  8.96D-01
 E= -345.706290882213     Delta-E=       -0.000002073094 Rises=F Damp=F
 DIIS: error= 2.24D-04 at cycle   7 NSaved=   7.
 NSaved= 7 IEnMin= 7 EnMin= -345.706290882213     IErMin= 6 ErrMin= 1.64D-04
 ErrMax= 2.24D-04  0.00D+00 EMaxC= 1.00D-01 BMatC= 4.10D-06 BMatP= 6.29D-06
 IDIUse=3 WtCom= 9.98D-01 WtEn= 1.64D-03
 Coeff-Com:  0.309D-03-0.150D-02 0.358D-01-0.134D-01 0.943D-01 0.448D+00
 Coeff-Com:  0.437D+00
 Coeff-En:   0.000D+00 0.000D+00 0.000D+00 0.000D+00 0.000D+00 0.403D+00
 Coeff-En:   0.597D+00
 Coeff:      0.308D-03-0.149D-02 0.357D-01-0.134D-01 0.942D-01 0.448D+00
 Coeff:      0.437D+00
 Gap=     0.186 Goal=   None    Shift=    0.000
 RMSDP=7.64D-06 MaxDP=4.53D-04 DE=-2.07D-06 OVMax= 1.05D-03

 Initial convergence to 1.0D-05 achieved.  Increase integral accuracy.
 Cycle   8  Pass 1  IDiag  1:
 E= -345.706290413353     Delta-E=        0.000000468860 Rises=F Damp=F
 DIIS: error= 9.14D-05 at cycle   1 NSaved=   1.
 NSaved= 1 IEnMin= 1 EnMin= -345.706290413353     IErMin= 1 ErrMin= 9.14D-05
 ErrMax= 9.14D-05  0.00D+00 EMaxC= 1.00D-01 BMatC= 1.45D-06 BMatP= 1.45D-06
 IDIUse=1 WtCom= 1.00D+00 WtEn= 0.00D+00
 Coeff-Com:  0.100D+01
 Coeff:      0.100D+01
 Gap=     0.186 Goal=   None    Shift=    0.000
 RMSDP=7.64D-06 MaxDP=4.53D-04 DE= 4.69D-07 OVMax= 5.56D-04

 Cycle   9  Pass 1  IDiag  1:
 RMSU=  1.15D-04    CP:  1.00D+00
 E= -345.706290074674     Delta-E=        0.000000338679 Rises=F Damp=F
 DIIS: error= 6.88D-05 at cycle   2 NSaved=   2.
 NSaved= 2 IEnMin= 1 EnMin= -345.706290413353     IErMin= 2 ErrMin= 6.88D-05
 ErrMax= 6.88D-05  0.00D+00 EMaxC= 1.00D-01 BMatC= 1.13D-06 BMatP= 1.45D-06
 IDIUse=1 WtCom= 1.00D+00 WtEn= 0.00D+00
 Coeff-Com:  0.457D+00 0.543D+00
 Coeff:      0.457D+00 0.543D+00
 Gap=     0.186 Goal=   None    Shift=    0.000
 RMSDP=1.05D-05 MaxDP=1.25D-03 DE= 3.39D-07 OVMax= 6.32D-04

 Cycle  10  Pass 1  IDiag  1:
 RMSU=  9.96D-06    CP:  1.00D+00  1.01D+00
 E= -345.706290574377     Delta-E=       -0.000000499703 Rises=F Damp=F
 DIIS: error= 4.79D-05 at cycle   3 NSaved=   3.
 NSaved= 3 IEnMin= 3 EnMin= -345.706290574377     IErMin= 3 ErrMin= 4.79D-05
 ErrMax= 4.79D-05  0.00D+00 EMaxC= 1.00D-01 BMatC= 6.09D-07 BMatP= 1.13D-06
 IDIUse=1 WtCom= 1.00D+00 WtEn= 0.00D+00
 Coeff-Com:  0.654D-02 0.421D+00 0.572D+00
 Coeff:      0.654D-02 0.421D+00 0.572D+00
 Gap=     0.186 Goal=   None    Shift=    0.000
 RMSDP=5.27D-06 MaxDP=6.56D-04 DE=-5.00D-07 OVMax= 2.47D-04

 Cycle  11  Pass 1  IDiag  1:
 RMSU=  7.52D-07    CP:  1.00D+00  1.01D+00  5.11D-01
 E= -345.706291087868     Delta-E=       -0.000000513491 Rises=F Damp=F
 DIIS: error= 1.40D-05 at cycle   4 NSaved=   4.
 NSaved= 4 IEnMin= 4 EnMin= -345.706291087868     IErMin= 4 ErrMin= 1.40D-05
 ErrMax= 1.40D-05  0.00D+00 EMaxC= 1.00D-01 BMatC= 2.04D-08 BMatP= 6.09D-07
 IDIUse=1 WtCom= 1.00D+00 WtEn= 0.00D+00
 Coeff-Com: -0.140D-02 0.279D+00 0.391D+00 0.331D+00
 Coeff:     -0.140D-02 0.279D+00 0.391D+00 0.331D+00
 Gap=     0.186 Goal=   None    Shift=    0.000
 RMSDP=6.28D-07 MaxDP=7.67D-05 DE=-5.13D-07 OVMax= 5.04D-05

 Cycle  12  Pass 1  IDiag  1:
 RMSU=  2.23D-07    CP:  1.00D+00  1.01D+00  5.53D-01  5.12D-01
 E= -345.706291106917     Delta-E=       -0.000000019049 Rises=F Damp=F
 DIIS: error= 1.06D-06 at cycle   5 NSaved=   5.
 NSaved= 5 IEnMin= 5 EnMin= -345.706291106917     IErMin= 5 ErrMin= 1.06D-06
 ErrMax= 1.06D-06  0.00D+00 EMaxC= 1.00D-01 BMatC= 2.38D-10 BMatP= 2.04D-08
 IDIUse=1 WtCom= 1.00D+00 WtEn= 0.00D+00
 Coeff-Com: -0.105D-02 0.119D+00 0.170D+00 0.165D+00 0.547D+00
 Coeff:     -0.105D-02 0.119D+00 0.170D+00 0.165D+00 0.547D+00
 Gap=     0.186 Goal=   None    Shift=    0.000
 RMSDP=7.45D-08 MaxDP=6.54D-06 DE=-1.90D-08 OVMax= 6.65D-06

 Cycle  13  Pass 1  IDiag  1:
 RMSU=  4.54D-08    CP:  1.00D+00  1.01D+00  5.58D-01  5.12D-01  9.18D-01
 E= -345.706291107143     Delta-E=       -0.000000000227 Rises=F Damp=F
 DIIS: error= 3.12D-07 at cycle   6 NSaved=   6.
 NSaved= 6 IEnMin= 6 EnMin= -345.706291107143     IErMin= 6 ErrMin= 3.12D-07
 ErrMax= 3.12D-07  0.00D+00 EMaxC= 1.00D-01 BMatC= 2.03D-11 BMatP= 2.38D-10
 IDIUse=1 WtCom= 1.00D+00 WtEn= 0.00D+00
 Coeff-Com: -0.529D-03 0.532D-01 0.760D-01 0.761D-01 0.310D+00 0.485D+00
 Coeff:     -0.529D-03 0.532D-01 0.760D-01 0.761D-01 0.310D+00 0.485D+00
 Gap=     0.186 Goal=   None    Shift=    0.000
 RMSDP=1.48D-08 MaxDP=9.78D-07 DE=-2.27D-10 OVMax= 1.92D-06

 Cycle  14  Pass 1  IDiag  1:
 RMSU=  1.07D-08    CP:  1.00D+00  1.01D+00  5.57D-01  5.13D-01  9.25D-01
                    CP:  8.99D-01
 E= -345.706291107163     Delta-E=       -0.000000000019 Rises=F Damp=F
 DIIS: error= 5.79D-08 at cycle   7 NSaved=   7.
 NSaved= 7 IEnMin= 7 EnMin= -345.706291107163     IErMin= 7 ErrMin= 5.79D-08
 ErrMax= 5.79D-08  0.00D+00 EMaxC= 1.00D-01 BMatC= 5.01D-13 BMatP= 2.03D-11
 IDIUse=1 WtCom= 1.00D+00 WtEn= 0.00D+00
 Coeff-Com: -0.138D-03 0.132D-01 0.188D-01 0.194D-01 0.880D-01 0.187D+00
 Coeff-Com:  0.674D+00
 Coeff:     -0.138D-03 0.132D-01 0.188D-01 0.194D-01 0.880D-01 0.187D+00
 Coeff:      0.674D+00
 Gap=     0.186 Goal=   None    Shift=    0.000
 RMSDP=4.62D-09 MaxDP=3.69D-07 DE=-1.92D-11 OVMax= 5.43D-07

 SCF Done:  E(RB3LYP) =  -345.706291107     A.U. after   14 cycles
            NFock= 14  Conv=0.46D-08     -V/T= 2.0052
 KE= 3.439060600098D+02 PE=-1.448034980888D+03 EE= 4.367567193239D+02
 Leave Link  502 at Wed Feb  7 14:27:57 2024, MaxMem=  6710886400 cpu:             479.2 elap:              30.0
 (Enter /tmpu/scunam/7/gaussian-2016.03/g1/g16/l601.exe)
 Copying SCF densities to generalized density rwf, IOpCl= 0 IROHF=0.

 **********************************************************************

            Population analysis using the SCF density.

 **********************************************************************

 Orbital symmetries:
       Occupied  (A) (A) (A) (A) (A) (A) (A) (A) (A) (A) (A) (A)
                 (A) (A) (A) (A) (A) (A) (A) (A) (A) (A) (A) (A)
                 (A) (A) (A) (A)
       Virtual   (A) (A) (A) (A) (A) (A) (A) (A) (A) (A) (A) (A)
                 (A) (A) (A) (A) (A) (A) (A) (A) (A) (A) (A) (A)
                 (A) (A) (A) (A) (A) (A) (A) (A) (A) (A) (A) (A)
                 (A) (A) (A) (A) (A) (A) (A) (A) (A) (A) (A) (A)
                 (A) (A) (A) (A) (A) (A) (A) (A) (A) (A) (A) (A)
                 (A) (A) (A) (A) (A) (A) (A) (A) (A) (A) (A) (A)
                 (A) (A) (A) (A) (A) (A) (A) (A) (A) (A) (A) (A)
                 (A) (A) (A) (A) (A) (A) (A) (A) (A) (A) (A) (A)
                 (A) (A) (A) (A) (A) (A) (A) (A) (A) (A) (A) (A)
                 (A) (A) (A) (A) (A) (A) (A) (A) (A) (A) (A) (A)
                 (A) (A) (A) (A) (A) (A) (A) (A) (A) (A) (A) (A)
                 (A) (A) (A) (A) (A) (A) (A) (A) (A) (A) (A) (A)
                 (A) (A) (A) (A) (A) (A) (A) (A) (A) (A) (A) (A)
                 (A) (A) (A) (A) (A) (A) (A) (A) (A) (A) (A) (A)
                 (A) (A) (A) (A) (A) (A) (A) (A) (A) (A) (A) (A)
                 (A) (A) (A) (A) (A) (A) (A) (A) (A) (A) (A) (A)
                 (A) (A) (A) (A) (A) (A) (A) (A) (A) (A) (A) (A)
                 (A) (A) (A) (A) (A) (A) (A) (A) (A) (A) (A) (A)
                 (A) (A) (A) (A) (A) (A) (A) (A) (A) (A) (A) (A)
                 (A) (A) (A) (A) (A) (A) (A) (A) (A) (A) (A) (A)
                 (A) (A) (A) (A) (A) (A) (A) (A) (A) (A) (A) (A)
                 (A) (A) (A) (A)
 The electronic state is 1-A.
 Alpha  occ. eigenvalues --  -19.12358 -10.26300 -10.20212 -10.20029 -10.19739
 Alpha  occ. eigenvalues --  -10.19677 -10.19594 -10.19507  -1.03689  -0.87995
 Alpha  occ. eigenvalues --   -0.78438  -0.76806  -0.66525  -0.62870  -0.58515
 Alpha  occ. eigenvalues --   -0.53466  -0.49505  -0.47250  -0.45235  -0.44220
 Alpha  occ. eigenvalues --   -0.43117  -0.41603  -0.37657  -0.37249  -0.36594
 Alpha  occ. eigenvalues --   -0.27946  -0.27569  -0.26642
 Alpha virt. eigenvalues --   -0.08065  -0.03334   0.01992   0.03866   0.05690
 Alpha virt. eigenvalues --    0.07717   0.08553   0.10178   0.11848   0.12439
 Alpha virt. eigenvalues --    0.12585   0.15409   0.18156   0.19007   0.19736
 Alpha virt. eigenvalues --    0.20752   0.21609   0.22633   0.23418   0.24041
 Alpha virt. eigenvalues --    0.25736   0.27882   0.28556   0.29634   0.30997
 Alpha virt. eigenvalues --    0.31159   0.32249   0.33946   0.34437   0.35473
 Alpha virt. eigenvalues --    0.38433   0.38877   0.39653   0.40332   0.41198
 Alpha virt. eigenvalues --    0.42207   0.44309   0.44559   0.46821   0.47728
 Alpha virt. eigenvalues --    0.48261   0.48851   0.50087   0.51107   0.52902
 Alpha virt. eigenvalues --    0.53013   0.55160   0.61676   0.62923   0.64430
 Alpha virt. eigenvalues --    0.65249   0.67679   0.69808   0.71101   0.72441
 Alpha virt. eigenvalues --    0.73190   0.74088   0.75012   0.75719   0.79583
 Alpha virt. eigenvalues --    0.82122   0.82625   0.86033   0.87246   0.88001
 Alpha virt. eigenvalues --    0.89316   0.94241   0.96261   0.97092   0.98319
 Alpha virt. eigenvalues --    1.00538   1.04516   1.05813   1.09186   1.10825
 Alpha virt. eigenvalues --    1.15662   1.18194   1.19146   1.19777   1.21562
 Alpha virt. eigenvalues --    1.22886   1.23996   1.24718   1.28968   1.32510
 Alpha virt. eigenvalues --    1.34588   1.36015   1.36648   1.42911   1.42977
 Alpha virt. eigenvalues --    1.43822   1.45380   1.46335   1.47913   1.51350
 Alpha virt. eigenvalues --    1.53720   1.56607   1.58324   1.60638   1.61511
 Alpha virt. eigenvalues --    1.62422   1.64189   1.65752   1.67681   1.67750
 Alpha virt. eigenvalues --    1.69318   1.75640   1.78694   1.79967   1.82662
 Alpha virt. eigenvalues --    1.88052   1.91732   1.92284   1.96200   1.96661
 Alpha virt. eigenvalues --    1.98545   2.03935   2.05058   2.07012   2.07781
 Alpha virt. eigenvalues --    2.11772   2.12240   2.15788   2.17765   2.21492
 Alpha virt. eigenvalues --    2.24237   2.28770   2.33902   2.34614   2.35403
 Alpha virt. eigenvalues --    2.40890   2.42516   2.47503   2.50169   2.54831
 Alpha virt. eigenvalues --    2.55657   2.57250   2.59037   2.60919   2.62566
 Alpha virt. eigenvalues --    2.63412   2.64211   2.64577   2.67652   2.67799
 Alpha virt. eigenvalues --    2.70527   2.72814   2.73080   2.74076   2.75944
 Alpha virt. eigenvalues --    2.76250   2.80357   2.80701   2.81876   2.86206
 Alpha virt. eigenvalues --    2.87719   2.88648   2.89073   2.92472   2.95246
 Alpha virt. eigenvalues --    2.95388   2.97630   3.00466   3.05868   3.08715
 Alpha virt. eigenvalues --    3.10716   3.11614   3.11844   3.12754   3.12892
 Alpha virt. eigenvalues --    3.15327   3.15590   3.17793   3.17851   3.22785
 Alpha virt. eigenvalues --    3.23463   3.24504   3.29452   3.30099   3.30523
 Alpha virt. eigenvalues --    3.33110   3.33526   3.33769   3.34796   3.35999
 Alpha virt. eigenvalues --    3.37912   3.38980   3.44558   3.44588   3.47980
 Alpha virt. eigenvalues --    3.51528   3.52063   3.58710   3.59483   3.60863
 Alpha virt. eigenvalues --    3.65955   3.66258   3.72571   3.76661   3.80134
 Alpha virt. eigenvalues --    3.82944   3.84161   3.87997   3.91831   3.95114
 Alpha virt. eigenvalues --    4.00453   4.02492   4.05042   4.13925   4.14474
 Alpha virt. eigenvalues --    4.16592   4.19266   4.20228   4.20470   4.22269
 Alpha virt. eigenvalues --    4.26715   4.27901   4.29831   4.37776   4.45041
 Alpha virt. eigenvalues --    4.49314   4.59421   4.62318   4.64172   4.69520
 Alpha virt. eigenvalues --    4.73000   4.83478   4.86312   4.94153   4.96817
 Alpha virt. eigenvalues --    5.17871   5.17952   5.20675   5.21505   5.34265
 Alpha virt. eigenvalues --    5.35861   5.39615   5.52711   5.61348   5.66673
 Alpha virt. eigenvalues --    6.02691   6.29957   6.33234   6.44723   6.46537
 Alpha virt. eigenvalues --    6.78533   6.98245   7.02861  21.97785  22.51876
 Alpha virt. eigenvalues --   22.55620  22.66948  22.75811  22.86800  23.20071
 Alpha virt. eigenvalues --   43.78223
          Condensed to atoms (all electrons):
               1          2          3          4          5          6
     1  O    7.834142  -0.209908   0.008510   0.038456  -0.001827   0.000759
     2  C   -0.209908   5.997705   0.414856   0.113978   0.011499  -0.005232
     3  C    0.008510   0.414856   5.030737  -0.048472   0.454475  -0.052694
     4  C    0.038456   0.113978  -0.048472   5.186327  -0.057019   0.446636
     5  C   -0.001827   0.011499   0.454475  -0.057019   4.899888  -0.024489
     6  C    0.000759  -0.005232  -0.052694   0.446636  -0.024489   4.911907
     7  C    0.000767  -0.079592  -0.006658   0.011234   0.487446   0.457852
     8  C    0.674179  -0.029620  -0.019523   0.043762  -0.012878   0.000164
     9  H    0.000041  -0.061979   0.416816   0.014294  -0.044140  -0.002227
    10  H    0.022469  -0.063924   0.011816   0.433094  -0.003509  -0.057096
    11  H    0.000004   0.008992  -0.045873  -0.002309   0.421662   0.008541
    12  H   -0.000127   0.011221  -0.001733  -0.049510   0.008870   0.426532
    13  H    0.000001  -0.000893   0.007617   0.006472  -0.042773  -0.043024
    14  H   -0.058910  -0.256516   0.003989   0.043214  -0.004002  -0.001613
               7          8          9         10         11         12
     1  O    0.000767   0.674179   0.000041   0.022469   0.000004  -0.000127
     2  C   -0.079592  -0.029620  -0.061979  -0.063924   0.008992   0.011221
     3  C   -0.006658  -0.019523   0.416816   0.011816  -0.045873  -0.001733
     4  C    0.011234   0.043762   0.014294   0.433094  -0.002309  -0.049510
     5  C    0.487446  -0.012878  -0.044140  -0.003509   0.421662   0.008870
     6  C    0.457852   0.000164  -0.002227  -0.057096   0.008541   0.426532
     7  C    4.892807   0.005426   0.007988   0.011043  -0.045376  -0.049020
     8  C    0.005426   4.743473   0.002963   0.001264  -0.000302  -0.000694
     9  H    0.007988   0.002963   0.546073  -0.000020  -0.006371   0.000058
    10  H    0.011043   0.001264  -0.000020   0.509418   0.000048  -0.006530
    11  H   -0.045376  -0.000302  -0.006371   0.000048   0.549401  -0.000245
    12  H   -0.049020  -0.000694   0.000058  -0.006530  -0.000245   0.547092
    13  H    0.416963   0.000112  -0.000282  -0.000196  -0.006137  -0.006317
    14  H    0.000912   0.494599   0.009681   0.002377  -0.000049  -0.000015
              13         14
     1  O    0.000001  -0.058910
     2  C   -0.000893  -0.256516
     3  C    0.007617   0.003989
     4  C    0.006472   0.043214
     5  C   -0.042773  -0.004002
     6  C   -0.043024  -0.001613
     7  C    0.416963   0.000912
     8  C    0.000112   0.494599
     9  H   -0.000282   0.009681
    10  H   -0.000196   0.002377
    11  H   -0.006137  -0.000049
    12  H   -0.006317  -0.000015
    13  H    0.547742  -0.000002
    14  H   -0.000002   0.695234
 Mulliken charges:
               1
     1  O   -0.308555
     2  C    0.149413
     3  C   -0.173865
     4  C   -0.180154
     5  C   -0.093202
     6  C   -0.066015
     7  C   -0.111793
     8  C    0.097074
     9  H    0.117103
    10  H    0.139746
    11  H    0.118012
    12  H    0.120418
    13  H    0.120717
    14  H    0.071100
 Sum of Mulliken charges =  -0.00000
 Mulliken charges with hydrogens summed into heavy atoms:
               1
     1  O   -0.308555
     2  C    0.149413
     3  C   -0.056761
     4  C   -0.040409
     5  C    0.024810
     6  C    0.054403
     7  C    0.008924
     8  C    0.168175
 Electronic spatial extent (au):  <R**2>=            929.0156
 Charge=             -0.0000 electrons
 Dipole moment (field-independent basis, Debye):
    X=              3.3389    Y=              1.3070    Z=              0.0008  Tot=              3.5856
 Quadrupole moment (field-independent basis, Debye-Ang):
   XX=            -51.8053   YY=            -40.7588   ZZ=            -49.2297
   XY=             -4.0786   XZ=             -0.0023   YZ=             -0.0003
 Traceless Quadrupole moment (field-independent basis, Debye-Ang):
   XX=             -4.5407   YY=              6.5058   ZZ=             -1.9651
   XY=             -4.0786   XZ=             -0.0023   YZ=             -0.0003
 Octapole moment (field-independent basis, Debye-Ang**2):
  XXX=             38.8148  YYY=             -1.2635  ZZZ=             -0.0005  XYY=             -0.3651
  XXY=              9.7501  XXZ=              0.0049  XZZ=             -7.6732  YZZ=             -0.5288
  YYZ=              0.0004  XYZ=             -0.0000
 Hexadecapole moment (field-independent basis, Debye-Ang**3):
 XXXX=           -921.2666 YYYY=           -299.4006 ZZZZ=            -55.2723 XXXY=            -25.5176
 XXXZ=             -0.0097 YYYX=              0.5133 YYYZ=             -0.0020 ZZZX=              0.0044
 ZZZY=             -0.0003 XXYY=           -183.2234 XXZZ=           -157.8432 YYZZ=            -70.3229
 XXYZ=             -0.0012 YYXZ=             -0.0003 ZZXY=              1.2096
 N-N= 3.216659104475D+02 E-N=-1.448034982161D+03  KE= 3.439060600098D+02
 No NMR shielding tensors so no spin-rotation constants.
 Leave Link  601 at Wed Feb  7 14:27:57 2024, MaxMem=  6710886400 cpu:               3.2 elap:               0.2
 (Enter /tmpu/scunam/7/gaussian-2016.03/g1/g16/l701.exe)
 ... and contract with generalized density number  0.
 Compute integral first derivatives.
   1 Symmetry operations used in ECPInt.
 ECPInt:  NShTT=    6328 NPrTT=   19500 LenC2=    6196 LenP2D=   15449.
 LDataN:  DoStor=T MaxTD1= 7 Len=  274
 Leave Link  701 at Wed Feb  7 14:27:58 2024, MaxMem=  6710886400 cpu:               3.8 elap:               0.3
 (Enter /tmpu/scunam/7/gaussian-2016.03/g1/g16/l702.exe)
 L702 exits ... SP integral derivatives will be done elsewhere.
 Leave Link  702 at Wed Feb  7 14:27:58 2024, MaxMem=  6710886400 cpu:               0.3 elap:               0.0
 (Enter /tmpu/scunam/7/gaussian-2016.03/g1/g16/l703.exe)
 Integral derivatives from FoFJK, PRISM(SPDF).
 Compute integral first derivatives, UseDBF=F ICtDFT=           0.
 Calling FoFJK, ICntrl=      2127 FMM=F ISym2X=0 I1Cent= 0 IOpClX= 0 NMat=1 NMatS=1 NMatT=0.
 FoFJK:  IHMeth= 1 ICntrl=    2127 DoSepK=F KAlg= 0 I1Cent=           0 FoldK=F
 IRaf=         0 NMat=       1 IRICut=       1 DoRegI=T DoRafI=F ISym2E= 0 IDoP0=0 IntGTp=1.
 FoFCou: FMM=F IPFlag=           0 FMFlag=      100000 FMFlg1=         800
         NFxFlg=           0 DoJE=F BraDBF=F KetDBF=F FulRan=T
         wScrn=  0.000000 ICntrl=      2127 IOpCl=  0 I1Cent=           0 NGrid=           0
         NMat0=    1 NMatS0=      1 NMatT0=    0 NMatD0=    1 NMtDS0=    0 NMtDT0=    0
 Symmetry not used in FoFCou.
 Leave Link  703 at Wed Feb  7 14:28:09 2024, MaxMem=  6710886400 cpu:             183.2 elap:              11.5
 (Enter /tmpu/scunam/7/gaussian-2016.03/g1/g16/l716.exe)
 Dipole        = 1.31362663D+00 5.14208286D-01 3.27361502D-04
 ***** Axes restored to original set *****
 -------------------------------------------------------------------
 Center     Atomic                   Forces (Hartrees/Bohr)
 Number     Number              X              Y              Z
 -------------------------------------------------------------------
      1        8          -0.018662036    0.026206905   -0.000034504
      2        6          -0.005998777    0.001029962   -0.000029374
      3        6          -0.009533230    0.000913957    0.000008643
      4        6          -0.012862208   -0.010703061   -0.000013121
      5        6           0.001084663    0.000221353   -0.000010399
      6        6           0.004880739    0.001933368    0.000020107
      7        6           0.000990131    0.002072687    0.000001363
      8        6           0.031944072   -0.028049518    0.000073156
      9        1           0.001650606   -0.002823314   -0.000002673
     10        1           0.001604674    0.006319245    0.000003741
     11        1           0.001675461   -0.001837646    0.000003548
     12        1           0.001145844    0.002374463   -0.000004521
     13        1           0.002117823    0.000641190   -0.000000925
     14        1          -0.000037763    0.001700410   -0.000015041
 -------------------------------------------------------------------
 Cartesian Forces:  Max     0.031944072 RMS     0.008943242
 Leave Link  716 at Wed Feb  7 14:28:09 2024, MaxMem=  6710886400 cpu:               0.3 elap:               0.0
 (Enter /tmpu/scunam/7/gaussian-2016.03/g1/g16/l103.exe)

 GradGradGradGradGradGradGradGradGradGradGradGradGradGradGradGradGradGrad
 Berny optimization.
 Search for a local minimum.
 Step number   1 out of a maximum of  100
 All quantities printed in internal units (Hartrees-Bohrs-Radians)
 Second derivative matrix not updated -- first step.
 ITU=  0
     Eigenvalues ---    0.00638   0.00770   0.01486   0.01658   0.02599
     Eigenvalues ---    0.03866   0.04545   0.06846   0.06874   0.07120
     Eigenvalues ---    0.07633   0.08250   0.08732   0.10253   0.11229
     Eigenvalues ---    0.12753   0.16118   0.17279   0.20348   0.29486
     Eigenvalues ---    0.30232   0.31052   0.37498   0.43263   0.44628
     Eigenvalues ---    0.59251   0.68419   0.82257   1.02773   1.11720
     Eigenvalues ---    1.22663   1.26779   1.48083   1.58241   1.61426
     Eigenvalues ---    2.05377
 RFO step:  Lambda=-2.81039325D-03 EMin= 6.38153491D-03
 Linear search not attempted -- first point.
 B after Tr=     0.001283    0.000795   -0.000019
         Rot=    1.000000   -0.000002   -0.000004   -0.000631 Ang=  -0.07 deg.
 Variable       Old X    -DE/DX   Delta X   Delta X   Delta X     New X
                                 (Linear)    (Quad)   (Total)
    X1        5.37929  -0.01866   0.00000   0.05588   0.05800   5.43729
    Y1       -0.73132   0.02621   0.00000   0.06346   0.07111  -0.66021
    Z1        0.00038  -0.00003   0.00000  -0.00037  -0.00044  -0.00006
    X2        1.06656  -0.00600   0.00000  -0.00933  -0.00858   1.05798
    Y2        0.44805   0.00103   0.00000  -0.02843  -0.02630   0.42175
    Z2        0.00000  -0.00003   0.00000  -0.00001  -0.00004  -0.00004
    X3       -0.64950  -0.00953   0.00000  -0.00892  -0.01070  -0.66019
    Y3        2.44909   0.00091   0.00000  -0.02321  -0.02325   2.42584
    Z3        0.00000   0.00001   0.00000  -0.00004  -0.00004  -0.00004
    X4        0.19143  -0.01286   0.00000  -0.03346  -0.02958   0.16185
    Y4       -2.03845  -0.01070   0.00000  -0.02450  -0.02351  -2.06195
    Z4        0.00000  -0.00001   0.00000  -0.00005  -0.00008  -0.00008
    X5       -3.24031   0.00108   0.00000  -0.00182  -0.00302  -3.24333
    Y5        1.96399   0.00022   0.00000   0.00098  -0.00232   1.96167
    Z5        0.00019  -0.00001   0.00000  -0.00012  -0.00011   0.00008
    X6       -2.39957   0.00488   0.00000  -0.02196  -0.01750  -2.41707
    Y6       -2.52354   0.00193   0.00000   0.00149  -0.00077  -2.52431
    Z6       -0.00019   0.00002   0.00000   0.00011   0.00009  -0.00009
    X7       -4.11526   0.00099   0.00000  -0.00728  -0.00535  -4.12060
    Y7       -0.52232   0.00207   0.00000   0.01153   0.00712  -0.51520
    Z7        0.00000   0.00000   0.00000   0.00001   0.00002   0.00002
    X8        3.76755   0.03194   0.00000   0.02305   0.02314   3.79069
    Y8        0.95431  -0.02805   0.00000  -0.01716  -0.01158   0.94273
    Z8       -0.00057   0.00007   0.00000   0.00044   0.00040  -0.00017
    X9        0.00302   0.00165   0.00000   0.02836   0.02414   0.02717
    Y9        4.39683  -0.00282   0.00000  -0.04189  -0.04106   4.35577
    Z9        0.00000  -0.00000   0.00000  -0.00004  -0.00004  -0.00004
   X10        1.49326   0.00160   0.00000  -0.00155   0.00429   1.49755
   Y10       -3.62714   0.00632   0.00000   0.01575   0.01843  -3.60871
   Z10       -0.00019   0.00000   0.00000   0.00005   0.00000  -0.00019
   X11       -4.57654   0.00168   0.00000   0.01245   0.00929  -4.56725
   Y11        3.52188  -0.00184   0.00000   0.00400  -0.00097   3.52092
   Z11        0.00019   0.00000   0.00000  -0.00011  -0.00008   0.00011
   X12       -3.08177   0.00115   0.00000  -0.03001  -0.02311  -3.10488
   Y12       -4.45956   0.00237   0.00000   0.01220   0.00907  -4.45049
   Z12       -0.00019  -0.00000   0.00000   0.00010   0.00008  -0.00010
   X13       -6.13254   0.00212   0.00000  -0.00349  -0.00110  -6.13364
   Y13       -0.90027   0.00064   0.00000   0.02511   0.01817  -0.88210
   Z13        0.00000  -0.00000   0.00000  -0.00000   0.00002   0.00002
   X14        4.34372  -0.00004   0.00000  -0.01749  -0.01995   4.32378
   Y14        2.95799   0.00170   0.00000  -0.00041   0.00584   2.96383
   Z14       -0.00113  -0.00002   0.00000   0.00024   0.00021  -0.00093
         Item               Value     Threshold  Converged?
 Maximum Force            0.031944     0.000002     NO 
 RMS     Force            0.008943     0.000001     NO 
 Maximum Displacement     0.071112     0.000006     NO 
 RMS     Displacement     0.019780     0.000004     NO 
 Predicted change in Energy=-1.428910D-03
 Lowest energy point so far.  Saving SCF results.
 GradGradGradGradGradGradGradGradGradGradGradGradGradGradGradGradGradGrad

 Leave Link  103 at Wed Feb  7 14:28:09 2024, MaxMem=  6710886400 cpu:               0.5 elap:               0.0
 (Enter /tmpu/scunam/7/gaussian-2016.03/g1/g16/l202.exe)
                          Input orientation:                          
 ---------------------------------------------------------------------
 Center     Atomic      Atomic             Coordinates (Angstroms)
 Number     Number       Type             X           Y           Z
 ---------------------------------------------------------------------
      1          8           0        2.877292   -0.349369   -0.000031
      2          6           0        0.559860    0.223181   -0.000019
      3          6           0       -0.349360    1.283698   -0.000023
      4          6           0        0.085649   -1.091139   -0.000042
      5          6           0       -1.716296    1.038072    0.000044
      6          6           0       -1.279059   -1.335806   -0.000050
      7          6           0       -2.180529   -0.272631    0.000009
      8          6           0        2.005947    0.498872   -0.000089
      9          1           0        0.014377    2.304973   -0.000022
     10          1           0        0.792471   -1.909646   -0.000099
     11          1           0       -2.416884    1.863189    0.000057
     12          1           0       -1.643030   -2.355099   -0.000055
     13          1           0       -3.245781   -0.466787    0.000013
     14          1           0        2.288045    1.568391   -0.000491
 ---------------------------------------------------------------------
                    Distance matrix (angstroms):
                    1          2          3          4          5
     1  O    0.000000
     2  C    2.387112   0.000000
     3  C    3.616378   1.396917   0.000000
     4  C    2.888511   1.397252   2.414350   0.000000
     5  C    4.798546   2.417629   1.388829   2.789363   0.000000
     6  C    4.271804   2.410822   2.779594   1.386466   2.413809
     7  C    5.058403   2.784881   2.403194   2.409464   1.390488
     8  C    1.216041   1.472132   2.482624   2.493127   3.761094
     9  H    3.904077   2.152071   1.084116   3.396860   2.144823
    10  H    2.604024   2.145474   3.391345   1.081457   3.870782
    11  H    5.737919   3.398622   2.147199   3.871786   1.082424
    12  H    4.945327   3.391202   3.861920   2.141477   3.393962
    13  H    6.124199   3.867681   3.384295   3.389431   2.145676
    14  H    2.006244   2.190027   2.652726   3.453065   4.039305
                    6          7          8          9         10
     6  C    0.000000
     7  C    1.393911   0.000000
     8  C    3.762620   4.256971   0.000000
     9  H    3.863709   3.385506   2.688559   0.000000
    10  H    2.149541   3.393898   2.696940   4.285842   0.000000
    11  H    3.395322   2.148858   4.628476   2.471073   4.953205
    12  H    1.082328   2.150716   4.632514   4.946035   2.475902
    13  H    2.150161   1.082801   5.339770   4.279168   4.288277
    14  H    4.599847   4.832962   1.106097   2.390005   3.785959
                   11         12         13         14
    11  H    0.000000
    12  H    4.288683   0.000000
    13  H    2.473026   2.476799   0.000000
    14  H    4.714156   5.554019   5.896201   0.000000
 Stoichiometry    C7H6O
 Framework group  C1[X(C7H6O)]
 Deg. of freedom    36
 Full point group                 C1      NOp   1
 RotChk:  IX=0 Diff= 9.75D-03
 Largest Abelian subgroup         C1      NOp   1
 Largest concise Abelian subgroup C1      NOp   1
                         Standard orientation:                         
 ---------------------------------------------------------------------
 Center     Atomic      Atomic             Coordinates (Angstroms)
 Number     Number       Type             X           Y           Z
 ---------------------------------------------------------------------
      1          8           0       -2.844285   -0.392881   -0.000002
      2          6           0       -0.534827    0.211030   -0.000014
      3          6           0        0.359934    1.283774   -0.000010
      4          6           0       -0.042843   -1.096742    0.000008
      5          6           0        1.730074    1.056701   -0.000078
      6          6           0        1.325056   -1.322886    0.000017
      7          6           0        2.212031   -0.247590   -0.000042
      8          6           0       -1.984518    0.467094    0.000056
      9          1           0       -0.017613    2.300025   -0.000012
     10          1           0       -0.738505   -1.924754    0.000066
     11          1           0        2.419413    1.891238   -0.000090
     12          1           0        1.702810   -2.337152    0.000022
     13          1           0        3.279818   -0.427288   -0.000046
     14          1           0       -2.281088    1.532691    0.000458
 ---------------------------------------------------------------------
 Rotational constants (GHZ):           5.2837057           1.5661522           1.2080670
 Leave Link  202 at Wed Feb  7 14:28:09 2024, MaxMem=  6710886400 cpu:               0.1 elap:               0.0
 (Enter /tmpu/scunam/7/gaussian-2016.03/g1/g16/l301.exe)
 Standard basis: def2TZVP (5D, 7F)
 Ernie: Thresh=  0.10000D-02 Tol=  0.10000D-05 Strict=F.
 There are   324 symmetry adapted cartesian basis functions of A   symmetry.
 There are   284 symmetry adapted basis functions of A   symmetry.
   284 basis functions,   456 primitive gaussians,   324 cartesian basis functions
    28 alpha electrons       28 beta electrons
       nuclear repulsion energy       321.6182692629 Hartrees.
 IExCor=  402 DFT=T Ex+Corr=B3LYP ExCW=0 ScaHFX=  0.200000
 ScaDFX=  0.800000  0.720000  1.000000  0.810000 ScalE2=  1.000000  1.000000
 IRadAn=      5 IRanWt=     -1 IRanGd=            0 ICorTp=0 IEmpDi=  4
 NAtoms=   14 NActive=   14 NUniq=   14 SFac= 1.00D+00 NAtFMM=   60 NAOKFM=F Big=F
 Integral buffers will be    131072 words long.
 Raffenetti 2 integral format.
 Two-electron integral symmetry is turned on.
 Leave Link  301 at Wed Feb  7 14:28:10 2024, MaxMem=  6710886400 cpu:               0.8 elap:               0.1
 (Enter /tmpu/scunam/7/gaussian-2016.03/g1/g16/l302.exe)
 NPDir=0 NMtPBC=     1 NCelOv=     1 NCel=       1 NClECP=     1 NCelD=      1
         NCelK=      1 NCelE2=     1 NClLst=     1 CellRange=     0.0.
 One-electron integrals computed using PRISM.
 One-electron integral symmetry used in STVInt
   1 Symmetry operations used in ECPInt.
 ECPInt:  NShTT=    6328 NPrTT=   19500 LenC2=    6194 LenP2D=   15434.
 LDataN:  DoStor=T MaxTD1= 6 Len=  172
 NBasis=   284 RedAO= T EigKep=  8.79D-06  NBF=   284
 NBsUse=   284 1.00D-06 EigRej= -1.00D+00 NBFU=   284
 Precomputing XC quadrature grid using
 IXCGrd= 4 IRadAn=           5 IRanWt=          -1 IRanGd=           0 AccXCQ= 0.00D+00.
 Generated NRdTot=       0 NPtTot=           0 NUsed=           0 NTot=          32
 NSgBfM=   323   323   323   323   323 MxSgAt=    14 MxSgA2=    14.
 Leave Link  302 at Wed Feb  7 14:28:10 2024, MaxMem=  6710886400 cpu:               4.7 elap:               0.3
 (Enter /tmpu/scunam/7/gaussian-2016.03/g1/g16/l303.exe)
 DipDrv:  MaxL=1.
 Leave Link  303 at Wed Feb  7 14:28:10 2024, MaxMem=  6710886400 cpu:               0.6 elap:               0.1
 (Enter /tmpu/scunam/7/gaussian-2016.03/g1/g16/l401.exe)
 Initial guess from the checkpoint file:  "Benzaldehyde.chk"
 B after Tr=     0.000000   -0.000000   -0.000000
         Rot=    0.999998    0.000005   -0.000007   -0.002178 Ang=   0.25 deg.
 Guess basis will be translated and rotated to current coordinates.
 JPrj=2 DoOrth=T DoCkMO=T.
 Generating alternative initial guess.
 ExpMin= 9.52D-02 ExpMax= 2.70D+04 ExpMxC= 9.22D+02 IAcc=2 IRadAn=         4 AccDes= 0.00D+00
 Harris functional with IExCor=  402 and IRadAn=       4 diagonalized for initial guess.
 HarFok:  IExCor=  402 AccDes= 0.00D+00 IRadAn=         4 IDoV= 1 UseB2=F ITyADJ=14
 ICtDFT=  3500011 ScaDFX=  1.000000  1.000000  1.000000  1.000000
 FoFCou: FMM=F IPFlag=           0 FMFlag=      100000 FMFlg1=           0
         NFxFlg=           0 DoJE=T BraDBF=F KetDBF=T FulRan=T
         wScrn=  0.000000 ICntrl=       500 IOpCl=  0 I1Cent=   200000004 NGrid=           0
         NMat0=    1 NMatS0=      1 NMatT0=    0 NMatD0=    1 NMtDS0=    0 NMtDT0=    0
 Petite list used in FoFCou.
 Harris En= -345.743938930123    
 Leave Link  401 at Wed Feb  7 14:28:11 2024, MaxMem=  6710886400 cpu:              11.8 elap:               0.8
 (Enter /tmpu/scunam/7/gaussian-2016.03/g1/g16/l502.exe)
 Integral symmetry usage will be decided dynamically.
 Closed shell SCF:
 Using DIIS extrapolation, IDIIS=  1040.
 NGot=  6710886400 LenX=  6710668346 LenY=  6710562929
 Requested convergence on RMS density matrix=1.00D-08 within1024 cycles.
 Requested convergence on MAX density matrix=1.00D-06.
 Requested convergence on             energy=1.00D-06.
 No special actions if energy rises.
 Fock matrices will be formed incrementally for  20 cycles.
 Integral accuracy reduced to 1.0D-05 until final iterations.

 Cycle   1  Pass 0  IDiag  1:
 FoFJK:  IHMeth= 1 ICntrl=       0 DoSepK=F KAlg= 0 I1Cent=           0 FoldK=F
 IRaf= 950000000 NMat=       1 IRICut=       1 DoRegI=T DoRafI=F ISym2E= 0 IDoP0=0 IntGTp=1.
 FoFCou: FMM=F IPFlag=           0 FMFlag=      100000 FMFlg1=           0
         NFxFlg=           0 DoJE=F BraDBF=F KetDBF=F FulRan=T
         wScrn=  0.000000 ICntrl=         0 IOpCl=  0 I1Cent=           0 NGrid=           0
         NMat0=    1 NMatS0=      1 NMatT0=    0 NMatD0=    1 NMtDS0=    0 NMtDT0=    0
 Symmetry not used in FoFCou.
 E= -345.706776667978    
 DIIS: error= 1.40D-03 at cycle   1 NSaved=   1.
 NSaved= 1 IEnMin= 1 EnMin= -345.706776667978     IErMin= 1 ErrMin= 1.40D-03
 ErrMax= 1.40D-03  0.00D+00 EMaxC= 1.00D-01 BMatC= 1.26D-03 BMatP= 1.26D-03
 IDIUse=3 WtCom= 9.86D-01 WtEn= 1.40D-02
 Coeff-Com:  0.100D+01
 Coeff-En:   0.100D+01
 Coeff:      0.100D+01
 Gap=     0.750 Goal=   None    Shift=    0.000
 GapD=    0.750 DampG=2.000 DampE=1.000 DampFc=2.0000 IDamp=-1.
 RMSDP=2.57D-04 MaxDP=1.83D-02              OVMax= 1.03D-02

 Cycle   2  Pass 0  IDiag  1:
 RMSU=  2.53D-04    CP:  9.95D-01
 E= -345.707792242107     Delta-E=       -0.001015574130 Rises=F Damp=F
 DIIS: error= 9.99D-04 at cycle   2 NSaved=   2.
 NSaved= 2 IEnMin= 2 EnMin= -345.707792242107     IErMin= 2 ErrMin= 9.99D-04
 ErrMax= 9.99D-04  0.00D+00 EMaxC= 1.00D-01 BMatC= 1.99D-04 BMatP= 1.26D-03
 IDIUse=3 WtCom= 9.90D-01 WtEn= 9.99D-03
 Coeff-Com:  0.172D+00 0.828D+00
 Coeff-En:   0.000D+00 0.100D+01
 Coeff:      0.170D+00 0.830D+00
 Gap=     0.187 Goal=   None    Shift=    0.000
 RMSDP=1.64D-04 MaxDP=2.02D-02 DE=-1.02D-03 OVMax= 7.48D-03

 Cycle   3  Pass 0  IDiag  1:
 RMSU=  1.45D-04    CP:  1.00D+00  7.64D-01
 E= -345.707582142300     Delta-E=        0.000210099808 Rises=F Damp=F
 DIIS: error= 1.73D-03 at cycle   3 NSaved=   3.
 NSaved= 3 IEnMin= 2 EnMin= -345.707792242107     IErMin= 2 ErrMin= 9.99D-04
 ErrMax= 1.73D-03  0.00D+00 EMaxC= 1.00D-01 BMatC= 4.57D-04 BMatP= 1.99D-04
 IDIUse=3 WtCom= 1.94D-01 WtEn= 8.06D-01
 Coeff-Com: -0.589D-02 0.608D+00 0.398D+00
 Coeff-En:   0.000D+00 0.664D+00 0.336D+00
 Coeff:     -0.114D-02 0.653D+00 0.348D+00
 Gap=     0.189 Goal=   None    Shift=    0.000
 RMSDP=9.77D-05 MaxDP=1.23D-02 DE= 2.10D-04 OVMax= 4.98D-03

 Cycle   4  Pass 0  IDiag  1:
 RMSU=  2.47D-05    CP:  9.97D-01  9.29D-01  4.53D-01
 E= -345.707936892472     Delta-E=       -0.000354750172 Rises=F Damp=F
 DIIS: error= 2.22D-04 at cycle   4 NSaved=   4.
 NSaved= 4 IEnMin= 4 EnMin= -345.707936892472     IErMin= 4 ErrMin= 2.22D-04
 ErrMax= 2.22D-04  0.00D+00 EMaxC= 1.00D-01 BMatC= 8.51D-06 BMatP= 1.99D-04
 IDIUse=3 WtCom= 9.98D-01 WtEn= 2.22D-03
 Coeff-Com: -0.117D-01 0.281D+00 0.139D+00 0.592D+00
 Coeff-En:   0.000D+00 0.000D+00 0.000D+00 0.100D+01
 Coeff:     -0.117D-01 0.280D+00 0.139D+00 0.593D+00
 Gap=     0.189 Goal=   None    Shift=    0.000
 RMSDP=9.74D-06 MaxDP=3.68D-04 DE=-3.55D-04 OVMax= 1.16D-03

 Initial convergence to 1.0D-05 achieved.  Increase integral accuracy.
 Cycle   5  Pass 1  IDiag  1:
 E= -345.707942141072     Delta-E=       -0.000005248600 Rises=F Damp=F
 DIIS: error= 1.01D-04 at cycle   1 NSaved=   1.
 NSaved= 1 IEnMin= 1 EnMin= -345.707942141072     IErMin= 1 ErrMin= 1.01D-04
 ErrMax= 1.01D-04  0.00D+00 EMaxC= 1.00D-01 BMatC= 2.26D-06 BMatP= 2.26D-06
 IDIUse=3 WtCom= 9.99D-01 WtEn= 1.01D-03
 Coeff-Com:  0.100D+01
 Coeff-En:   0.100D+01
 Coeff:      0.100D+01
 Gap=     0.189 Goal=   None    Shift=    0.000
 RMSDP=9.74D-06 MaxDP=3.68D-04 DE=-5.25D-06 OVMax= 9.42D-04

 Cycle   6  Pass 1  IDiag  1:
 RMSU=  1.05D-04    CP:  1.00D+00
 E= -345.707941227845     Delta-E=        0.000000913226 Rises=F Damp=F
 DIIS: error= 1.11D-04 at cycle   2 NSaved=   2.
 NSaved= 2 IEnMin= 1 EnMin= -345.707942141072     IErMin= 1 ErrMin= 1.01D-04
 ErrMax= 1.11D-04  0.00D+00 EMaxC= 1.00D-01 BMatC= 2.30D-06 BMatP= 2.26D-06
 IDIUse=3 WtCom= 9.99D-01 WtEn= 1.11D-03
 Coeff-Com:  0.503D+00 0.497D+00
 Coeff-En:   0.626D+00 0.374D+00
 Coeff:      0.503D+00 0.497D+00
 Gap=     0.189 Goal=   None    Shift=    0.000
 RMSDP=9.44D-06 MaxDP=1.02D-03 DE= 9.13D-07 OVMax= 8.78D-04

 Cycle   7  Pass 1  IDiag  1:
 RMSU=  9.00D-06    CP:  1.00D+00  1.01D+00
 E= -345.707943179451     Delta-E=       -0.000001951606 Rises=F Damp=F
 DIIS: error= 4.77D-05 at cycle   3 NSaved=   3.
 NSaved= 3 IEnMin= 3 EnMin= -345.707943179451     IErMin= 3 ErrMin= 4.77D-05
 ErrMax= 4.77D-05  0.00D+00 EMaxC= 1.00D-01 BMatC= 2.92D-07 BMatP= 2.26D-06
 IDIUse=1 WtCom= 1.00D+00 WtEn= 0.00D+00
 Coeff-Com:  0.418D-01 0.263D+00 0.695D+00
 Coeff:      0.418D-01 0.263D+00 0.695D+00
 Gap=     0.189 Goal=   None    Shift=    0.000
 RMSDP=4.52D-06 MaxDP=5.20D-04 DE=-1.95D-06 OVMax= 3.14D-04

 Cycle   8  Pass 1  IDiag  1:
 RMSU=  1.37D-06    CP:  1.00D+00  1.01D+00  5.55D-01
 E= -345.707943411287     Delta-E=       -0.000000231836 Rises=F Damp=F
 DIIS: error= 1.70D-05 at cycle   4 NSaved=   4.
 NSaved= 4 IEnMin= 4 EnMin= -345.707943411287     IErMin= 4 ErrMin= 1.70D-05
 ErrMax= 1.70D-05  0.00D+00 EMaxC= 1.00D-01 BMatC= 6.83D-08 BMatP= 2.92D-07
 IDIUse=1 WtCom= 1.00D+00 WtEn= 0.00D+00
 Coeff-Com:  0.207D-03 0.149D+00 0.469D+00 0.382D+00
 Coeff:      0.207D-03 0.149D+00 0.469D+00 0.382D+00
 Gap=     0.189 Goal=   None    Shift=    0.000
 RMSDP=1.37D-06 MaxDP=1.55D-04 DE=-2.32D-07 OVMax= 8.22D-05

 Cycle   9  Pass 1  IDiag  1:
 RMSU=  2.19D-07    CP:  1.00D+00  1.01D+00  6.73D-01  4.71D-01
 E= -345.707943474070     Delta-E=       -0.000000062784 Rises=F Damp=F
 DIIS: error= 2.26D-06 at cycle   5 NSaved=   5.
 NSaved= 5 IEnMin= 5 EnMin= -345.707943474070     IErMin= 5 ErrMin= 2.26D-06
 ErrMax= 2.26D-06  0.00D+00 EMaxC= 1.00D-01 BMatC= 7.00D-10 BMatP= 6.83D-08
 IDIUse=1 WtCom= 1.00D+00 WtEn= 0.00D+00
 Coeff-Com: -0.755D-03 0.760D-01 0.244D+00 0.208D+00 0.473D+00
 Coeff:     -0.755D-03 0.760D-01 0.244D+00 0.208D+00 0.473D+00
 Gap=     0.189 Goal=   None    Shift=    0.000
 RMSDP=8.32D-08 MaxDP=3.30D-06 DE=-6.28D-08 OVMax= 8.83D-06

 Cycle  10  Pass 1  IDiag  1:
 RMSU=  7.31D-08    CP:  1.00D+00  1.01D+00  6.75D-01  4.73D-01  8.33D-01
 E= -345.707943474601     Delta-E=       -0.000000000531 Rises=F Damp=F
 DIIS: error= 1.04D-06 at cycle   6 NSaved=   6.
 NSaved= 6 IEnMin= 6 EnMin= -345.707943474601     IErMin= 6 ErrMin= 1.04D-06
 ErrMax= 1.04D-06  0.00D+00 EMaxC= 1.00D-01 BMatC= 1.25D-10 BMatP= 7.00D-10
 IDIUse=1 WtCom= 1.00D+00 WtEn= 0.00D+00
 Coeff-Com: -0.493D-03 0.349D-01 0.113D+00 0.972D-01 0.322D+00 0.433D+00
 Coeff:     -0.493D-03 0.349D-01 0.113D+00 0.972D-01 0.322D+00 0.433D+00
 Gap=     0.189 Goal=   None    Shift=    0.000
 RMSDP=6.58D-08 MaxDP=7.99D-06 DE=-5.31D-10 OVMax= 3.82D-06

 Cycle  11  Pass 1  IDiag  1:
 RMSU=  3.00D-08    CP:  1.00D+00  1.01D+00  6.80D-01  4.58D-01  8.70D-01
                    CP:  6.64D-01
 E= -345.707943474711     Delta-E=       -0.000000000110 Rises=F Damp=F
 DIIS: error= 1.35D-07 at cycle   7 NSaved=   7.
 NSaved= 7 IEnMin= 7 EnMin= -345.707943474711     IErMin= 7 ErrMin= 1.35D-07
 ErrMax= 1.35D-07  0.00D+00 EMaxC= 1.00D-01 BMatC= 5.10D-12 BMatP= 1.25D-10
 IDIUse=1 WtCom= 1.00D+00 WtEn= 0.00D+00
 Coeff-Com: -0.208D-03 0.118D-01 0.388D-01 0.332D-01 0.135D+00 0.228D+00
 Coeff-Com:  0.554D+00
 Coeff:     -0.208D-03 0.118D-01 0.388D-01 0.332D-01 0.135D+00 0.228D+00
 Coeff:      0.554D+00
 Gap=     0.189 Goal=   None    Shift=    0.000
 RMSDP=1.34D-08 MaxDP=1.48D-06 DE=-1.10D-10 OVMax= 7.04D-07

 Cycle  12  Pass 1  IDiag  1:
 RMSU=  7.00D-09    CP:  1.00D+00  1.01D+00  6.79D-01  4.60D-01  8.71D-01
                    CP:  6.83D-01  8.52D-01
 E= -345.707943474716     Delta-E=       -0.000000000005 Rises=F Damp=F
 DIIS: error= 3.97D-08 at cycle   8 NSaved=   8.
 NSaved= 8 IEnMin= 8 EnMin= -345.707943474716     IErMin= 8 ErrMin= 3.97D-08
 ErrMax= 3.97D-08  0.00D+00 EMaxC= 1.00D-01 BMatC= 1.37D-13 BMatP= 5.10D-12
 IDIUse=1 WtCom= 1.00D+00 WtEn= 0.00D+00
 Coeff-Com: -0.411D-04 0.200D-02 0.658D-02 0.565D-02 0.292D-01 0.513D-01
 Coeff-Com:  0.189D+00 0.717D+00
 Coeff:     -0.411D-04 0.200D-02 0.658D-02 0.565D-02 0.292D-01 0.513D-01
 Coeff:      0.189D+00 0.717D+00
 Gap=     0.189 Goal=   None    Shift=    0.000
 RMSDP=2.53D-09 MaxDP=2.01D-07 DE=-5.23D-12 OVMax= 2.89D-07

 SCF Done:  E(RB3LYP) =  -345.707943475     A.U. after   12 cycles
            NFock= 12  Conv=0.25D-08     -V/T= 2.0050
 KE= 3.439907243767D+02 PE=-1.447976443354D+03 EE= 4.366595062394D+02
 Leave Link  502 at Wed Feb  7 14:28:39 2024, MaxMem=  6710886400 cpu:             445.7 elap:              27.9
 (Enter /tmpu/scunam/7/gaussian-2016.03/g1/g16/l701.exe)
 ... and contract with generalized density number  0.
 Compute integral first derivatives.
   1 Symmetry operations used in ECPInt.
 ECPInt:  NShTT=    6328 NPrTT=   19500 LenC2=    6194 LenP2D=   15434.
 LDataN:  DoStor=T MaxTD1= 7 Len=  274
 Leave Link  701 at Wed Feb  7 14:28:39 2024, MaxMem=  6710886400 cpu:               3.8 elap:               0.3
 (Enter /tmpu/scunam/7/gaussian-2016.03/g1/g16/l702.exe)
 L702 exits ... SP integral derivatives will be done elsewhere.
 Leave Link  702 at Wed Feb  7 14:28:39 2024, MaxMem=  6710886400 cpu:               0.3 elap:               0.0
 (Enter /tmpu/scunam/7/gaussian-2016.03/g1/g16/l703.exe)
 Integral derivatives from FoFJK, PRISM(SPDF).
 Compute integral first derivatives, UseDBF=F ICtDFT=           0.
 Calling FoFJK, ICntrl=      2127 FMM=F ISym2X=0 I1Cent= 0 IOpClX= 0 NMat=1 NMatS=1 NMatT=0.
 FoFJK:  IHMeth= 1 ICntrl=    2127 DoSepK=F KAlg= 0 I1Cent=           0 FoldK=F
 IRaf=         0 NMat=       1 IRICut=       1 DoRegI=T DoRafI=F ISym2E= 0 IDoP0=0 IntGTp=1.
 FoFCou: FMM=F IPFlag=           0 FMFlag=      100000 FMFlg1=         800
         NFxFlg=           0 DoJE=F BraDBF=F KetDBF=F FulRan=T
         wScrn=  0.000000 ICntrl=      2127 IOpCl=  0 I1Cent=           0 NGrid=           0
         NMat0=    1 NMatS0=      1 NMatT0=    0 NMatD0=    1 NMtDS0=    0 NMtDT0=    0
 Symmetry not used in FoFCou.
 Leave Link  703 at Wed Feb  7 14:28:50 2024, MaxMem=  6710886400 cpu:             183.1 elap:              11.5
 (Enter /tmpu/scunam/7/gaussian-2016.03/g1/g16/l716.exe)
 Dipole        = 1.29408701D+00 4.85503313D-01 8.42656854D-05
 ***** Axes restored to original set *****
 -------------------------------------------------------------------
 Center     Atomic                   Forces (Hartrees/Bohr)
 Number     Number              X              Y              Z
 -------------------------------------------------------------------
      1        8          -0.007852369    0.005990242    0.000009737
      2        6          -0.002481985    0.000494640    0.000002146
      3        6          -0.000035025    0.000444422    0.000007171
      4        6          -0.002661728   -0.001628465   -0.000000477
      5        6           0.000296271   -0.000198037   -0.000006841
      6        6           0.001166975    0.000142719    0.000004228
      7        6          -0.000028642    0.000227393    0.000000507
      8        6           0.011403375   -0.007744185   -0.000029659
      9        1           0.000856176   -0.000184896   -0.000000612
     10        1           0.001286490    0.000538101    0.000001889
     11        1           0.000038923   -0.000013748    0.000001062
     12        1          -0.000327068   -0.000063444   -0.000001984
     13        1          -0.000034395   -0.000151587    0.000000707
     14        1          -0.001626997    0.002146846    0.000012126
 -------------------------------------------------------------------
 Cartesian Forces:  Max     0.011403375 RMS     0.002741047
 Leave Link  716 at Wed Feb  7 14:28:50 2024, MaxMem=  6710886400 cpu:               0.3 elap:               0.0
 (Enter /tmpu/scunam/7/gaussian-2016.03/g1/g16/l103.exe)

 GradGradGradGradGradGradGradGradGradGradGradGradGradGradGradGradGradGrad
 Berny optimization.
 Search for a local minimum.
 Step number   2 out of a maximum of  100
 All quantities printed in internal units (Hartrees-Bohrs-Radians)
 Update second derivatives using D2CorN and points    1    2
 DE= -1.65D-03 DEPred=-1.43D-03 R= 1.16D+00
 TightC=F SS=  1.41D+00  RLast= 1.28D-01 DXNew= 5.0454D-01 3.8457D-01
 Trust test= 1.16D+00 RLast= 1.28D-01 DXMaxT set to 3.85D-01
 ITU=  1  0
     Eigenvalues ---    0.00637   0.00769   0.01286   0.01658   0.02600
     Eigenvalues ---    0.03865   0.04753   0.06637   0.06889   0.07114
     Eigenvalues ---    0.07590   0.08274   0.08808   0.10232   0.11191
     Eigenvalues ---    0.12785   0.16122   0.17458   0.20502   0.29398
     Eigenvalues ---    0.30232   0.31056   0.37319   0.43223   0.44631
     Eigenvalues ---    0.59233   0.68422   0.82018   1.02755   1.11698
     Eigenvalues ---    1.22583   1.26791   1.48081   1.58046   1.61420
     Eigenvalues ---    2.03053
 RFO step:  Lambda=-2.24267371D-04 EMin= 6.36899769D-03
 Quartic linear search produced a step of  0.23139.
 B after Tr=     0.000187   -0.000577   -0.000022
         Rot=    1.000000    0.000004    0.000000   -0.000016 Ang=   0.00 deg.
 Variable       Old X    -DE/DX   Delta X   Delta X   Delta X     New X
                                 (Linear)    (Quad)   (Total)
    X1        5.43729  -0.00785   0.01342  -0.01214   0.00149   5.43878
    Y1       -0.66021   0.00599   0.01645   0.00556   0.02161  -0.63860
    Z1       -0.00006   0.00001  -0.00010   0.00028   0.00016   0.00010
    X2        1.05798  -0.00248  -0.00199  -0.00021  -0.00202   1.05596
    Y2        0.42175   0.00049  -0.00609  -0.00588  -0.01251   0.40924
    Z2       -0.00004   0.00000  -0.00001  -0.00019  -0.00023  -0.00026
    X3       -0.66019  -0.00004  -0.00247   0.01098   0.00861  -0.65158
    Y3        2.42584   0.00044  -0.00538  -0.00193  -0.00790   2.41794
    Z3       -0.00004   0.00001  -0.00001  -0.00005  -0.00010  -0.00015
    X4        0.16185  -0.00266  -0.00684   0.00016  -0.00644   0.15542
    Y4       -2.06195  -0.00163  -0.00544  -0.00762  -0.01363  -2.07559
    Z4       -0.00008  -0.00000  -0.00002  -0.00011  -0.00014  -0.00022
    X5       -3.24333   0.00030  -0.00070   0.00868   0.00810  -3.23523
    Y5        1.96167  -0.00020  -0.00054   0.00088  -0.00033   1.96134
    Z5        0.00008  -0.00001  -0.00002  -0.00000  -0.00007   0.00002
    X6       -2.41707   0.00117  -0.00405  -0.00239  -0.00617  -2.42324
    Y6       -2.52431   0.00014  -0.00018  -0.00542  -0.00625  -2.53056
    Z6       -0.00009   0.00000   0.00002   0.00002   0.00004  -0.00005
    X7       -4.12060  -0.00003  -0.00124   0.00226   0.00122  -4.11938
    Y7       -0.51520   0.00023   0.00165   0.00061   0.00156  -0.51364
    Z7        0.00002   0.00000   0.00000   0.00008   0.00007   0.00008
    X8        3.79069   0.01140   0.00536  -0.00239   0.00312   3.79381
    Y8        0.94273  -0.00774  -0.00268   0.00660   0.00346   0.94619
    Z8       -0.00017  -0.00003   0.00009  -0.00032  -0.00026  -0.00042
    X9        0.02717   0.00086   0.00559   0.02652   0.03216   0.05932
    Y9        4.35577  -0.00018  -0.00950  -0.00593  -0.01601   4.33976
    Z9       -0.00004  -0.00000  -0.00001  -0.00005  -0.00012  -0.00016
   X10        1.49755   0.00129   0.00099   0.00844   0.00973   1.50729
   Y10       -3.60871   0.00054   0.00427  -0.00572  -0.00198  -3.61069
   Z10       -0.00019   0.00000   0.00000  -0.00014  -0.00013  -0.00031
   X11       -4.56725   0.00004   0.00215   0.01088   0.01311  -4.55414
   Y11        3.52092  -0.00001  -0.00022   0.00457   0.00362   3.52454
   Z11        0.00011   0.00000  -0.00002   0.00005  -0.00003   0.00008
   X12       -3.10488  -0.00033  -0.00535  -0.01430  -0.01932  -3.12420
   Y12       -4.45049  -0.00006   0.00210  -0.00369  -0.00227  -4.45276
   Z12       -0.00010  -0.00000   0.00002   0.00006   0.00010  -0.00001
   X13       -6.13364  -0.00003  -0.00025   0.00001  -0.00003  -6.13367
   Y13       -0.88210  -0.00015   0.00420   0.00380   0.00723  -0.87487
   Z13        0.00002   0.00000   0.00001   0.00022   0.00020   0.00023
   X14        4.32378  -0.00163  -0.00462  -0.03904  -0.04356   4.28022
   Y14        2.96383   0.00215   0.00135   0.02249   0.02340   2.98723
   Z14       -0.00093   0.00001   0.00005   0.00049   0.00049  -0.00044
         Item               Value     Threshold  Converged?
 Maximum Force            0.011403     0.000002     NO 
 RMS     Force            0.002741     0.000001     NO 
 Maximum Displacement     0.043561     0.000006     NO 
 RMS     Displacement     0.011560     0.000004     NO 
 Predicted change in Energy=-1.510002D-04
 Lowest energy point so far.  Saving SCF results.
 GradGradGradGradGradGradGradGradGradGradGradGradGradGradGradGradGradGrad

 Leave Link  103 at Wed Feb  7 14:28:51 2024, MaxMem=  6710886400 cpu:               0.2 elap:               0.0
 (Enter /tmpu/scunam/7/gaussian-2016.03/g1/g16/l202.exe)
                          Input orientation:                          
 ---------------------------------------------------------------------
 Center     Atomic      Atomic             Coordinates (Angstroms)
 Number     Number       Type             X           Y           Z
 ---------------------------------------------------------------------
      1          8           0        2.878078   -0.337934    0.000054
      2          6           0        0.558791    0.216559   -0.000139
      3          6           0       -0.344802    1.279516   -0.000079
      4          6           0        0.082243   -1.098353   -0.000114
      5          6           0       -1.712008    1.037897    0.000008
      6          6           0       -1.282325   -1.339114   -0.000027
      7          6           0       -2.179882   -0.271808    0.000045
      8          6           0        2.007597    0.500704   -0.000225
      9          1           0        0.031392    2.296502   -0.000085
     10          1           0        0.797622   -1.910694   -0.000166
     11          1           0       -2.409947    1.865107    0.000042
     12          1           0       -1.653253   -2.356298   -0.000004
     13          1           0       -3.245799   -0.462961    0.000121
     14          1           0        2.264994    1.580776   -0.000232
 ---------------------------------------------------------------------
                    Distance matrix (angstroms):
                    1          2          3          4          5
     1  O    0.000000
     2  C    2.384650   0.000000
     3  C    3.605982   1.395120   0.000000
     4  C    2.897401   1.398604   2.415912   0.000000
     5  C    4.791847   2.414772   1.388391   2.789785   0.000000
     6  C    4.279172   2.410359   2.781398   1.385645   2.415535
     7  C    5.058393   2.781876   2.402941   2.408400   1.390767
     8  C    1.208739   1.476407   2.477970   2.502793   3.758196
     9  H    3.878643   2.145766   1.084336   3.395237   2.150240
    10  H    2.608040   2.140619   3.388595   1.082435   3.872006
    11  H    5.728578   3.395750   2.146565   3.872094   1.082311
    12  H    4.960520   3.393042   3.864089   2.143448   3.394703
    13  H    6.125154   3.864797   3.384082   3.388154   2.145948
    14  H    2.014279   2.184540   2.627127   3.455740   4.013883
                    6          7          8          9         10
     6  C    0.000000
     7  C    1.394544   0.000000
     8  C    3.769419   4.258141   0.000000
     9  H    3.865690   3.389093   2.670258   0.000000
    10  H    2.157054   3.398747   2.697941   4.276402   0.000000
    11  H    3.396847   2.149264   4.623451   2.479162   4.954309
    12  H    1.082705   2.149985   4.643736   4.948392   2.491054
    13  H    2.150087   1.082921   5.341051   4.284230   4.294785
    14  H    4.594479   4.815495   1.110319   2.345472   3.787288
                   11         12         13         14
    11  H    0.000000
    12  H    4.288688   0.000000
    13  H    2.473571   2.474050   0.000000
    14  H    4.683580   5.554567   5.877559   0.000000
 Stoichiometry    C7H6O
 Framework group  C1[X(C7H6O)]
 Deg. of freedom    36
 Full point group                 C1      NOp   1
 RotChk:  IX=0 Diff= 5.36D-03
 Largest Abelian subgroup         C1      NOp   1
 Largest concise Abelian subgroup C1      NOp   1
                         Standard orientation:                         
 ---------------------------------------------------------------------
 Center     Atomic      Atomic             Coordinates (Angstroms)
 Number     Number       Type             X           Y           Z
 ---------------------------------------------------------------------
      1          8           0       -2.843361   -0.391986   -0.000109
      2          6           0       -0.534042    0.202658    0.000084
      3          6           0        0.350975    1.281130    0.000024
      4          6           0       -0.034755   -1.103790    0.000059
      5          6           0        1.722167    1.063265   -0.000063
      6          6           0        1.333784   -1.320842   -0.000028
      7          6           0        2.212691   -0.238126   -0.000099
      8          6           0       -1.987560    0.461627    0.000170
      9          1           0       -0.042805    2.291437    0.000030
     10          1           0       -0.735934   -1.928419    0.000111
     11          1           0        2.405651    1.902459   -0.000097
     12          1           0        1.722303   -2.331438   -0.000051
     13          1           0        3.281764   -0.410759   -0.000176
     14          1           0       -2.263654    1.537071    0.000177
 ---------------------------------------------------------------------
 Rotational constants (GHZ):           5.2822146           1.5667135           1.2083230
 Leave Link  202 at Wed Feb  7 14:28:51 2024, MaxMem=  6710886400 cpu:               0.1 elap:               0.0
 (Enter /tmpu/scunam/7/gaussian-2016.03/g1/g16/l301.exe)
 Standard basis: def2TZVP (5D, 7F)
 Ernie: Thresh=  0.10000D-02 Tol=  0.10000D-05 Strict=F.
 There are   324 symmetry adapted cartesian basis functions of A   symmetry.
 There are   284 symmetry adapted basis functions of A   symmetry.
   284 basis functions,   456 primitive gaussians,   324 cartesian basis functions
    28 alpha electrons       28 beta electrons
       nuclear repulsion energy       321.7094837889 Hartrees.
 IExCor=  402 DFT=T Ex+Corr=B3LYP ExCW=0 ScaHFX=  0.200000
 ScaDFX=  0.800000  0.720000  1.000000  0.810000 ScalE2=  1.000000  1.000000
 IRadAn=      5 IRanWt=     -1 IRanGd=            0 ICorTp=0 IEmpDi=  4
 NAtoms=   14 NActive=   14 NUniq=   14 SFac= 1.00D+00 NAtFMM=   60 NAOKFM=F Big=F
 Integral buffers will be    131072 words long.
 Raffenetti 2 integral format.
 Two-electron integral symmetry is turned on.
 Leave Link  301 at Wed Feb  7 14:28:51 2024, MaxMem=  6710886400 cpu:               0.8 elap:               0.1
 (Enter /tmpu/scunam/7/gaussian-2016.03/g1/g16/l302.exe)
 NPDir=0 NMtPBC=     1 NCelOv=     1 NCel=       1 NClECP=     1 NCelD=      1
         NCelK=      1 NCelE2=     1 NClLst=     1 CellRange=     0.0.
 One-electron integrals computed using PRISM.
 One-electron integral symmetry used in STVInt
   1 Symmetry operations used in ECPInt.
 ECPInt:  NShTT=    6328 NPrTT=   19500 LenC2=    6194 LenP2D=   15436.
 LDataN:  DoStor=T MaxTD1= 6 Len=  172
 NBasis=   284 RedAO= T EigKep=  8.80D-06  NBF=   284
 NBsUse=   284 1.00D-06 EigRej= -1.00D+00 NBFU=   284
 Precomputing XC quadrature grid using
 IXCGrd= 4 IRadAn=           5 IRanWt=          -1 IRanGd=           0 AccXCQ= 0.00D+00.
 Generated NRdTot=       0 NPtTot=           0 NUsed=           0 NTot=          32
 NSgBfM=   323   323   323   323   323 MxSgAt=    14 MxSgA2=    14.
 Leave Link  302 at Wed Feb  7 14:28:51 2024, MaxMem=  6710886400 cpu:               4.5 elap:               0.3
 (Enter /tmpu/scunam/7/gaussian-2016.03/g1/g16/l303.exe)
 DipDrv:  MaxL=1.
 Leave Link  303 at Wed Feb  7 14:28:51 2024, MaxMem=  6710886400 cpu:               0.6 elap:               0.1
 (Enter /tmpu/scunam/7/gaussian-2016.03/g1/g16/l401.exe)
 Initial guess from the checkpoint file:  "Benzaldehyde.chk"
 B after Tr=    -0.000000    0.000000   -0.000000
         Rot=    0.999999   -0.000009   -0.000000   -0.001559 Ang=  -0.18 deg.
 Guess basis will be translated and rotated to current coordinates.
 JPrj=2 DoOrth=T DoCkMO=T.
 Generating alternative initial guess.
 ExpMin= 9.52D-02 ExpMax= 2.70D+04 ExpMxC= 9.22D+02 IAcc=2 IRadAn=         4 AccDes= 0.00D+00
 Harris functional with IExCor=  402 and IRadAn=       4 diagonalized for initial guess.
 HarFok:  IExCor=  402 AccDes= 0.00D+00 IRadAn=         4 IDoV= 1 UseB2=F ITyADJ=14
 ICtDFT=  3500011 ScaDFX=  1.000000  1.000000  1.000000  1.000000
 FoFCou: FMM=F IPFlag=           0 FMFlag=      100000 FMFlg1=           0
         NFxFlg=           0 DoJE=T BraDBF=F KetDBF=T FulRan=T
         wScrn=  0.000000 ICntrl=       500 IOpCl=  0 I1Cent=   200000004 NGrid=           0
         NMat0=    1 NMatS0=      1 NMatT0=    0 NMatD0=    1 NMtDS0=    0 NMtDT0=    0
 Petite list used in FoFCou.
 Harris En= -345.744129479958    
 Leave Link  401 at Wed Feb  7 14:28:52 2024, MaxMem=  6710886400 cpu:              11.7 elap:               0.8
 (Enter /tmpu/scunam/7/gaussian-2016.03/g1/g16/l502.exe)
 Integral symmetry usage will be decided dynamically.
 Closed shell SCF:
 Using DIIS extrapolation, IDIIS=  1040.
 NGot=  6710886400 LenX=  6710668346 LenY=  6710562929
 Requested convergence on RMS density matrix=1.00D-08 within1024 cycles.
 Requested convergence on MAX density matrix=1.00D-06.
 Requested convergence on             energy=1.00D-06.
 No special actions if energy rises.
 Fock matrices will be formed incrementally for  20 cycles.
 Integral accuracy reduced to 1.0D-05 until final iterations.

 Cycle   1  Pass 0  IDiag  1:
 FoFJK:  IHMeth= 1 ICntrl=       0 DoSepK=F KAlg= 0 I1Cent=           0 FoldK=F
 IRaf= 950000000 NMat=       1 IRICut=       1 DoRegI=T DoRafI=F ISym2E= 0 IDoP0=0 IntGTp=1.
 FoFCou: FMM=F IPFlag=           0 FMFlag=      100000 FMFlg1=           0
         NFxFlg=           0 DoJE=F BraDBF=F KetDBF=F FulRan=T
         wScrn=  0.000000 ICntrl=         0 IOpCl=  0 I1Cent=           0 NGrid=           0
         NMat0=    1 NMatS0=      1 NMatT0=    0 NMatD0=    1 NMtDS0=    0 NMtDT0=    0
 Symmetry not used in FoFCou.
 E= -345.707958823045    
 DIIS: error= 4.95D-04 at cycle   1 NSaved=   1.
 NSaved= 1 IEnMin= 1 EnMin= -345.707958823045     IErMin= 1 ErrMin= 4.95D-04
 ErrMax= 4.95D-04  0.00D+00 EMaxC= 1.00D-01 BMatC= 1.56D-04 BMatP= 1.56D-04
 IDIUse=3 WtCom= 9.95D-01 WtEn= 4.95D-03
 Coeff-Com:  0.100D+01
 Coeff-En:   0.100D+01
 Coeff:      0.100D+01
 Gap=     0.751 Goal=   None    Shift=    0.000
 RMSDP=1.79D-04 MaxDP=8.18D-03              OVMax= 3.52D-03

 Cycle   2  Pass 0  IDiag  1:
 RMSU=  1.77D-04    CP:  9.97D-01
 E= -345.708081998319     Delta-E=       -0.000123175273 Rises=F Damp=F
 DIIS: error= 4.28D-04 at cycle   2 NSaved=   2.
 NSaved= 2 IEnMin= 2 EnMin= -345.708081998319     IErMin= 2 ErrMin= 4.28D-04
 ErrMax= 4.28D-04  0.00D+00 EMaxC= 1.00D-01 BMatC= 3.19D-05 BMatP= 1.56D-04
 IDIUse=3 WtCom= 9.96D-01 WtEn= 4.28D-03
 Coeff-Com:  0.210D+00 0.790D+00
 Coeff-En:   0.000D+00 0.100D+01
 Coeff:      0.209D+00 0.791D+00
 Gap=     0.189 Goal=   None    Shift=    0.000
 RMSDP=7.23D-05 MaxDP=8.89D-03 DE=-1.23D-04 OVMax= 3.10D-03

 Cycle   3  Pass 0  IDiag  1:
 RMSU=  6.57D-05    CP:  9.99D-01  8.85D-01
 E= -345.708051689785     Delta-E=        0.000030308534 Rises=F Damp=F
 DIIS: error= 6.23D-04 at cycle   3 NSaved=   3.
 NSaved= 3 IEnMin= 2 EnMin= -345.708081998319     IErMin= 2 ErrMin= 4.28D-04
 ErrMax= 6.23D-04  0.00D+00 EMaxC= 1.00D-01 BMatC= 7.11D-05 BMatP= 3.19D-05
 IDIUse=3 WtCom= 2.86D-01 WtEn= 7.14D-01
 Coeff-Com: -0.541D-02 0.603D+00 0.402D+00
 Coeff-En:   0.000D+00 0.659D+00 0.341D+00
 Coeff:     -0.155D-02 0.643D+00 0.359D+00
 Gap=     0.190 Goal=   None    Shift=    0.000
 RMSDP=4.36D-05 MaxDP=5.53D-03 DE= 3.03D-05 OVMax= 1.93D-03

 Cycle   4  Pass 0  IDiag  1:
 RMSU=  1.04D-05    CP:  9.98D-01  9.92D-01  4.62D-01
 E= -345.708103926565     Delta-E=       -0.000052236780 Rises=F Damp=F
 DIIS: error= 5.82D-05 at cycle   4 NSaved=   4.
 NSaved= 4 IEnMin= 4 EnMin= -345.708103926565     IErMin= 4 ErrMin= 5.82D-05
 ErrMax= 5.82D-05  0.00D+00 EMaxC= 1.00D-01 BMatC= 8.23D-07 BMatP= 3.19D-05
 IDIUse=1 WtCom= 1.00D+00 WtEn= 0.00D+00
 Coeff-Com: -0.110D-01 0.226D+00 0.937D-01 0.692D+00
 Coeff:     -0.110D-01 0.226D+00 0.937D-01 0.692D+00
 Gap=     0.190 Goal=   None    Shift=    0.000
 RMSDP=5.37D-06 MaxDP=5.68D-04 DE=-5.22D-05 OVMax= 2.33D-04

 Initial convergence to 1.0D-05 achieved.  Increase integral accuracy.
 Cycle   5  Pass 1  IDiag  1:
 E= -345.708105840689     Delta-E=       -0.000001914124 Rises=F Damp=F
 DIIS: error= 1.02D-04 at cycle   1 NSaved=   1.
 NSaved= 1 IEnMin= 1 EnMin= -345.708105840689     IErMin= 1 ErrMin= 1.02D-04
 ErrMax= 1.02D-04  0.00D+00 EMaxC= 1.00D-01 BMatC= 1.38D-06 BMatP= 1.38D-06
 IDIUse=3 WtCom= 9.99D-01 WtEn= 1.02D-03
 Coeff-Com:  0.100D+01
 Coeff-En:   0.100D+01
 Coeff:      0.100D+01
 Gap=     0.190 Goal=   None    Shift=    0.000
 RMSDP=5.37D-06 MaxDP=5.68D-04 DE=-1.91D-06 OVMax= 2.29D-04

 Cycle   6  Pass 1  IDiag  1:
 RMSU=  1.13D-04    CP:  1.00D+00
 E= -345.708106226341     Delta-E=       -0.000000385652 Rises=F Damp=F
 DIIS: error= 3.07D-05 at cycle   2 NSaved=   2.
 NSaved= 2 IEnMin= 2 EnMin= -345.708106226341     IErMin= 2 ErrMin= 3.07D-05
 ErrMax= 3.07D-05  0.00D+00 EMaxC= 1.00D-01 BMatC= 1.39D-07 BMatP= 1.38D-06
 IDIUse=1 WtCom= 1.00D+00 WtEn= 0.00D+00
 Coeff-Com:  0.133D+00 0.867D+00
 Coeff:      0.133D+00 0.867D+00
 Gap=     0.190 Goal=   None    Shift=    0.000
 RMSDP=2.87D-06 MaxDP=1.82D-04 DE=-3.86D-07 OVMax= 3.45D-04

 Cycle   7  Pass 1  IDiag  1:
 RMSU=  2.51D-06    CP:  1.00D+00  1.01D+00
 E= -345.708106134930     Delta-E=        0.000000091411 Rises=F Damp=F
 DIIS: error= 4.59D-05 at cycle   3 NSaved=   3.
 NSaved= 3 IEnMin= 2 EnMin= -345.708106226341     IErMin= 2 ErrMin= 3.07D-05
 ErrMax= 4.59D-05  0.00D+00 EMaxC= 1.00D-01 BMatC= 2.25D-07 BMatP= 1.39D-07
 IDIUse=1 WtCom= 1.00D+00 WtEn= 0.00D+00
 Coeff-Com:  0.142D-02 0.560D+00 0.439D+00
 Coeff:      0.142D-02 0.560D+00 0.439D+00
 Gap=     0.190 Goal=   None    Shift=    0.000
 RMSDP=1.40D-06 MaxDP=7.63D-05 DE= 9.14D-08 OVMax= 2.18D-04

 Cycle   8  Pass 1  IDiag  1:
 RMSU=  4.13D-07    CP:  1.00D+00  1.01D+00  4.83D-01
 E= -345.708106356314     Delta-E=       -0.000000221384 Rises=F Damp=F
 DIIS: error= 6.12D-06 at cycle   4 NSaved=   4.
 NSaved= 4 IEnMin= 4 EnMin= -345.708106356314     IErMin= 4 ErrMin= 6.12D-06
 ErrMax= 6.12D-06  0.00D+00 EMaxC= 1.00D-01 BMatC= 4.98D-09 BMatP= 1.39D-07
 IDIUse=1 WtCom= 1.00D+00 WtEn= 0.00D+00
 Coeff-Com: -0.185D-02 0.328D+00 0.270D+00 0.404D+00
 Coeff:     -0.185D-02 0.328D+00 0.270D+00 0.404D+00
 Gap=     0.190 Goal=   None    Shift=    0.000
 RMSDP=1.80D-07 MaxDP=5.18D-06 DE=-2.21D-07 OVMax= 3.39D-05

 Cycle   9  Pass 1  IDiag  1:
 RMSU=  1.24D-07    CP:  1.00D+00  1.01D+00  5.07D-01  7.22D-01
 E= -345.708106361391     Delta-E=       -0.000000005077 Rises=F Damp=F
 DIIS: error= 5.56D-07 at cycle   5 NSaved=   5.
 NSaved= 5 IEnMin= 5 EnMin= -345.708106361391     IErMin= 5 ErrMin= 5.56D-07
 ErrMax= 5.56D-07  0.00D+00 EMaxC= 1.00D-01 BMatC= 6.17D-11 BMatP= 4.98D-09
 IDIUse=1 WtCom= 1.00D+00 WtEn= 0.00D+00
 Coeff-Com: -0.100D-02 0.163D+00 0.135D+00 0.217D+00 0.487D+00
 Coeff:     -0.100D-02 0.163D+00 0.135D+00 0.217D+00 0.487D+00
 Gap=     0.190 Goal=   None    Shift=    0.000
 RMSDP=6.18D-08 MaxDP=7.16D-06 DE=-5.08D-09 OVMax= 3.54D-06

 Cycle  10  Pass 1  IDiag  1:
 RMSU=  4.61D-08    CP:  1.00D+00  1.01D+00  4.93D-01  6.98D-01  9.42D-01
 E= -345.708106361454     Delta-E=       -0.000000000063 Rises=F Damp=F
 DIIS: error= 6.52D-08 at cycle   6 NSaved=   6.
 NSaved= 6 IEnMin= 6 EnMin= -345.708106361454     IErMin= 6 ErrMin= 6.52D-08
 ErrMax= 6.52D-08  0.00D+00 EMaxC= 1.00D-01 BMatC= 1.37D-12 BMatP= 6.17D-11
 IDIUse=1 WtCom= 1.00D+00 WtEn= 0.00D+00
 Coeff-Com: -0.139D-03 0.200D-01 0.164D-01 0.293D-01 0.155D+00 0.779D+00
 Coeff:     -0.139D-03 0.200D-01 0.164D-01 0.293D-01 0.155D+00 0.779D+00
 Gap=     0.190 Goal=   None    Shift=    0.000
 RMSDP=8.17D-09 MaxDP=6.80D-07 DE=-6.28D-11 OVMax= 3.51D-07

 SCF Done:  E(RB3LYP) =  -345.708106361     A.U. after   10 cycles
            NFock= 10  Conv=0.82D-08     -V/T= 2.0050
 KE= 3.440043390077D+02 PE=-1.448163826598D+03 EE= 4.367418974397D+02
 Leave Link  502 at Wed Feb  7 14:29:14 2024, MaxMem=  6710886400 cpu:             358.9 elap:              22.5
 (Enter /tmpu/scunam/7/gaussian-2016.03/g1/g16/l701.exe)
 ... and contract with generalized density number  0.
 Compute integral first derivatives.
   1 Symmetry operations used in ECPInt.
 ECPInt:  NShTT=    6328 NPrTT=   19500 LenC2=    6194 LenP2D=   15436.
 LDataN:  DoStor=T MaxTD1= 7 Len=  274
 Leave Link  701 at Wed Feb  7 14:29:15 2024, MaxMem=  6710886400 cpu:               3.8 elap:               0.3
 (Enter /tmpu/scunam/7/gaussian-2016.03/g1/g16/l702.exe)
 L702 exits ... SP integral derivatives will be done elsewhere.
 Leave Link  702 at Wed Feb  7 14:29:15 2024, MaxMem=  6710886400 cpu:               0.3 elap:               0.0
 (Enter /tmpu/scunam/7/gaussian-2016.03/g1/g16/l703.exe)
 Integral derivatives from FoFJK, PRISM(SPDF).
 Compute integral first derivatives, UseDBF=F ICtDFT=           0.
 Calling FoFJK, ICntrl=      2127 FMM=F ISym2X=0 I1Cent= 0 IOpClX= 0 NMat=1 NMatS=1 NMatT=0.
 FoFJK:  IHMeth= 1 ICntrl=    2127 DoSepK=F KAlg= 0 I1Cent=           0 FoldK=F
 IRaf=         0 NMat=       1 IRICut=       1 DoRegI=T DoRafI=F ISym2E= 0 IDoP0=0 IntGTp=1.
 FoFCou: FMM=F IPFlag=           0 FMFlag=      100000 FMFlg1=         800
         NFxFlg=           0 DoJE=F BraDBF=F KetDBF=F FulRan=T
         wScrn=  0.000000 ICntrl=      2127 IOpCl=  0 I1Cent=           0 NGrid=           0
         NMat0=    1 NMatS0=      1 NMatT0=    0 NMatD0=    1 NMtDS0=    0 NMtDT0=    0
 Symmetry not used in FoFCou.
 Leave Link  703 at Wed Feb  7 14:29:26 2024, MaxMem=  6710886400 cpu:             182.9 elap:              11.5
 (Enter /tmpu/scunam/7/gaussian-2016.03/g1/g16/l716.exe)
 Dipole        = 1.27478889D+00 4.77652395D-01 1.24883478D-04
 ***** Axes restored to original set *****
 -------------------------------------------------------------------
 Center     Atomic                   Forces (Hartrees/Bohr)
 Number     Number              X              Y              Z
 -------------------------------------------------------------------
      1        8          -0.000193126    0.000588259   -0.000015360
      2        6          -0.001332269   -0.000037951   -0.000011613
      3        6           0.000218980    0.000303150   -0.000001309
      4        6           0.000058408   -0.000030644   -0.000000513
      5        6          -0.000351894   -0.000074962    0.000001393
      6        6           0.000580818   -0.000083903    0.000001844
      7        6           0.000128116    0.000435927   -0.000001407
      8        6           0.001276100   -0.001069539    0.000040338
      9        1          -0.000165370    0.000067439   -0.000001433
     10        1          -0.000095745    0.000053023    0.000000099
     11        1          -0.000153262   -0.000028641    0.000001013
     12        1           0.000047055    0.000069212   -0.000000122
     13        1           0.000050337   -0.000081441   -0.000000430
     14        1          -0.000068149   -0.000109927   -0.000012500
 -------------------------------------------------------------------
 Cartesian Forces:  Max     0.001332269 RMS     0.000373523
 Leave Link  716 at Wed Feb  7 14:29:26 2024, MaxMem=  6710886400 cpu:               0.3 elap:               0.0
 (Enter /tmpu/scunam/7/gaussian-2016.03/g1/g16/l103.exe)

 GradGradGradGradGradGradGradGradGradGradGradGradGradGradGradGradGradGrad
 Berny optimization.
 Search for a local minimum.
 Step number   3 out of a maximum of  100
 All quantities printed in internal units (Hartrees-Bohrs-Radians)
 Update second derivatives using D2CorN and points    1    2    3
 DE= -1.63D-04 DEPred=-1.51D-04 R= 1.08D+00
 TightC=F SS=  1.41D+00  RLast= 7.49D-02 DXNew= 6.4677D-01 2.2475D-01
 Trust test= 1.08D+00 RLast= 7.49D-02 DXMaxT set to 3.85D-01
 ITU=  1  1  0
     Eigenvalues ---    0.00637   0.00769   0.01658   0.02056   0.02600
     Eigenvalues ---    0.03864   0.04804   0.06628   0.06897   0.07116
     Eigenvalues ---    0.07699   0.08280   0.08861   0.10218   0.11178
     Eigenvalues ---    0.12802   0.16123   0.17555   0.20567   0.29383
     Eigenvalues ---    0.30232   0.31056   0.37234   0.43206   0.44631
     Eigenvalues ---    0.59227   0.68422   0.81926   1.02742   1.11679
     Eigenvalues ---    1.22555   1.26783   1.48076   1.57970   1.61431
     Eigenvalues ---    2.01840
 RFO step:  Lambda=-9.94630986D-06 EMin= 6.36839698D-03
 Quartic linear search produced a step of -0.00144.
 B after Tr=     0.000186    0.000019   -0.000012
         Rot=    1.000000   -0.000003   -0.000005    0.000033 Ang=  -0.00 deg.
 Variable       Old X    -DE/DX   Delta X   Delta X   Delta X     New X
                                 (Linear)    (Quad)   (Total)
    X1        5.43878  -0.00019  -0.00000   0.00290   0.00304   5.44182
    Y1       -0.63860   0.00059  -0.00003  -0.00083  -0.00121  -0.63981
    Z1        0.00010  -0.00002  -0.00000  -0.00038  -0.00045  -0.00034
    X2        1.05596  -0.00133   0.00000  -0.00172  -0.00150   1.05446
    Y2        0.40924  -0.00004   0.00002   0.00038   0.00035   0.40958
    Z2       -0.00026  -0.00001   0.00000   0.00012   0.00010  -0.00016
    X3       -0.65158   0.00022  -0.00001  -0.00151  -0.00117  -0.65276
    Y3        2.41794   0.00030   0.00001   0.00164   0.00171   2.41965
    Z3       -0.00015  -0.00000   0.00000   0.00001   0.00002  -0.00013
    X4        0.15542   0.00006   0.00001   0.00014   0.00020   0.15561
    Y4       -2.07559  -0.00003   0.00002   0.00049   0.00052  -2.07507
    Z4       -0.00022  -0.00000   0.00000   0.00009   0.00007  -0.00015
    X5       -3.23523  -0.00035  -0.00001  -0.00193  -0.00162  -3.23685
    Y5        1.96134  -0.00007   0.00000   0.00103   0.00126   1.96260
    Z5        0.00002   0.00000   0.00000  -0.00005  -0.00002  -0.00001
    X6       -2.42324   0.00058   0.00001   0.00129   0.00132  -2.42193
    Y6       -2.53056  -0.00008   0.00001   0.00064   0.00083  -2.52973
    Z6       -0.00005   0.00000  -0.00000   0.00002   0.00002  -0.00003
    X7       -4.11938   0.00013  -0.00000   0.00071   0.00085  -4.11853
    Y7       -0.51364   0.00044  -0.00000   0.00061   0.00090  -0.51274
    Z7        0.00008  -0.00000  -0.00000  -0.00006  -0.00004   0.00004
    X8        3.79381   0.00128  -0.00000   0.00124   0.00149   3.79530
    Y8        0.94619  -0.00107  -0.00000  -0.00317  -0.00341   0.94278
    Z8       -0.00042   0.00004   0.00000   0.00030   0.00026  -0.00016
    X9        0.05932  -0.00017  -0.00005  -0.00282  -0.00239   0.05693
    Y9        4.33976   0.00007   0.00002   0.00203   0.00207   4.34183
    Z9       -0.00016  -0.00000   0.00000  -0.00003  -0.00002  -0.00018
   X10        1.50729  -0.00010  -0.00001   0.00016   0.00009   1.50738
   Y10       -3.61069   0.00005   0.00000   0.00087   0.00079  -3.60989
   Z10       -0.00031   0.00000   0.00000   0.00016   0.00011  -0.00020
   X11       -4.55414  -0.00015  -0.00002  -0.00411  -0.00370  -4.55784
   Y11        3.52454  -0.00003  -0.00001  -0.00060  -0.00028   3.52426
   Z11        0.00008   0.00000   0.00000  -0.00010  -0.00004   0.00004
   X12       -3.12420   0.00005   0.00003   0.00141   0.00133  -3.12287
   Y12       -4.45276   0.00007   0.00000   0.00080   0.00104  -4.45172
   Z12       -0.00001  -0.00000  -0.00000   0.00003   0.00001   0.00001
   X13       -6.13367   0.00005   0.00000   0.00119   0.00132  -6.13236
   Y13       -0.87487  -0.00008  -0.00001  -0.00141  -0.00099  -0.87586
   Z13        0.00023  -0.00000  -0.00000  -0.00013  -0.00009   0.00014
   X14        4.28022  -0.00007   0.00006   0.00032   0.00076   4.28098
   Y14        2.98723  -0.00011  -0.00003  -0.00328  -0.00358   2.98365
   Z14       -0.00044  -0.00001  -0.00000   0.00010   0.00007  -0.00037
         Item               Value     Threshold  Converged?
 Maximum Force            0.001332     0.000002     NO 
 RMS     Force            0.000374     0.000001     NO 
 Maximum Displacement     0.003703     0.000006     NO 
 RMS     Displacement     0.001410     0.000004     NO 
 Predicted change in Energy=-4.983401D-06
 Lowest energy point so far.  Saving SCF results.
 GradGradGradGradGradGradGradGradGradGradGradGradGradGradGradGradGradGrad

 Leave Link  103 at Wed Feb  7 14:29:26 2024, MaxMem=  6710886400 cpu:               0.3 elap:               0.0
 (Enter /tmpu/scunam/7/gaussian-2016.03/g1/g16/l202.exe)
                          Input orientation:                          
 ---------------------------------------------------------------------
 Center     Atomic      Atomic             Coordinates (Angstroms)
 Number     Number       Type             X           Y           Z
 ---------------------------------------------------------------------
      1          8           0        2.879688   -0.338574   -0.000182
      2          6           0        0.557995    0.216742   -0.000087
      3          6           0       -0.345424    1.280422   -0.000070
      4          6           0        0.082346   -1.098079   -0.000079
      5          6           0       -1.712867    1.038565   -0.000004
      6          6           0       -1.281628   -1.338677   -0.000018
      7          6           0       -2.179430   -0.271330    0.000024
      8          6           0        2.008384    0.498899   -0.000087
      9          1           0        0.030127    2.297599   -0.000094
     10          1           0        0.797671   -1.910274   -0.000107
     11          1           0       -2.411907    1.864959    0.000020
     12          1           0       -1.652550   -2.355750    0.000004
     13          1           0       -3.245103   -0.463485    0.000075
     14          1           0        2.265399    1.578881   -0.000194
 ---------------------------------------------------------------------
                    Distance matrix (angstroms):
                    1          2          3          4          5
     1  O    0.000000
     2  C    2.387181   0.000000
     3  C    3.608669   1.395558   0.000000
     4  C    2.898615   1.398212   2.416662   0.000000
     5  C    4.794588   2.414996   1.388667   2.790706   0.000000
     6  C    4.279808   2.409054   2.781395   1.385031   2.416040
     7  C    5.059565   2.780595   2.402397   2.408142   1.390505
     8  C    1.208524   1.477579   2.480159   2.501991   3.760179
     9  H    3.881933   2.146768   1.084291   3.396080   2.150162
    10  H    2.608647   2.140477   3.389278   1.082289   3.872783
    11  H    5.732062   3.396607   2.147565   3.873099   1.082397
    12  H    4.960865   3.391788   3.863978   2.142802   3.394850
    13  H    6.126064   3.863452   3.383689   3.387422   2.145670
    14  H    2.013451   2.184182   2.627827   3.454249   4.014790
                    6          7          8          9         10
     6  C    0.000000
     7  C    1.394733   0.000000
     8  C    3.768403   4.258056   0.000000
     9  H    3.865645   3.388442   2.673728   0.000000
    10  H    2.156433   3.398421   2.696283   4.277303   0.000000
    11  H    3.397178   2.148901   4.626564   2.480062   4.955177
    12  H    1.082599   2.149979   4.642355   4.948238   2.490388
    13  H    2.149697   1.082858   5.340909   4.283774   4.293858
    14  H    4.592771   4.814539   1.110143   2.347977   3.785291
                   11         12         13         14
    11  H    0.000000
    12  H    4.288474   0.000000
    13  H    2.473028   2.473235   0.000000
    14  H    4.686046   5.552625   5.876809   0.000000
 Stoichiometry    C7H6O
 Framework group  C1[X(C7H6O)]
 Deg. of freedom    36
 Full point group                 C1      NOp   1
 RotChk:  IX=2 Diff= 1.06D-03
 Largest Abelian subgroup         C1      NOp   1
 Largest concise Abelian subgroup C1      NOp   1
                         Standard orientation:                         
 ---------------------------------------------------------------------
 Center     Atomic      Atomic             Coordinates (Angstroms)
 Number     Number       Type             X           Y           Z
 ---------------------------------------------------------------------
      1          8           0       -2.845072   -0.390546    0.000117
      2          6           0       -0.532917    0.203234    0.000021
      3          6           0        0.352720    1.281765    0.000005
      4          6           0       -0.035508   -1.103510    0.000014
      5          6           0        1.723990    1.062641   -0.000062
      6          6           0        1.332272   -1.321433   -0.000048
      7          6           0        2.212233   -0.239328   -0.000089
      8          6           0       -1.987790    0.461276    0.000021
      9          1           0       -0.039665    2.292568    0.000028
     10          1           0       -0.737251   -1.927467    0.000041
     11          1           0        2.409215    1.900526   -0.000086
     12          1           0        1.720027   -2.332207   -0.000070
     13          1           0        3.280949   -0.413767   -0.000141
     14          1           0       -2.262697    1.536842    0.000128
 ---------------------------------------------------------------------
 Rotational constants (GHZ):           5.2820778           1.5658827           1.2078216
 Leave Link  202 at Wed Feb  7 14:29:26 2024, MaxMem=  6710886400 cpu:               0.1 elap:               0.0
 (Enter /tmpu/scunam/7/gaussian-2016.03/g1/g16/l301.exe)
 Standard basis: def2TZVP (5D, 7F)
 Ernie: Thresh=  0.10000D-02 Tol=  0.10000D-05 Strict=F.
 There are   324 symmetry adapted cartesian basis functions of A   symmetry.
 There are   284 symmetry adapted basis functions of A   symmetry.
   284 basis functions,   456 primitive gaussians,   324 cartesian basis functions
    28 alpha electrons       28 beta electrons
       nuclear repulsion energy       321.6787119455 Hartrees.
 IExCor=  402 DFT=T Ex+Corr=B3LYP ExCW=0 ScaHFX=  0.200000
 ScaDFX=  0.800000  0.720000  1.000000  0.810000 ScalE2=  1.000000  1.000000
 IRadAn=      5 IRanWt=     -1 IRanGd=            0 ICorTp=0 IEmpDi=  4
 NAtoms=   14 NActive=   14 NUniq=   14 SFac= 1.00D+00 NAtFMM=   60 NAOKFM=F Big=F
 Integral buffers will be    131072 words long.
 Raffenetti 2 integral format.
 Two-electron integral symmetry is turned on.
 Leave Link  301 at Wed Feb  7 14:29:26 2024, MaxMem=  6710886400 cpu:               0.8 elap:               0.1
 (Enter /tmpu/scunam/7/gaussian-2016.03/g1/g16/l302.exe)
 NPDir=0 NMtPBC=     1 NCelOv=     1 NCel=       1 NClECP=     1 NCelD=      1
         NCelK=      1 NCelE2=     1 NClLst=     1 CellRange=     0.0.
 One-electron integrals computed using PRISM.
 One-electron integral symmetry used in STVInt
   1 Symmetry operations used in ECPInt.
 ECPInt:  NShTT=    6328 NPrTT=   19500 LenC2=    6194 LenP2D=   15434.
 LDataN:  DoStor=T MaxTD1= 6 Len=  172
 NBasis=   284 RedAO= T EigKep=  8.80D-06  NBF=   284
 NBsUse=   284 1.00D-06 EigRej= -1.00D+00 NBFU=   284
 Precomputing XC quadrature grid using
 IXCGrd= 4 IRadAn=           5 IRanWt=          -1 IRanGd=           0 AccXCQ= 0.00D+00.
 Generated NRdTot=       0 NPtTot=           0 NUsed=           0 NTot=          32
 NSgBfM=   323   323   323   323   323 MxSgAt=    14 MxSgA2=    14.
 Leave Link  302 at Wed Feb  7 14:29:27 2024, MaxMem=  6710886400 cpu:               4.6 elap:               0.3
 (Enter /tmpu/scunam/7/gaussian-2016.03/g1/g16/l303.exe)
 DipDrv:  MaxL=1.
 Leave Link  303 at Wed Feb  7 14:29:27 2024, MaxMem=  6710886400 cpu:               0.6 elap:               0.1
 (Enter /tmpu/scunam/7/gaussian-2016.03/g1/g16/l401.exe)
 Initial guess from the checkpoint file:  "Benzaldehyde.chk"
 B after Tr=     0.000000   -0.000000    0.000000
         Rot=    1.000000    0.000007   -0.000008    0.000312 Ang=   0.04 deg.
 Guess basis will be translated and rotated to current coordinates.
 JPrj=2 DoOrth=T DoCkMO=T.
 Leave Link  401 at Wed Feb  7 14:29:27 2024, MaxMem=  6710886400 cpu:               2.5 elap:               0.2
 (Enter /tmpu/scunam/7/gaussian-2016.03/g1/g16/l502.exe)
 Integral symmetry usage will be decided dynamically.
 Closed shell SCF:
 Using DIIS extrapolation, IDIIS=  1040.
 NGot=  6710886400 LenX=  6710668346 LenY=  6710562929
 Requested convergence on RMS density matrix=1.00D-08 within1024 cycles.
 Requested convergence on MAX density matrix=1.00D-06.
 Requested convergence on             energy=1.00D-06.
 No special actions if energy rises.
 Fock matrices will be formed incrementally for  20 cycles.

 Cycle   1  Pass 1  IDiag  1:
 FoFJK:  IHMeth= 1 ICntrl=       0 DoSepK=F KAlg= 0 I1Cent=           0 FoldK=F
 IRaf= 950000000 NMat=       1 IRICut=       1 DoRegI=T DoRafI=F ISym2E= 0 IDoP0=0 IntGTp=1.
 FoFCou: FMM=F IPFlag=           0 FMFlag=      100000 FMFlg1=           0
         NFxFlg=           0 DoJE=F BraDBF=F KetDBF=F FulRan=T
         wScrn=  0.000000 ICntrl=         0 IOpCl=  0 I1Cent=           0 NGrid=           0
         NMat0=    1 NMatS0=      1 NMatT0=    0 NMatD0=    1 NMtDS0=    0 NMtDT0=    0
 Symmetry not used in FoFCou.
 E= -345.708109024417    
 DIIS: error= 5.72D-05 at cycle   1 NSaved=   1.
 NSaved= 1 IEnMin= 1 EnMin= -345.708109024417     IErMin= 1 ErrMin= 5.72D-05
 ErrMax= 5.72D-05  0.00D+00 EMaxC= 1.00D-01 BMatC= 3.45D-06 BMatP= 3.45D-06
 IDIUse=1 WtCom= 1.00D+00 WtEn= 0.00D+00
 Coeff-Com:  0.100D+01
 Coeff:      0.100D+01
 Gap=     0.750 Goal=   None    Shift=    0.000
 RMSDP=1.50D-05 MaxDP=8.03D-04              OVMax= 6.22D-04

 Cycle   2  Pass 1  IDiag  1:
 RMSU=  1.50D-05    CP:  1.00D+00
 E= -345.708111400013     Delta-E=       -0.000002375595 Rises=F Damp=F
 DIIS: error= 6.41D-05 at cycle   2 NSaved=   2.
 NSaved= 2 IEnMin= 2 EnMin= -345.708111400013     IErMin= 1 ErrMin= 5.72D-05
 ErrMax= 6.41D-05  0.00D+00 EMaxC= 1.00D-01 BMatC= 7.37D-07 BMatP= 3.45D-06
 IDIUse=1 WtCom= 1.00D+00 WtEn= 0.00D+00
 Coeff-Com:  0.212D+00 0.788D+00
 Coeff:      0.212D+00 0.788D+00
 Gap=     0.190 Goal=   None    Shift=    0.000
 RMSDP=1.01D-05 MaxDP=1.25D-03 DE=-2.38D-06 OVMax= 5.18D-04

 Cycle   3  Pass 1  IDiag  1:
 RMSU=  9.41D-06    CP:  1.00D+00  8.87D-01
 E= -345.708110668299     Delta-E=        0.000000731713 Rises=F Damp=F
 DIIS: error= 9.39D-05 at cycle   3 NSaved=   3.
 NSaved= 3 IEnMin= 2 EnMin= -345.708111400013     IErMin= 1 ErrMin= 5.72D-05
 ErrMax= 9.39D-05  0.00D+00 EMaxC= 1.00D-01 BMatC= 1.69D-06 BMatP= 7.37D-07
 IDIUse=1 WtCom= 1.00D+00 WtEn= 0.00D+00
 Coeff-Com: -0.110D-01 0.609D+00 0.402D+00
 Coeff:     -0.110D-01 0.609D+00 0.402D+00
 Gap=     0.190 Goal=   None    Shift=    0.000
 RMSDP=6.93D-06 MaxDP=8.69D-04 DE= 7.32D-07 OVMax= 3.47D-04

 Cycle   4  Pass 1  IDiag  1:
 RMSU=  1.27D-06    CP:  1.00D+00  9.97D-01  3.36D-01
 E= -345.708111936118     Delta-E=       -0.000001267819 Rises=F Damp=F
 DIIS: error= 7.18D-06 at cycle   4 NSaved=   4.
 NSaved= 4 IEnMin= 4 EnMin= -345.708111936118     IErMin= 4 ErrMin= 7.18D-06
 ErrMax= 7.18D-06  0.00D+00 EMaxC= 1.00D-01 BMatC= 1.87D-08 BMatP= 7.37D-07
 IDIUse=1 WtCom= 1.00D+00 WtEn= 0.00D+00
 Coeff-Com: -0.104D-01 0.273D+00 0.208D+00 0.530D+00
 Coeff:     -0.104D-01 0.273D+00 0.208D+00 0.530D+00
 Gap=     0.190 Goal=   None    Shift=    0.000
 RMSDP=7.98D-07 MaxDP=8.93D-05 DE=-1.27D-06 OVMax= 4.72D-05

 Cycle   5  Pass 1  IDiag  1:
 RMSU=  3.25D-07    CP:  1.00D+00  9.88D-01  4.00D-01  7.55D-01
 E= -345.708111950926     Delta-E=       -0.000000014808 Rises=F Damp=F
 DIIS: error= 3.60D-06 at cycle   5 NSaved=   5.
 NSaved= 5 IEnMin= 5 EnMin= -345.708111950926     IErMin= 5 ErrMin= 3.60D-06
 ErrMax= 3.60D-06  0.00D+00 EMaxC= 1.00D-01 BMatC= 1.74D-09 BMatP= 1.87D-08
 IDIUse=1 WtCom= 1.00D+00 WtEn= 0.00D+00
 Coeff-Com: -0.384D-02 0.643D-01 0.603D-01 0.278D+00 0.602D+00
 Coeff:     -0.384D-02 0.643D-01 0.603D-01 0.278D+00 0.602D+00
 Gap=     0.190 Goal=   None    Shift=    0.000
 RMSDP=1.74D-07 MaxDP=1.18D-05 DE=-1.48D-08 OVMax= 1.76D-05

 Cycle   6  Pass 1  IDiag  1:
 RMSU=  1.45D-07    CP:  1.00D+00  9.88D-01  3.93D-01  7.31D-01  8.37D-01
 E= -345.708111952553     Delta-E=       -0.000000001627 Rises=F Damp=F
 DIIS: error= 4.84D-07 at cycle   6 NSaved=   6.
 NSaved= 6 IEnMin= 6 EnMin= -345.708111952553     IErMin= 6 ErrMin= 4.84D-07
 ErrMax= 4.84D-07  0.00D+00 EMaxC= 1.00D-01 BMatC= 3.71D-11 BMatP= 1.74D-09
 IDIUse=1 WtCom= 1.00D+00 WtEn= 0.00D+00
 Coeff-Com: -0.657D-03 0.381D-02 0.671D-02 0.612D-01 0.194D+00 0.735D+00
 Coeff:     -0.657D-03 0.381D-02 0.671D-02 0.612D-01 0.194D+00 0.735D+00
 Gap=     0.190 Goal=   None    Shift=    0.000
 RMSDP=4.61D-08 MaxDP=3.15D-06 DE=-1.63D-09 OVMax= 4.15D-06

 Cycle   7  Pass 1  IDiag  1:
 RMSU=  2.47D-08    CP:  1.00D+00  9.88D-01  3.94D-01  7.49D-01  8.61D-01
                    CP:  8.34D-01
 E= -345.708111952575     Delta-E=       -0.000000000022 Rises=F Damp=F
 DIIS: error= 4.19D-07 at cycle   7 NSaved=   7.
 NSaved= 7 IEnMin= 7 EnMin= -345.708111952575     IErMin= 7 ErrMin= 4.19D-07
 ErrMax= 4.19D-07  0.00D+00 EMaxC= 1.00D-01 BMatC= 1.70D-11 BMatP= 3.71D-11
 IDIUse=1 WtCom= 1.00D+00 WtEn= 0.00D+00
 Coeff-Com: -0.124D-03-0.269D-02-0.484D-03 0.179D-01 0.760D-01 0.457D+00
 Coeff-Com:  0.453D+00
 Coeff:     -0.124D-03-0.269D-02-0.484D-03 0.179D-01 0.760D-01 0.457D+00
 Coeff:      0.453D+00
 Gap=     0.190 Goal=   None    Shift=    0.000
 RMSDP=1.33D-08 MaxDP=3.91D-07 DE=-2.21D-11 OVMax= 2.18D-06

 Cycle   8  Pass 1  IDiag  1:
 RMSU=  8.57D-09    CP:  1.00D+00  9.88D-01  3.94D-01  7.50D-01  8.66D-01
                    CP:  8.72D-01  6.81D-01
 E= -345.708111952594     Delta-E=       -0.000000000020 Rises=F Damp=F
 DIIS: error= 1.10D-07 at cycle   8 NSaved=   8.
 NSaved= 8 IEnMin= 8 EnMin= -345.708111952594     IErMin= 8 ErrMin= 1.10D-07
 ErrMax= 1.10D-07  0.00D+00 EMaxC= 1.00D-01 BMatC= 9.89D-13 BMatP= 1.70D-11
 IDIUse=1 WtCom= 1.00D+00 WtEn= 0.00D+00
 Coeff-Com:  0.189D-04-0.196D-02-0.118D-02 0.169D-02 0.148D-01 0.155D+00
 Coeff-Com:  0.238D+00 0.594D+00
 Coeff:      0.189D-04-0.196D-02-0.118D-02 0.169D-02 0.148D-01 0.155D+00
 Coeff:      0.238D+00 0.594D+00
 Gap=     0.190 Goal=   None    Shift=    0.000
 RMSDP=5.42D-09 MaxDP=5.12D-07 DE=-1.96D-11 OVMax= 5.53D-07

 SCF Done:  E(RB3LYP) =  -345.708111953     A.U. after    8 cycles
            NFock=  8  Conv=0.54D-08     -V/T= 2.0050
 KE= 3.440041499097D+02 PE=-1.448100914752D+03 EE= 4.367099409444D+02
 Leave Link  502 at Wed Feb  7 14:29:49 2024, MaxMem=  6710886400 cpu:             348.3 elap:              21.8
 (Enter /tmpu/scunam/7/gaussian-2016.03/g1/g16/l701.exe)
 ... and contract with generalized density number  0.
 Compute integral first derivatives.
   1 Symmetry operations used in ECPInt.
 ECPInt:  NShTT=    6328 NPrTT=   19500 LenC2=    6194 LenP2D=   15434.
 LDataN:  DoStor=T MaxTD1= 7 Len=  274
 Leave Link  701 at Wed Feb  7 14:29:49 2024, MaxMem=  6710886400 cpu:               3.8 elap:               0.3
 (Enter /tmpu/scunam/7/gaussian-2016.03/g1/g16/l702.exe)
 L702 exits ... SP integral derivatives will be done elsewhere.
 Leave Link  702 at Wed Feb  7 14:29:49 2024, MaxMem=  6710886400 cpu:               0.3 elap:               0.0
 (Enter /tmpu/scunam/7/gaussian-2016.03/g1/g16/l703.exe)
 Integral derivatives from FoFJK, PRISM(SPDF).
 Compute integral first derivatives, UseDBF=F ICtDFT=           0.
 Calling FoFJK, ICntrl=      2127 FMM=F ISym2X=0 I1Cent= 0 IOpClX= 0 NMat=1 NMatS=1 NMatT=0.
 FoFJK:  IHMeth= 1 ICntrl=    2127 DoSepK=F KAlg= 0 I1Cent=           0 FoldK=F
 IRaf=         0 NMat=       1 IRICut=       1 DoRegI=T DoRafI=F ISym2E= 0 IDoP0=0 IntGTp=1.
 FoFCou: FMM=F IPFlag=           0 FMFlag=      100000 FMFlg1=         800
         NFxFlg=           0 DoJE=F BraDBF=F KetDBF=F FulRan=T
         wScrn=  0.000000 ICntrl=      2127 IOpCl=  0 I1Cent=           0 NGrid=           0
         NMat0=    1 NMatS0=      1 NMatT0=    0 NMatD0=    1 NMtDS0=    0 NMtDT0=    0
 Symmetry not used in FoFCou.
 Leave Link  703 at Wed Feb  7 14:30:01 2024, MaxMem=  6710886400 cpu:             183.5 elap:              11.5
 (Enter /tmpu/scunam/7/gaussian-2016.03/g1/g16/l716.exe)
 Dipole        = 1.27583689D+00 4.76034462D-01-6.67430254D-05
 ***** Axes restored to original set *****
 -------------------------------------------------------------------
 Center     Atomic                   Forces (Hartrees/Bohr)
 Number     Number              X              Y              Z
 -------------------------------------------------------------------
      1        8          -0.000436080    0.000199594    0.000008620
      2        6          -0.000480207    0.000126422    0.000006402
      3        6           0.000275770    0.000028678    0.000002339
      4        6           0.000071820    0.000011876    0.000002026
      5        6          -0.000052989   -0.000082467   -0.000002183
      6        6           0.000047044   -0.000078141   -0.000000796
      7        6          -0.000000239    0.000090072    0.000000146
      8        6           0.000683319   -0.000320698   -0.000025534
      9        1          -0.000046575    0.000041054    0.000000620
     10        1           0.000005273    0.000011247    0.000000367
     11        1          -0.000028614   -0.000022544   -0.000000019
     12        1          -0.000019239    0.000005716   -0.000000451
     13        1          -0.000012663   -0.000060098    0.000000208
     14        1          -0.000006620    0.000049288    0.000008255
 -------------------------------------------------------------------
 Cartesian Forces:  Max     0.000683319 RMS     0.000166719
 Leave Link  716 at Wed Feb  7 14:30:01 2024, MaxMem=  6710886400 cpu:               0.3 elap:               0.0
 (Enter /tmpu/scunam/7/gaussian-2016.03/g1/g16/l103.exe)

 GradGradGradGradGradGradGradGradGradGradGradGradGradGradGradGradGradGrad
 Berny optimization.
 Search for a local minimum.
 Step number   4 out of a maximum of  100
 All quantities printed in internal units (Hartrees-Bohrs-Radians)
 Update second derivatives using D2CorN and points    1    2    3    4
 DE= -5.59D-06 DEPred=-4.98D-06 R= 1.12D+00
 TightC=F SS=  1.41D+00  RLast= 9.14D-03 DXNew= 6.4677D-01 2.7410D-02
 Trust test= 1.12D+00 RLast= 9.14D-03 DXMaxT set to 3.85D-01
 ITU=  1  1  1  0
     Eigenvalues ---    0.00636   0.00769   0.01658   0.01712   0.02600
     Eigenvalues ---    0.03864   0.04864   0.06580   0.06907   0.07123
     Eigenvalues ---    0.07552   0.08282   0.09346   0.10141   0.11177
     Eigenvalues ---    0.12859   0.16130   0.17712   0.20800   0.29387
     Eigenvalues ---    0.30232   0.31057   0.37163   0.43194   0.44631
     Eigenvalues ---    0.59122   0.68442   0.81872   1.02723   1.11585
     Eigenvalues ---    1.22548   1.26611   1.47984   1.57958   1.61307
     Eigenvalues ---    2.00335
 RFO step:  Lambda=-1.39527695D-06 EMin= 6.35589848D-03
 Quartic linear search produced a step of  0.14764.
 B after Tr=    -0.000136   -0.000051   -0.000027
         Rot=    1.000000    0.000001   -0.000006    0.000028 Ang=   0.00 deg.
 Variable       Old X    -DE/DX   Delta X   Delta X   Delta X     New X
                                 (Linear)    (Quad)   (Total)
    X1        5.44182  -0.00044   0.00045  -0.00205  -0.00177   5.44005
    Y1       -0.63981   0.00020  -0.00018  -0.00214  -0.00268  -0.64249
    Z1       -0.00034   0.00001  -0.00007  -0.00013  -0.00029  -0.00063
    X2        1.05446  -0.00048  -0.00022  -0.00009  -0.00043   1.05403
    Y2        0.40958   0.00013   0.00005   0.00134   0.00128   0.41087
    Z2       -0.00016   0.00001   0.00001   0.00004   0.00001  -0.00015
    X3       -0.65276   0.00028  -0.00017  -0.00006  -0.00023  -0.65299
    Y3        2.41965   0.00003   0.00025   0.00093   0.00117   2.42081
    Z3       -0.00013   0.00000   0.00000   0.00008   0.00006  -0.00007
    X4        0.15561   0.00007   0.00003   0.00046   0.00024   0.15585
    Y4       -2.07507   0.00001   0.00008   0.00111   0.00112  -2.07395
    Z4       -0.00015   0.00000   0.00001   0.00010   0.00009  -0.00006
    X5       -3.23685  -0.00005  -0.00024  -0.00013  -0.00040  -3.23725
    Y5        1.96260  -0.00008   0.00019  -0.00033  -0.00002   1.96259
    Z5       -0.00001  -0.00000  -0.00000  -0.00003  -0.00003  -0.00003
    X6       -2.42193   0.00005   0.00019   0.00048   0.00040  -2.42153
    Y6       -2.52973  -0.00008   0.00012  -0.00008   0.00013  -2.52961
    Z6       -0.00003  -0.00000   0.00000   0.00004   0.00005   0.00001
    X7       -4.11853  -0.00000   0.00013   0.00017   0.00013  -4.11839
    Y7       -0.51274   0.00009   0.00013  -0.00048  -0.00017  -0.51291
    Z7        0.00004   0.00000  -0.00001  -0.00006  -0.00004   0.00001
    X8        3.79530   0.00068   0.00022   0.00051   0.00065   3.79594
    Y8        0.94278  -0.00032  -0.00050   0.00004  -0.00073   0.94206
    Z8       -0.00016  -0.00003   0.00004  -0.00019  -0.00023  -0.00039
    X9        0.05693  -0.00005  -0.00035  -0.00107  -0.00131   0.05562
    Y9        4.34183   0.00004   0.00031   0.00129   0.00154   4.34337
    Z9       -0.00018   0.00000  -0.00000   0.00011   0.00007  -0.00011
   X10        1.50738   0.00001   0.00001   0.00107   0.00074   1.50812
   Y10       -3.60989   0.00001   0.00012   0.00163   0.00161  -3.60828
   Z10       -0.00020   0.00000   0.00002   0.00016   0.00014  -0.00006
   X11       -4.55784  -0.00003  -0.00055  -0.00096  -0.00144  -4.55929
   Y11        3.52426  -0.00002  -0.00004  -0.00104  -0.00088   3.52338
   Z11        0.00004  -0.00000  -0.00001  -0.00010  -0.00008  -0.00004
   X12       -3.12287  -0.00002   0.00020   0.00057   0.00038  -3.12249
   Y12       -4.45172   0.00001   0.00015  -0.00012   0.00016  -4.45156
   Z12        0.00001  -0.00000   0.00000   0.00004   0.00006   0.00007
   X13       -6.13236  -0.00001   0.00019   0.00028   0.00029  -6.13207
   Y13       -0.87586  -0.00006  -0.00015  -0.00135  -0.00120  -0.87706
   Z13        0.00014   0.00000  -0.00001  -0.00015  -0.00011   0.00003
   X14        4.28098  -0.00001   0.00011   0.00262   0.00276   4.28375
   Y14        2.98365   0.00005  -0.00053  -0.00053  -0.00134   2.98231
   Z14       -0.00037   0.00001   0.00001   0.00037   0.00029  -0.00007
         Item               Value     Threshold  Converged?
 Maximum Force            0.000683     0.000002     NO 
 RMS     Force            0.000167     0.000001     NO 
 Maximum Displacement     0.002763     0.000006     NO 
 RMS     Displacement     0.000948     0.000004     NO 
 Predicted change in Energy=-7.001767D-07
 Lowest energy point so far.  Saving SCF results.
 GradGradGradGradGradGradGradGradGradGradGradGradGradGradGradGradGradGrad

 Leave Link  103 at Wed Feb  7 14:30:01 2024, MaxMem=  6710886400 cpu:               0.3 elap:               0.0
 (Enter /tmpu/scunam/7/gaussian-2016.03/g1/g16/l202.exe)
                          Input orientation:                          
 ---------------------------------------------------------------------
 Center     Atomic      Atomic             Coordinates (Angstroms)
 Number     Number       Type             X           Y           Z
 ---------------------------------------------------------------------
      1          8           0        2.878750   -0.339990   -0.000334
      2          6           0        0.557769    0.217422   -0.000081
      3          6           0       -0.345546    1.281040   -0.000039
      4          6           0        0.082471   -1.097485   -0.000033
      5          6           0       -1.713078    1.038556   -0.000017
      6          6           0       -1.281418   -1.338611    0.000007
      7          6           0       -2.179359   -0.271418    0.000003
      8          6           0        2.008726    0.498515   -0.000208
      9          1           0        0.029433    2.298414   -0.000057
     10          1           0        0.798064   -1.909421   -0.000033
     11          1           0       -2.412671    1.864495   -0.000022
     12          1           0       -1.652349   -2.355666    0.000037
     13          1           0       -3.244952   -0.464119    0.000017
     14          1           0        2.266861    1.578169   -0.000039
 ---------------------------------------------------------------------
                    Distance matrix (angstroms):
                    1          2          3          4          5
     1  O    0.000000
     2  C    2.386977   0.000000
     3  C    3.608853   1.395443   0.000000
     4  C    2.897062   1.398173   2.416729   0.000000
     5  C    4.794295   2.414748   1.388863   2.790460   0.000000
     6  C    4.278345   2.409118   2.781803   1.385040   2.416041
     7  C    5.058573   2.780438   2.402706   2.407958   1.390486
     8  C    1.208318   1.477934   2.480915   2.501534   3.760780
     9  H    3.883270   2.147014   1.084278   3.396313   2.150252
    10  H    2.606217   2.140374   3.389230   1.082272   3.872518
    11  H    5.732267   3.396523   2.147889   3.872862   1.082407
    12  H    4.959214   3.391962   3.864371   2.143040   3.394766
    13  H    6.124959   3.863313   3.384100   3.387166   2.145850
    14  H    2.013391   2.184634   2.629250   3.454082   4.016353
                    6          7          8          9         10
     6  C    0.000000
     7  C    1.394704   0.000000
     8  C    3.768299   4.258268   0.000000
     9  H    3.866042   3.388627   2.675302   0.000000
    10  H    2.156402   3.398249   2.695154   4.277460   0.000000
    11  H    3.397001   2.148617   4.627597   2.480354   4.954922
    12  H    1.082586   2.149845   4.642178   4.948622   2.490715
    13  H    2.149465   1.082876   5.341141   4.284061   4.293584
    14  H    4.593244   4.815583   1.110085   2.350497   3.784263
                   11         12         13         14
    11  H    0.000000
    12  H    4.288105   0.000000
    13  H    2.472880   2.472717   0.000000
    14  H    4.688283   5.552952   5.878011   0.000000
 Stoichiometry    C7H6O
 Framework group  C1[X(C7H6O)]
 Deg. of freedom    36
 Full point group                 C1      NOp   1
 RotChk:  IX=2 Diff= 4.40D-04
 Largest Abelian subgroup         C1      NOp   1
 Largest concise Abelian subgroup C1      NOp   1
                         Standard orientation:                         
 ---------------------------------------------------------------------
 Center     Atomic      Atomic             Coordinates (Angstroms)
 Number     Number       Type             X           Y           Z
 ---------------------------------------------------------------------
      1          8           0       -2.844333   -0.391017    0.000245
      2          6           0       -0.532741    0.204127   -0.000008
      3          6           0        0.353130    1.282318   -0.000050
      4          6           0       -0.036087   -1.102863   -0.000056
      5          6           0        1.724430    1.062143   -0.000072
      6          6           0        1.331549   -1.321740   -0.000096
      7          6           0        2.211987   -0.240062   -0.000092
      8          6           0       -1.988083    0.461548    0.000119
      9          1           0       -0.038371    2.293449   -0.000032
     10          1           0       -0.738359   -1.926347   -0.000056
     11          1           0        2.410477    1.899367   -0.000067
     12          1           0        1.718998   -2.332619   -0.000126
     13          1           0        3.280577   -0.415381   -0.000106
     14          1           0       -2.263770    1.536855   -0.000050
 ---------------------------------------------------------------------
 Rotational constants (GHZ):           5.2813571           1.5661875           1.2079652
 Leave Link  202 at Wed Feb  7 14:30:01 2024, MaxMem=  6710886400 cpu:               0.3 elap:               0.0
 (Enter /tmpu/scunam/7/gaussian-2016.03/g1/g16/l301.exe)
 Standard basis: def2TZVP (5D, 7F)
 Ernie: Thresh=  0.10000D-02 Tol=  0.10000D-05 Strict=F.
 There are   324 symmetry adapted cartesian basis functions of A   symmetry.
 There are   284 symmetry adapted basis functions of A   symmetry.
   284 basis functions,   456 primitive gaussians,   324 cartesian basis functions
    28 alpha electrons       28 beta electrons
       nuclear repulsion energy       321.6852888643 Hartrees.
 IExCor=  402 DFT=T Ex+Corr=B3LYP ExCW=0 ScaHFX=  0.200000
 ScaDFX=  0.800000  0.720000  1.000000  0.810000 ScalE2=  1.000000  1.000000
 IRadAn=      5 IRanWt=     -1 IRanGd=            0 ICorTp=0 IEmpDi=  4
 NAtoms=   14 NActive=   14 NUniq=   14 SFac= 1.00D+00 NAtFMM=   60 NAOKFM=F Big=F
 Integral buffers will be    131072 words long.
 Raffenetti 2 integral format.
 Two-electron integral symmetry is turned on.
 Leave Link  301 at Wed Feb  7 14:30:01 2024, MaxMem=  6710886400 cpu:               0.9 elap:               0.1
 (Enter /tmpu/scunam/7/gaussian-2016.03/g1/g16/l302.exe)
 NPDir=0 NMtPBC=     1 NCelOv=     1 NCel=       1 NClECP=     1 NCelD=      1
         NCelK=      1 NCelE2=     1 NClLst=     1 CellRange=     0.0.
 One-electron integrals computed using PRISM.
 One-electron integral symmetry used in STVInt
   1 Symmetry operations used in ECPInt.
 ECPInt:  NShTT=    6328 NPrTT=   19500 LenC2=    6194 LenP2D=   15434.
 LDataN:  DoStor=T MaxTD1= 6 Len=  172
 NBasis=   284 RedAO= T EigKep=  8.80D-06  NBF=   284
 NBsUse=   284 1.00D-06 EigRej= -1.00D+00 NBFU=   284
 Precomputing XC quadrature grid using
 IXCGrd= 4 IRadAn=           5 IRanWt=          -1 IRanGd=           0 AccXCQ= 0.00D+00.
 Generated NRdTot=       0 NPtTot=           0 NUsed=           0 NTot=          32
 NSgBfM=   323   323   323   323   323 MxSgAt=    14 MxSgA2=    14.
 Leave Link  302 at Wed Feb  7 14:30:01 2024, MaxMem=  6710886400 cpu:               4.6 elap:               0.3
 (Enter /tmpu/scunam/7/gaussian-2016.03/g1/g16/l303.exe)
 DipDrv:  MaxL=1.
 Leave Link  303 at Wed Feb  7 14:30:01 2024, MaxMem=  6710886400 cpu:               0.6 elap:               0.1
 (Enter /tmpu/scunam/7/gaussian-2016.03/g1/g16/l401.exe)
 Initial guess from the checkpoint file:  "Benzaldehyde.chk"
 B after Tr=    -0.000000    0.000000   -0.000000
         Rot=    1.000000   -0.000001   -0.000012    0.000092 Ang=  -0.01 deg.
 Guess basis will be translated and rotated to current coordinates.
 JPrj=2 DoOrth=T DoCkMO=T.
 Leave Link  401 at Wed Feb  7 14:30:01 2024, MaxMem=  6710886400 cpu:               2.5 elap:               0.2
 (Enter /tmpu/scunam/7/gaussian-2016.03/g1/g16/l502.exe)
 Integral symmetry usage will be decided dynamically.
 Closed shell SCF:
 Using DIIS extrapolation, IDIIS=  1040.
 NGot=  6710886400 LenX=  6710668346 LenY=  6710562929
 Requested convergence on RMS density matrix=1.00D-08 within1024 cycles.
 Requested convergence on MAX density matrix=1.00D-06.
 Requested convergence on             energy=1.00D-06.
 No special actions if energy rises.
 Fock matrices will be formed incrementally for  20 cycles.

 Cycle   1  Pass 1  IDiag  1:
 FoFJK:  IHMeth= 1 ICntrl=       0 DoSepK=F KAlg= 0 I1Cent=           0 FoldK=F
 IRaf= 950000000 NMat=       1 IRICut=       1 DoRegI=T DoRafI=F ISym2E= 0 IDoP0=0 IntGTp=1.
 FoFCou: FMM=F IPFlag=           0 FMFlag=      100000 FMFlg1=           0
         NFxFlg=           0 DoJE=F BraDBF=F KetDBF=F FulRan=T
         wScrn=  0.000000 ICntrl=         0 IOpCl=  0 I1Cent=           0 NGrid=           0
         NMat0=    1 NMatS0=      1 NMatT0=    0 NMatD0=    1 NMtDS0=    0 NMtDT0=    0
 Symmetry not used in FoFCou.
 E= -345.708111609568    
 DIIS: error= 4.99D-05 at cycle   1 NSaved=   1.
 NSaved= 1 IEnMin= 1 EnMin= -345.708111609568     IErMin= 1 ErrMin= 4.99D-05
 ErrMax= 4.99D-05  0.00D+00 EMaxC= 1.00D-01 BMatC= 1.53D-06 BMatP= 1.53D-06
 IDIUse=1 WtCom= 1.00D+00 WtEn= 0.00D+00
 Coeff-Com:  0.100D+01
 Coeff:      0.100D+01
 Gap=     0.750 Goal=   None    Shift=    0.000
 RMSDP=7.89D-06 MaxDP=5.19D-04              OVMax= 3.23D-04

 Cycle   2  Pass 1  IDiag  1:
 RMSU=  7.79D-06    CP:  1.00D+00
 E= -345.708112914599     Delta-E=       -0.000001305031 Rises=F Damp=F
 DIIS: error= 2.53D-05 at cycle   2 NSaved=   2.
 NSaved= 2 IEnMin= 2 EnMin= -345.708112914599     IErMin= 2 ErrMin= 2.53D-05
 ErrMax= 2.53D-05  0.00D+00 EMaxC= 1.00D-01 BMatC= 1.16D-07 BMatP= 1.53D-06
 IDIUse=1 WtCom= 1.00D+00 WtEn= 0.00D+00
 Coeff-Com:  0.622D-01 0.938D+00
 Coeff:      0.622D-01 0.938D+00
 Gap=     0.190 Goal=   None    Shift=    0.000
 RMSDP=4.98D-06 MaxDP=6.05D-04 DE=-1.31D-06 OVMax= 2.31D-04

 Cycle   3  Pass 1  IDiag  1:
 RMSU=  4.33D-06    CP:  1.00D+00  7.52D-01
 E= -345.708112689916     Delta-E=        0.000000224683 Rises=F Damp=F
 DIIS: error= 4.72D-05 at cycle   3 NSaved=   3.
 NSaved= 3 IEnMin= 2 EnMin= -345.708112914599     IErMin= 2 ErrMin= 2.53D-05
 ErrMax= 4.72D-05  0.00D+00 EMaxC= 1.00D-01 BMatC= 4.24D-07 BMatP= 1.16D-07
 IDIUse=1 WtCom= 1.00D+00 WtEn= 0.00D+00
 Coeff-Com: -0.290D-01 0.677D+00 0.352D+00
 Coeff:     -0.290D-01 0.677D+00 0.352D+00
 Gap=     0.191 Goal=   None    Shift=    0.000
 RMSDP=3.78D-06 MaxDP=4.77D-04 DE= 2.25D-07 OVMax= 1.70D-04

 Cycle   4  Pass 1  IDiag  1:
 RMSU=  4.54D-07    CP:  1.00D+00  9.73D-01  2.81D-01
 E= -345.708112996492     Delta-E=       -0.000000306577 Rises=F Damp=F
 DIIS: error= 4.98D-06 at cycle   4 NSaved=   4.
 NSaved= 4 IEnMin= 4 EnMin= -345.708112996492     IErMin= 4 ErrMin= 4.98D-06
 ErrMax= 4.98D-06  0.00D+00 EMaxC= 1.00D-01 BMatC= 3.10D-09 BMatP= 1.16D-07
 IDIUse=1 WtCom= 1.00D+00 WtEn= 0.00D+00
 Coeff-Com: -0.120D-01 0.232D+00 0.151D+00 0.630D+00
 Coeff:     -0.120D-01 0.232D+00 0.151D+00 0.630D+00
 Gap=     0.190 Goal=   None    Shift=    0.000
 RMSDP=2.13D-07 MaxDP=1.46D-05 DE=-3.07D-07 OVMax= 2.87D-05

 Cycle   5  Pass 1  IDiag  1:
 RMSU=  1.56D-07    CP:  1.00D+00  9.71D-01  2.97D-01  7.30D-01
 E= -345.708112998481     Delta-E=       -0.000000001989 Rises=F Damp=F
 DIIS: error= 2.52D-06 at cycle   5 NSaved=   5.
 NSaved= 5 IEnMin= 5 EnMin= -345.708112998481     IErMin= 5 ErrMin= 2.52D-06
 ErrMax= 2.52D-06  0.00D+00 EMaxC= 1.00D-01 BMatC= 7.32D-10 BMatP= 3.10D-09
 IDIUse=1 WtCom= 1.00D+00 WtEn= 0.00D+00
 Coeff-Com: -0.434D-02 0.731D-01 0.568D-01 0.383D+00 0.492D+00
 Coeff:     -0.434D-02 0.731D-01 0.568D-01 0.383D+00 0.492D+00
 Gap=     0.190 Goal=   None    Shift=    0.000
 RMSDP=8.10D-08 MaxDP=3.76D-06 DE=-1.99D-09 OVMax= 1.36D-05

 Cycle   6  Pass 1  IDiag  1:
 RMSU=  5.97D-08    CP:  1.00D+00  9.73D-01  2.96D-01  8.00D-01  7.42D-01
 E= -345.708112999195     Delta-E=       -0.000000000713 Rises=F Damp=F
 DIIS: error= 5.30D-07 at cycle   6 NSaved=   6.
 NSaved= 6 IEnMin= 6 EnMin= -345.708112999195     IErMin= 6 ErrMin= 5.30D-07
 ErrMax= 5.30D-07  0.00D+00 EMaxC= 1.00D-01 BMatC= 3.43D-11 BMatP= 7.32D-10
 IDIUse=1 WtCom= 1.00D+00 WtEn= 0.00D+00
 Coeff-Com: -0.106D-02 0.144D-01 0.143D-01 0.142D+00 0.245D+00 0.585D+00
 Coeff:     -0.106D-02 0.144D-01 0.143D-01 0.142D+00 0.245D+00 0.585D+00
 Gap=     0.190 Goal=   None    Shift=    0.000
 RMSDP=2.42D-08 MaxDP=1.20D-06 DE=-7.13D-10 OVMax= 3.60D-06

 Cycle   7  Pass 1  IDiag  1:
 RMSU=  1.67D-08    CP:  1.00D+00  9.72D-01  2.98D-01  7.96D-01  7.80D-01
                    CP:  7.76D-01
 E= -345.708112999221     Delta-E=       -0.000000000026 Rises=F Damp=F
 DIIS: error= 2.07D-07 at cycle   7 NSaved=   7.
 NSaved= 7 IEnMin= 7 EnMin= -345.708112999221     IErMin= 7 ErrMin= 2.07D-07
 ErrMax= 2.07D-07  0.00D+00 EMaxC= 1.00D-01 BMatC= 7.23D-12 BMatP= 3.43D-11
 IDIUse=1 WtCom= 1.00D+00 WtEn= 0.00D+00
 Coeff-Com:  0.467D-05-0.291D-02-0.469D-03 0.261D-01 0.698D-01 0.359D+00
 Coeff-Com:  0.549D+00
 Coeff:      0.467D-05-0.291D-02-0.469D-03 0.261D-01 0.698D-01 0.359D+00
 Coeff:      0.549D+00
 Gap=     0.190 Goal=   None    Shift=    0.000
 RMSDP=9.39D-09 MaxDP=6.84D-07 DE=-2.59D-11 OVMax= 1.45D-06

 SCF Done:  E(RB3LYP) =  -345.708112999     A.U. after    7 cycles
            NFock=  7  Conv=0.94D-08     -V/T= 2.0050
 KE= 3.440044306069D+02 PE=-1.448115008476D+03 EE= 4.367171760056D+02
 Leave Link  502 at Wed Feb  7 14:30:20 2024, MaxMem=  6710886400 cpu:             305.4 elap:              19.1
 (Enter /tmpu/scunam/7/gaussian-2016.03/g1/g16/l701.exe)
 ... and contract with generalized density number  0.
 Compute integral first derivatives.
   1 Symmetry operations used in ECPInt.
 ECPInt:  NShTT=    6328 NPrTT=   19500 LenC2=    6194 LenP2D=   15434.
 LDataN:  DoStor=T MaxTD1= 7 Len=  274
 Leave Link  701 at Wed Feb  7 14:30:21 2024, MaxMem=  6710886400 cpu:               3.9 elap:               0.3
 (Enter /tmpu/scunam/7/gaussian-2016.03/g1/g16/l702.exe)
 L702 exits ... SP integral derivatives will be done elsewhere.
 Leave Link  702 at Wed Feb  7 14:30:21 2024, MaxMem=  6710886400 cpu:               0.3 elap:               0.0
 (Enter /tmpu/scunam/7/gaussian-2016.03/g1/g16/l703.exe)
 Integral derivatives from FoFJK, PRISM(SPDF).
 Compute integral first derivatives, UseDBF=F ICtDFT=           0.
 Calling FoFJK, ICntrl=      2127 FMM=F ISym2X=0 I1Cent= 0 IOpClX= 0 NMat=1 NMatS=1 NMatT=0.
 FoFJK:  IHMeth= 1 ICntrl=    2127 DoSepK=F KAlg= 0 I1Cent=           0 FoldK=F
 IRaf=         0 NMat=       1 IRICut=       1 DoRegI=T DoRafI=F ISym2E= 0 IDoP0=0 IntGTp=1.
 FoFCou: FMM=F IPFlag=           0 FMFlag=      100000 FMFlg1=         800
         NFxFlg=           0 DoJE=F BraDBF=F KetDBF=F FulRan=T
         wScrn=  0.000000 ICntrl=      2127 IOpCl=  0 I1Cent=           0 NGrid=           0
         NMat0=    1 NMatS0=      1 NMatT0=    0 NMatD0=    1 NMtDS0=    0 NMtDT0=    0
 Symmetry not used in FoFCou.
 Leave Link  703 at Wed Feb  7 14:30:32 2024, MaxMem=  6710886400 cpu:             183.0 elap:              11.5
 (Enter /tmpu/scunam/7/gaussian-2016.03/g1/g16/l716.exe)
 Dipole        = 1.27376780D+00 4.76445849D-01-1.37459462D-04
 ***** Axes restored to original set *****
 -------------------------------------------------------------------
 Center     Atomic                   Forces (Hartrees/Bohr)
 Number     Number              X              Y              Z
 -------------------------------------------------------------------
      1        8          -0.000174693    0.000051757   -0.000005060
      2        6          -0.000225419    0.000098822   -0.000003429
      3        6           0.000061575   -0.000013449   -0.000002837
      4        6          -0.000011613   -0.000052663   -0.000001718
      5        6          -0.000011757   -0.000034816    0.000000991
      6        6           0.000079561   -0.000027181    0.000001056
      7        6          -0.000004976    0.000059549   -0.000000115
      8        6           0.000276847   -0.000189918    0.000018044
      9        1          -0.000015368    0.000031839   -0.000000319
     10        1           0.000017044    0.000009331   -0.000001076
     11        1           0.000007270    0.000003878    0.000000728
     12        1           0.000010910   -0.000011839    0.000000129
     13        1          -0.000010318   -0.000011205    0.000000086
     14        1           0.000000938    0.000085893   -0.000006482
 -------------------------------------------------------------------
 Cartesian Forces:  Max     0.000276847 RMS     0.000074856
 Leave Link  716 at Wed Feb  7 14:30:32 2024, MaxMem=  6710886400 cpu:               0.3 elap:               0.0
 (Enter /tmpu/scunam/7/gaussian-2016.03/g1/g16/l103.exe)

 GradGradGradGradGradGradGradGradGradGradGradGradGradGradGradGradGradGrad
 Berny optimization.
 Search for a local minimum.
 Step number   5 out of a maximum of  100
 All quantities printed in internal units (Hartrees-Bohrs-Radians)
 Update second derivatives using D2CorN and points    1    2    3    4    5

 DE= -1.05D-06 DEPred=-7.00D-07 R= 1.49D+00
 TightC=F SS=  1.41D+00  RLast= 6.14D-03 DXNew= 6.4677D-01 1.8422D-02
 Trust test= 1.49D+00 RLast= 6.14D-03 DXMaxT set to 3.85D-01
 ITU=  1  1  1  1  0
     Eigenvalues ---    0.00631   0.00767   0.00947   0.01659   0.02600
     Eigenvalues ---    0.03865   0.04895   0.06581   0.06915   0.07116
     Eigenvalues ---    0.07531   0.08284   0.09607   0.10118   0.11177
     Eigenvalues ---    0.12931   0.16136   0.17808   0.20965   0.29389
     Eigenvalues ---    0.30232   0.31057   0.37082   0.43188   0.44631
     Eigenvalues ---    0.59007   0.68435   0.81808   1.02684   1.11448
     Eigenvalues ---    1.22543   1.26419   1.47856   1.57963   1.61218
     Eigenvalues ---    1.98386
 RFO step:  Lambda=-2.51887808D-07 EMin= 6.31358397D-03
 Quartic linear search produced a step of  0.78078.
 B after Tr=    -0.000089   -0.000067    0.000001
         Rot=    1.000000   -0.000003   -0.000001    0.000013 Ang=  -0.00 deg.
 Variable       Old X    -DE/DX   Delta X   Delta X   Delta X     New X
                                 (Linear)    (Quad)   (Total)
    X1        5.44005  -0.00017  -0.00138  -0.00059  -0.00208   5.43797
    Y1       -0.64249   0.00005  -0.00209  -0.00092  -0.00321  -0.64570
    Z1       -0.00063  -0.00001  -0.00022  -0.00031  -0.00055  -0.00118
    X2        1.05403  -0.00023  -0.00033  -0.00023  -0.00064   1.05339
    Y2        0.41087   0.00010   0.00100   0.00039   0.00130   0.41216
    Z2       -0.00015  -0.00000   0.00001   0.00011   0.00012  -0.00004
    X3       -0.65299   0.00006  -0.00018  -0.00040  -0.00060  -0.65359
    Y3        2.42081  -0.00001   0.00091   0.00024   0.00110   2.42192
    Z3       -0.00007  -0.00000   0.00005  -0.00005   0.00002  -0.00006
    X4        0.15585  -0.00001   0.00018   0.00024   0.00028   0.15613
    Y4       -2.07395  -0.00005   0.00088   0.00021   0.00101  -2.07294
    Z4       -0.00006  -0.00000   0.00007   0.00001   0.00007   0.00001
    X5       -3.23725  -0.00001  -0.00031  -0.00020  -0.00054  -3.23779
    Y5        1.96259  -0.00003  -0.00001   0.00008   0.00009   1.96267
    Z5       -0.00003   0.00000  -0.00002  -0.00005  -0.00004  -0.00008
    X6       -2.42153   0.00008   0.00031   0.00047   0.00062  -2.42091
    Y6       -2.52961  -0.00003   0.00010   0.00000   0.00010  -2.52951
    Z6        0.00001   0.00000   0.00004   0.00002   0.00005   0.00006
    X7       -4.11839  -0.00000   0.00010   0.00014   0.00014  -4.11825
    Y7       -0.51291   0.00006  -0.00013  -0.00002  -0.00011  -0.51302
    Z7        0.00001  -0.00000  -0.00003  -0.00002  -0.00004  -0.00003
    X8        3.79594   0.00028   0.00050  -0.00010   0.00034   3.79629
    Y8        0.94206  -0.00019  -0.00057  -0.00025  -0.00098   0.94108
    Z8       -0.00039   0.00002  -0.00018   0.00039   0.00021  -0.00018
    X9        0.05562  -0.00002  -0.00102  -0.00065  -0.00164   0.05398
    Y9        4.34337   0.00003   0.00120   0.00041   0.00154   4.34492
    Z9       -0.00011  -0.00000   0.00006  -0.00009  -0.00000  -0.00011
   X10        1.50812   0.00002   0.00058   0.00076   0.00116   1.50928
   Y10       -3.60828   0.00001   0.00126   0.00062   0.00178  -3.60651
   Z10       -0.00006  -0.00000   0.00011   0.00001   0.00009   0.00003
   X11       -4.55929   0.00001  -0.00113  -0.00000  -0.00113  -4.56041
   Y11        3.52338   0.00000  -0.00069   0.00024  -0.00040   3.52299
   Z11       -0.00004   0.00000  -0.00006  -0.00007  -0.00010  -0.00014
   X12       -3.12249   0.00001   0.00030   0.00112   0.00121  -3.12127
   Y12       -4.45156  -0.00001   0.00012  -0.00026  -0.00012  -4.45168
   Z12        0.00007   0.00000   0.00005   0.00005   0.00008   0.00015
   X13       -6.13207  -0.00001   0.00022   0.00012   0.00023  -6.13184
   Y13       -0.87706  -0.00001  -0.00094   0.00006  -0.00078  -0.87784
   Z13        0.00003   0.00000  -0.00009  -0.00003  -0.00011  -0.00007
   X14        4.28375   0.00000   0.00216   0.00050   0.00265   4.28640
   Y14        2.98231   0.00009  -0.00105  -0.00008  -0.00131   2.98099
   Z14       -0.00007  -0.00001   0.00023  -0.00003   0.00021   0.00013
         Item               Value     Threshold  Converged?
 Maximum Force            0.000277     0.000002     NO 
 RMS     Force            0.000075     0.000001     NO 
 Maximum Displacement     0.003215     0.000006     NO 
 RMS     Displacement     0.001019     0.000004     NO 
 Predicted change in Energy=-3.110312D-07
 Lowest energy point so far.  Saving SCF results.
 GradGradGradGradGradGradGradGradGradGradGradGradGradGradGradGradGradGrad

 Leave Link  103 at Wed Feb  7 14:30:32 2024, MaxMem=  6710886400 cpu:               0.3 elap:               0.0
 (Enter /tmpu/scunam/7/gaussian-2016.03/g1/g16/l202.exe)
                          Input orientation:                          
 ---------------------------------------------------------------------
 Center     Atomic      Atomic             Coordinates (Angstroms)
 Number     Number       Type             X           Y           Z
 ---------------------------------------------------------------------
      1          8           0        2.877648   -0.341692   -0.000627
      2          6           0        0.557431    0.218108   -0.000019
      3          6           0       -0.345865    1.281624   -0.000030
      4          6           0        0.082618   -1.096950    0.000004
      5          6           0       -1.713365    1.038602   -0.000040
      6          6           0       -1.281089   -1.338558    0.000031
      7          6           0       -2.179283   -0.271477   -0.000018
      8          6           0        2.008908    0.497997   -0.000095
      9          1           0        0.028563    2.299231   -0.000058
     10          1           0        0.798677   -1.908481    0.000017
     11          1           0       -2.413267    1.864284   -0.000074
     12          1           0       -1.651707   -2.355730    0.000077
     13          1           0       -3.244831   -0.464533   -0.000040
     14          1           0        2.268263    1.577474    0.000070
 ---------------------------------------------------------------------
                    Distance matrix (angstroms):
                    1          2          3          4          5
     1  O    0.000000
     2  C    2.386793   0.000000
     3  C    3.609181   1.395353   0.000000
     4  C    2.895273   1.398151   2.416860   0.000000
     5  C    4.794018   2.414482   1.388926   2.790365   0.000000
     6  C    4.276545   2.409017   2.782085   1.384945   2.416144
     7  C    5.057419   2.780162   2.402821   2.407822   1.390463
     8  C    1.208216   1.478216   2.481739   2.500889   3.761325
     9  H    3.884811   2.147271   1.084306   3.396611   2.150232
    10  H    2.603257   2.140229   3.389210   1.082276   3.872421
    11  H    5.732374   3.396313   2.147939   3.872771   1.082411
    12  H    4.956955   3.391892   3.864656   2.142991   3.394892
    13  H    6.123711   3.863055   3.384239   3.387015   2.145881
    14  H    2.013591   2.185137   2.630817   3.453924   4.017928
                    6          7          8          9         10
     6  C    0.000000
     7  C    1.394781   0.000000
     8  C    3.767892   4.258290   0.000000
     9  H    3.866354   3.388676   2.676978   0.000000
    10  H    2.156441   3.398239   2.693658   4.277605   0.000000
    11  H    3.397061   2.148540   4.628430   2.480264   4.954829
    12  H    1.082588   2.149988   4.641536   4.948935   2.490866
    13  H    2.149466   1.082896   5.341183   4.284098   4.293593
    14  H    4.593598   4.816565   1.110197   2.353124   3.783063
                   11         12         13         14
    11  H    0.000000
    12  H    4.288180   0.000000
    13  H    2.472830   2.472786   0.000000
    14  H    4.690308   5.553041   5.879116   0.000000
 Stoichiometry    C7H6O
 Framework group  C1[X(C7H6O)]
 Deg. of freedom    36
 Full point group                 C1      NOp   1
 RotChk:  IX=2 Diff= 6.17D-04
 Largest Abelian subgroup         C1      NOp   1
 Largest concise Abelian subgroup C1      NOp   1
                         Standard orientation:                         
 ---------------------------------------------------------------------
 Center     Atomic      Atomic             Coordinates (Angstroms)
 Number     Number       Type             X           Y           Z
 ---------------------------------------------------------------------
      1          8           0       -2.843533   -0.391369    0.000519
      2          6           0       -0.532482    0.205143   -0.000089
      3          6           0        0.353841    1.282845   -0.000077
      4          6           0       -0.036882   -1.102223   -0.000112
      5          6           0        1.725021    1.061532   -0.000068
      6          6           0        1.330485   -1.322182   -0.000138
      7          6           0        2.211650   -0.240996   -0.000090
      8          6           0       -1.988213    0.461986   -0.000012
      9          1           0       -0.036672    2.294388   -0.000049
     10          1           0       -0.739985   -1.925003   -0.000124
     11          1           0        2.411746    1.898206   -0.000034
     12          1           0        1.717181   -2.333351   -0.000185
     13          1           0        3.280124   -0.417136   -0.000068
     14          1           0       -2.264649    1.537216   -0.000178
 ---------------------------------------------------------------------
 Rotational constants (GHZ):           5.2803589           1.5666113           1.2081650
 Leave Link  202 at Wed Feb  7 14:30:32 2024, MaxMem=  6710886400 cpu:               0.1 elap:               0.0
 (Enter /tmpu/scunam/7/gaussian-2016.03/g1/g16/l301.exe)
 Standard basis: def2TZVP (5D, 7F)
 Ernie: Thresh=  0.10000D-02 Tol=  0.10000D-05 Strict=F.
 There are   324 symmetry adapted cartesian basis functions of A   symmetry.
 There are   284 symmetry adapted basis functions of A   symmetry.
   284 basis functions,   456 primitive gaussians,   324 cartesian basis functions
    28 alpha electrons       28 beta electrons
       nuclear repulsion energy       321.6940771660 Hartrees.
 IExCor=  402 DFT=T Ex+Corr=B3LYP ExCW=0 ScaHFX=  0.200000
 ScaDFX=  0.800000  0.720000  1.000000  0.810000 ScalE2=  1.000000  1.000000
 IRadAn=      5 IRanWt=     -1 IRanGd=            0 ICorTp=0 IEmpDi=  4
 NAtoms=   14 NActive=   14 NUniq=   14 SFac= 1.00D+00 NAtFMM=   60 NAOKFM=F Big=F
 Integral buffers will be    131072 words long.
 Raffenetti 2 integral format.
 Two-electron integral symmetry is turned on.
 Leave Link  301 at Wed Feb  7 14:30:32 2024, MaxMem=  6710886400 cpu:               0.8 elap:               0.1
 (Enter /tmpu/scunam/7/gaussian-2016.03/g1/g16/l302.exe)
 NPDir=0 NMtPBC=     1 NCelOv=     1 NCel=       1 NClECP=     1 NCelD=      1
         NCelK=      1 NCelE2=     1 NClLst=     1 CellRange=     0.0.
 One-electron integrals computed using PRISM.
 One-electron integral symmetry used in STVInt
   1 Symmetry operations used in ECPInt.
 ECPInt:  NShTT=    6328 NPrTT=   19500 LenC2=    6194 LenP2D=   15434.
 LDataN:  DoStor=T MaxTD1= 6 Len=  172
 NBasis=   284 RedAO= T EigKep=  8.80D-06  NBF=   284
 NBsUse=   284 1.00D-06 EigRej= -1.00D+00 NBFU=   284
 Precomputing XC quadrature grid using
 IXCGrd= 4 IRadAn=           5 IRanWt=          -1 IRanGd=           0 AccXCQ= 0.00D+00.
 Generated NRdTot=       0 NPtTot=           0 NUsed=           0 NTot=          32
 NSgBfM=   323   323   323   323   323 MxSgAt=    14 MxSgA2=    14.
 Leave Link  302 at Wed Feb  7 14:30:33 2024, MaxMem=  6710886400 cpu:               4.6 elap:               0.3
 (Enter /tmpu/scunam/7/gaussian-2016.03/g1/g16/l303.exe)
 DipDrv:  MaxL=1.
 Leave Link  303 at Wed Feb  7 14:30:33 2024, MaxMem=  6710886400 cpu:               0.6 elap:               0.1
 (Enter /tmpu/scunam/7/gaussian-2016.03/g1/g16/l401.exe)
 Initial guess from the checkpoint file:  "Benzaldehyde.chk"
 B after Tr=     0.000000    0.000000   -0.000000
         Rot=    1.000000    0.000006   -0.000012    0.000144 Ang=   0.02 deg.
 Guess basis will be translated and rotated to current coordinates.
 JPrj=2 DoOrth=T DoCkMO=T.
 Leave Link  401 at Wed Feb  7 14:30:33 2024, MaxMem=  6710886400 cpu:               2.5 elap:               0.2
 (Enter /tmpu/scunam/7/gaussian-2016.03/g1/g16/l502.exe)
 Integral symmetry usage will be decided dynamically.
 Closed shell SCF:
 Using DIIS extrapolation, IDIIS=  1040.
 NGot=  6710886400 LenX=  6710668346 LenY=  6710562929
 Requested convergence on RMS density matrix=1.00D-08 within1024 cycles.
 Requested convergence on MAX density matrix=1.00D-06.
 Requested convergence on             energy=1.00D-06.
 No special actions if energy rises.
 Fock matrices will be formed incrementally for  20 cycles.

 Cycle   1  Pass 1  IDiag  1:
 FoFJK:  IHMeth= 1 ICntrl=       0 DoSepK=F KAlg= 0 I1Cent=           0 FoldK=F
 IRaf= 950000000 NMat=       1 IRICut=       1 DoRegI=T DoRafI=F ISym2E= 0 IDoP0=0 IntGTp=1.
 FoFCou: FMM=F IPFlag=           0 FMFlag=      100000 FMFlg1=           0
         NFxFlg=           0 DoJE=F BraDBF=F KetDBF=F FulRan=T
         wScrn=  0.000000 ICntrl=         0 IOpCl=  0 I1Cent=           0 NGrid=           0
         NMat0=    1 NMatS0=      1 NMatT0=    0 NMatD0=    1 NMtDS0=    0 NMtDT0=    0
 Symmetry not used in FoFCou.
 E= -345.708111721011    
 DIIS: error= 5.28D-05 at cycle   1 NSaved=   1.
 NSaved= 1 IEnMin= 1 EnMin= -345.708111721011     IErMin= 1 ErrMin= 5.28D-05
 ErrMax= 5.28D-05  0.00D+00 EMaxC= 1.00D-01 BMatC= 1.71D-06 BMatP= 1.71D-06
 IDIUse=1 WtCom= 1.00D+00 WtEn= 0.00D+00
 Coeff-Com:  0.100D+01
 Coeff:      0.100D+01
 Gap=     0.750 Goal=   None    Shift=    0.000
 RMSDP=8.70D-06 MaxDP=3.64D-04              OVMax= 3.46D-04

 Cycle   2  Pass 1  IDiag  1:
 RMSU=  8.68D-06    CP:  1.00D+00
 E= -345.708113227627     Delta-E=       -0.000001506616 Rises=F Damp=F
 DIIS: error= 2.51D-05 at cycle   2 NSaved=   2.
 NSaved= 2 IEnMin= 2 EnMin= -345.708113227627     IErMin= 2 ErrMin= 2.51D-05
 ErrMax= 2.51D-05  0.00D+00 EMaxC= 1.00D-01 BMatC= 1.24D-07 BMatP= 1.71D-06
 IDIUse=1 WtCom= 1.00D+00 WtEn= 0.00D+00
 Coeff-Com:  0.523D-01 0.948D+00
 Coeff:      0.523D-01 0.948D+00
 Gap=     0.190 Goal=   None    Shift=    0.000
 RMSDP=5.07D-06 MaxDP=6.11D-04 DE=-1.51D-06 OVMax= 2.45D-04

 Cycle   3  Pass 1  IDiag  1:
 RMSU=  4.75D-06    CP:  1.00D+00  9.02D-01
 E= -345.708112966894     Delta-E=        0.000000260733 Rises=F Damp=F
 DIIS: error= 4.99D-05 at cycle   3 NSaved=   3.
 NSaved= 3 IEnMin= 2 EnMin= -345.708113227627     IErMin= 2 ErrMin= 2.51D-05
 ErrMax= 4.99D-05  0.00D+00 EMaxC= 1.00D-01 BMatC= 4.85D-07 BMatP= 1.24D-07
 IDIUse=1 WtCom= 1.00D+00 WtEn= 0.00D+00
 Coeff-Com: -0.326D-01 0.688D+00 0.345D+00
 Coeff:     -0.326D-01 0.688D+00 0.345D+00
 Gap=     0.191 Goal=   None    Shift=    0.000
 RMSDP=3.90D-06 MaxDP=4.90D-04 DE= 2.61D-07 OVMax= 1.76D-04

 Cycle   4  Pass 1  IDiag  1:
 RMSU=  4.48D-07    CP:  1.00D+00  1.02D+00  2.54D-01
 E= -345.708113318341     Delta-E=       -0.000000351447 Rises=F Damp=F
 DIIS: error= 4.06D-06 at cycle   4 NSaved=   4.
 NSaved= 4 IEnMin= 4 EnMin= -345.708113318341     IErMin= 4 ErrMin= 4.06D-06
 ErrMax= 4.06D-06  0.00D+00 EMaxC= 1.00D-01 BMatC= 2.21D-09 BMatP= 1.24D-07
 IDIUse=1 WtCom= 1.00D+00 WtEn= 0.00D+00
 Coeff-Com: -0.116D-01 0.220D+00 0.133D+00 0.659D+00
 Coeff:     -0.116D-01 0.220D+00 0.133D+00 0.659D+00
 Gap=     0.191 Goal=   None    Shift=    0.000
 RMSDP=2.22D-07 MaxDP=1.92D-05 DE=-3.51D-07 OVMax= 3.14D-05

 Cycle   5  Pass 1  IDiag  1:
 RMSU=  1.62D-07    CP:  1.00D+00  1.01D+00  2.75D-01  7.58D-01
 E= -345.708113319408     Delta-E=       -0.000000001066 Rises=F Damp=F
 DIIS: error= 3.33D-06 at cycle   5 NSaved=   5.
 NSaved= 5 IEnMin= 5 EnMin= -345.708113319408     IErMin= 5 ErrMin= 3.33D-06
 ErrMax= 3.33D-06  0.00D+00 EMaxC= 1.00D-01 BMatC= 9.15D-10 BMatP= 2.21D-09
 IDIUse=1 WtCom= 1.00D+00 WtEn= 0.00D+00
 Coeff-Com: -0.426D-02 0.723D-01 0.508D-01 0.428D+00 0.453D+00
 Coeff:     -0.426D-02 0.723D-01 0.508D-01 0.428D+00 0.453D+00
 Gap=     0.191 Goal=   None    Shift=    0.000
 RMSDP=9.91D-08 MaxDP=6.42D-06 DE=-1.07D-09 OVMax= 1.58D-05

 Cycle   6  Pass 1  IDiag  1:
 RMSU=  6.32D-08    CP:  1.00D+00  1.02D+00  2.68D-01  8.61D-01  7.23D-01
 E= -345.708113320365     Delta-E=       -0.000000000957 Rises=F Damp=F
 DIIS: error= 4.72D-07 at cycle   6 NSaved=   6.
 NSaved= 6 IEnMin= 6 EnMin= -345.708113320365     IErMin= 6 ErrMin= 4.72D-07
 ErrMax= 4.72D-07  0.00D+00 EMaxC= 1.00D-01 BMatC= 2.80D-11 BMatP= 9.15D-10
 IDIUse=1 WtCom= 1.00D+00 WtEn= 0.00D+00
 Coeff-Com: -0.756D-03 0.889D-02 0.903D-02 0.137D+00 0.206D+00 0.640D+00
 Coeff:     -0.756D-03 0.889D-02 0.903D-02 0.137D+00 0.206D+00 0.640D+00
 Gap=     0.191 Goal=   None    Shift=    0.000
 RMSDP=2.07D-08 MaxDP=6.65D-07 DE=-9.57D-10 OVMax= 3.27D-06

 Cycle   7  Pass 1  IDiag  1:
 RMSU=  1.42D-08    CP:  1.00D+00  1.02D+00  2.68D-01  8.61D-01  7.63D-01
                    CP:  7.85D-01
 E= -345.708113320388     Delta-E=       -0.000000000024 Rises=F Damp=F
 DIIS: error= 1.81D-07 at cycle   7 NSaved=   7.
 NSaved= 7 IEnMin= 7 EnMin= -345.708113320388     IErMin= 7 ErrMin= 1.81D-07
 ErrMax= 1.81D-07  0.00D+00 EMaxC= 1.00D-01 BMatC= 7.10D-12 BMatP= 2.80D-11
 IDIUse=1 WtCom= 1.00D+00 WtEn= 0.00D+00
 Coeff-Com:  0.101D-03-0.469D-02-0.152D-02 0.265D-01 0.631D-01 0.391D+00
 Coeff-Com:  0.526D+00
 Coeff:      0.101D-03-0.469D-02-0.152D-02 0.265D-01 0.631D-01 0.391D+00
 Coeff:      0.526D+00
 Gap=     0.191 Goal=   None    Shift=    0.000
 RMSDP=7.51D-09 MaxDP=2.94D-07 DE=-2.35D-11 OVMax= 1.20D-06

 SCF Done:  E(RB3LYP) =  -345.708113320     A.U. after    7 cycles
            NFock=  7  Conv=0.75D-08     -V/T= 2.0050
 KE= 3.440043693354D+02 PE=-1.448133282231D+03 EE= 4.367267224092D+02
 Leave Link  502 at Wed Feb  7 14:30:52 2024, MaxMem=  6710886400 cpu:             305.2 elap:              19.1
 (Enter /tmpu/scunam/7/gaussian-2016.03/g1/g16/l701.exe)
 ... and contract with generalized density number  0.
 Compute integral first derivatives.
   1 Symmetry operations used in ECPInt.
 ECPInt:  NShTT=    6328 NPrTT=   19500 LenC2=    6194 LenP2D=   15434.
 LDataN:  DoStor=T MaxTD1= 7 Len=  274
 Leave Link  701 at Wed Feb  7 14:30:52 2024, MaxMem=  6710886400 cpu:               3.9 elap:               0.3
 (Enter /tmpu/scunam/7/gaussian-2016.03/g1/g16/l702.exe)
 L702 exits ... SP integral derivatives will be done elsewhere.
 Leave Link  702 at Wed Feb  7 14:30:52 2024, MaxMem=  6710886400 cpu:               0.3 elap:               0.0
 (Enter /tmpu/scunam/7/gaussian-2016.03/g1/g16/l703.exe)
 Integral derivatives from FoFJK, PRISM(SPDF).
 Compute integral first derivatives, UseDBF=F ICtDFT=           0.
 Calling FoFJK, ICntrl=      2127 FMM=F ISym2X=0 I1Cent= 0 IOpClX= 0 NMat=1 NMatS=1 NMatT=0.
 FoFJK:  IHMeth= 1 ICntrl=    2127 DoSepK=F KAlg= 0 I1Cent=           0 FoldK=F
 IRaf=         0 NMat=       1 IRICut=       1 DoRegI=T DoRafI=F ISym2E= 0 IDoP0=0 IntGTp=1.
 FoFCou: FMM=F IPFlag=           0 FMFlag=      100000 FMFlg1=         800
         NFxFlg=           0 DoJE=F BraDBF=F KetDBF=F FulRan=T
         wScrn=  0.000000 ICntrl=      2127 IOpCl=  0 I1Cent=           0 NGrid=           0
         NMat0=    1 NMatS0=      1 NMatT0=    0 NMatD0=    1 NMtDS0=    0 NMtDT0=    0
 Symmetry not used in FoFCou.
 Leave Link  703 at Wed Feb  7 14:31:04 2024, MaxMem=  6710886400 cpu:             183.3 elap:              11.5
 (Enter /tmpu/scunam/7/gaussian-2016.03/g1/g16/l716.exe)
 Dipole        = 1.27202564D+00 4.76853138D-01-3.59176849D-04
 ***** Axes restored to original set *****
 -------------------------------------------------------------------
 Center     Atomic                   Forces (Hartrees/Bohr)
 Number     Number              X              Y              Z
 -------------------------------------------------------------------
      1        8          -0.000028560    0.000023478    0.000015158
      2        6           0.000021114    0.000053172    0.000008007
      3        6           0.000005386   -0.000010693    0.000002282
      4        6          -0.000029101   -0.000048282    0.000002087
      5        6          -0.000009622   -0.000015698   -0.000002142
      6        6           0.000006568    0.000015464   -0.000002012
      7        6          -0.000005722   -0.000008096    0.000001104
      8        6           0.000015838   -0.000042574   -0.000035696
      9        1           0.000011919   -0.000000716    0.000001102
     10        1           0.000003241    0.000008367   -0.000000409
     11        1           0.000011261    0.000005580   -0.000000103
     12        1           0.000000135   -0.000005758   -0.000000742
     13        1          -0.000001145    0.000004440    0.000001187
     14        1          -0.000001311    0.000021317    0.000010178
 -------------------------------------------------------------------
 Cartesian Forces:  Max     0.000053172 RMS     0.000017815
 Leave Link  716 at Wed Feb  7 14:31:04 2024, MaxMem=  6710886400 cpu:               0.3 elap:               0.0
 (Enter /tmpu/scunam/7/gaussian-2016.03/g1/g16/l103.exe)

 GradGradGradGradGradGradGradGradGradGradGradGradGradGradGradGradGradGrad
 Berny optimization.
 Search for a local minimum.
 Step number   6 out of a maximum of  100
 All quantities printed in internal units (Hartrees-Bohrs-Radians)
 Update second derivatives using D2CorN and points    1    2    3    4    5
                                                          6
 DE= -3.21D-07 DEPred=-3.11D-07 R= 1.03D+00
 Trust test= 1.03D+00 RLast= 6.60D-03 DXMaxT set to 3.85D-01
 ITU=  0  1  1  1  1  0
     Eigenvalues ---    0.00662   0.00774   0.01095   0.01659   0.02600
     Eigenvalues ---    0.03866   0.04812   0.06729   0.06914   0.07111
     Eigenvalues ---    0.07548   0.08292   0.09792   0.10179   0.11178
     Eigenvalues ---    0.13033   0.16148   0.17924   0.21042   0.29371
     Eigenvalues ---    0.30232   0.31059   0.36904   0.43169   0.44631
     Eigenvalues ---    0.58903   0.68423   0.81742   1.02632   1.11312
     Eigenvalues ---    1.22570   1.26287   1.47713   1.57970   1.61195
     Eigenvalues ---    1.96088
 RFO step:  Lambda=-2.51345564D-08 EMin= 6.62467359D-03
 Quartic linear search produced a step of -0.05825.
 B after Tr=    -0.000009   -0.000006    0.000013
         Rot=    1.000000    0.000003    0.000005   -0.000001 Ang=   0.00 deg.
 Variable       Old X    -DE/DX   Delta X   Delta X   Delta X     New X
                                 (Linear)    (Quad)   (Total)
    X1        5.43797  -0.00003   0.00012  -0.00004   0.00008   5.43804
    Y1       -0.64570   0.00002   0.00019   0.00004   0.00023  -0.64548
    Z1       -0.00118   0.00002   0.00003   0.00038   0.00049  -0.00069
    X2        1.05339   0.00002   0.00004   0.00001   0.00003   1.05343
    Y2        0.41216   0.00005  -0.00008   0.00002  -0.00006   0.41210
    Z2       -0.00004   0.00001  -0.00001  -0.00013  -0.00012  -0.00015
    X3       -0.65359   0.00001   0.00004   0.00003   0.00005  -0.65354
    Y3        2.42192  -0.00001  -0.00006  -0.00002  -0.00009   2.42183
    Z3       -0.00006   0.00000  -0.00000  -0.00003  -0.00004  -0.00010
    X4        0.15613  -0.00003  -0.00002  -0.00004  -0.00006   0.15606
    Y4       -2.07294  -0.00005  -0.00006  -0.00004  -0.00011  -2.07304
    Z4        0.00001   0.00000  -0.00000  -0.00010  -0.00008  -0.00007
    X5       -3.23779  -0.00001   0.00003   0.00002   0.00004  -3.23775
    Y5        1.96267  -0.00002  -0.00000  -0.00003  -0.00005   1.96263
    Z5       -0.00008  -0.00000   0.00000   0.00005   0.00002  -0.00005
    X6       -2.42091   0.00001  -0.00004  -0.00003  -0.00007  -2.42098
    Y6       -2.52951   0.00002  -0.00001  -0.00002  -0.00003  -2.52954
    Z6        0.00006  -0.00000  -0.00000  -0.00003  -0.00003   0.00003
    X7       -4.11825  -0.00001  -0.00001  -0.00003  -0.00005  -4.11829
    Y7       -0.51302  -0.00001   0.00001  -0.00002  -0.00002  -0.51304
    Z7       -0.00003   0.00000   0.00000   0.00007   0.00005   0.00001
    X8        3.79629   0.00002  -0.00002  -0.00000  -0.00004   3.79625
    Y8        0.94108  -0.00004   0.00006   0.00001   0.00006   0.94114
    Z8       -0.00018  -0.00004  -0.00001  -0.00026  -0.00022  -0.00040
    X9        0.05398   0.00001   0.00010   0.00016   0.00024   0.05421
    Y9        4.34492  -0.00000  -0.00009  -0.00005  -0.00015   4.34477
    Z9       -0.00011   0.00000   0.00000  -0.00000  -0.00002  -0.00013
   X10        1.50928   0.00000  -0.00007   0.00007  -0.00000   1.50928
   Y10       -3.60651   0.00001  -0.00010   0.00007  -0.00004  -3.60654
   Z10        0.00003  -0.00000  -0.00001  -0.00017  -0.00012  -0.00009
   X11       -4.56041   0.00001   0.00007   0.00012   0.00017  -4.56024
   Y11        3.52299   0.00001   0.00002   0.00005   0.00006   3.52305
   Z11       -0.00014  -0.00000   0.00001   0.00012   0.00007  -0.00007
   X12       -3.12127   0.00000  -0.00007  -0.00001  -0.00009  -3.12136
   Y12       -4.45168  -0.00001   0.00001  -0.00004  -0.00004  -4.45172
   Z12        0.00015  -0.00000  -0.00000  -0.00005  -0.00005   0.00010
   X13       -6.13184  -0.00000  -0.00001  -0.00004  -0.00006  -6.13190
   Y13       -0.87784   0.00000   0.00005   0.00004   0.00008  -0.87777
   Z13       -0.00007   0.00000   0.00001   0.00017   0.00013   0.00006
   X14        4.28640  -0.00000  -0.00015  -0.00009  -0.00025   4.28614
   Y14        2.98099   0.00002   0.00008   0.00009   0.00017   2.98116
   Z14        0.00013   0.00001  -0.00001  -0.00012  -0.00009   0.00004
         Item               Value     Threshold  Converged?
 Maximum Force            0.000053     0.000002     NO 
 RMS     Force            0.000018     0.000001     NO 
 Maximum Displacement     0.000493     0.000006     NO 
 RMS     Displacement     0.000129     0.000004     NO 
 Predicted change in Energy=-1.430644D-08
 Lowest energy point so far.  Saving SCF results.
 GradGradGradGradGradGradGradGradGradGradGradGradGradGradGradGradGradGrad

 Leave Link  103 at Wed Feb  7 14:31:04 2024, MaxMem=  6710886400 cpu:               1.0 elap:               0.1
 (Enter /tmpu/scunam/7/gaussian-2016.03/g1/g16/l202.exe)
                          Input orientation:                          
 ---------------------------------------------------------------------
 Center     Atomic      Atomic             Coordinates (Angstroms)
 Number     Number       Type             X           Y           Z
 ---------------------------------------------------------------------
      1          8           0        2.877688   -0.341571   -0.000366
      2          6           0        0.557449    0.218074   -0.000081
      3          6           0       -0.345837    1.281575   -0.000051
      4          6           0        0.082585   -1.097006   -0.000036
      5          6           0       -1.713344    1.038577   -0.000029
      6          6           0       -1.281125   -1.338576    0.000014
      7          6           0       -2.179307   -0.271489    0.000008
      8          6           0        2.008889    0.498030   -0.000212
      9          1           0        0.028689    2.299151   -0.000068
     10          1           0        0.798675   -1.908501   -0.000048
     11          1           0       -2.413175    1.864317   -0.000037
     12          1           0       -1.651753   -2.355751    0.000053
     13          1           0       -3.244863   -0.464493    0.000030
     14          1           0        2.268129    1.577563    0.000023
 ---------------------------------------------------------------------
                    Distance matrix (angstroms):
                    1          2          3          4          5
     1  O    0.000000
     2  C    2.386779   0.000000
     3  C    3.609116   1.395335   0.000000
     4  C    2.895390   1.398188   2.416856   0.000000
     5  C    4.793995   2.414482   1.388928   2.790354   0.000000
     6  C    4.276651   2.409047   2.782077   1.384941   2.416127
     7  C    5.057481   2.780199   2.402835   2.407828   1.390465
     8  C    1.208198   1.478193   2.481669   2.500957   3.761278
     9  H    3.884612   2.147200   1.084312   3.396585   2.150285
    10  H    2.603376   2.140213   3.389173   1.082271   3.872404
    11  H    5.732292   3.396280   2.147900   3.872757   1.082409
    12  H    4.957092   3.391924   3.864654   2.142981   3.394887
    13  H    6.123785   3.863090   3.384243   3.387031   2.145873
    14  H    2.013613   2.185095   2.630671   3.453972   4.017789
                    6          7          8          9         10
     6  C    0.000000
     7  C    1.394778   0.000000
     8  C    3.767932   4.258303   0.000000
     9  H    3.866351   3.388722   2.676795   0.000000
    10  H    2.156475   3.398263   2.693698   4.277525   0.000000
    11  H    3.397066   2.148571   4.628325   2.480278   4.954809
    12  H    1.082594   2.149991   4.641591   4.948939   2.490909
    13  H    2.149485   1.082894   5.341194   4.284142   4.293641
    14  H    4.593590   4.816501   1.110224   2.352824   3.783112
                   11         12         13         14
    11  H    0.000000
    12  H    4.288208   0.000000
    13  H    2.472865   2.472823   0.000000
    14  H    4.690078   5.553056   5.879036   0.000000
 Stoichiometry    C7H6O
 Framework group  C1[X(C7H6O)]
 Deg. of freedom    36
 Full point group                 C1      NOp   1
 RotChk:  IX=2 Diff= 5.83D-05
 Largest Abelian subgroup         C1      NOp   1
 Largest concise Abelian subgroup C1      NOp   1
                         Standard orientation:                         
 ---------------------------------------------------------------------
 Center     Atomic      Atomic             Coordinates (Angstroms)
 Number     Number       Type             X           Y           Z
 ---------------------------------------------------------------------
      1          8           0       -2.843558   -0.391367    0.000271
      2          6           0       -0.532506    0.205086   -0.000014
      3          6           0        0.353762    1.282809   -0.000043
      4          6           0       -0.036801   -1.102281   -0.000058
      5          6           0        1.724958    1.061577   -0.000066
      6          6           0        1.330576   -1.322145   -0.000109
      7          6           0        2.211685   -0.240917   -0.000102
      8          6           0       -1.988213    0.461937    0.000117
      9          1           0       -0.036891    2.294304   -0.000027
     10          1           0       -0.739902   -1.925055   -0.000047
     11          1           0        2.411576    1.898336   -0.000057
     12          1           0        1.717325   -2.333301   -0.000148
     13          1           0        3.280173   -0.416961   -0.000125
     14          1           0       -2.264579    1.537213   -0.000117
 ---------------------------------------------------------------------
 Rotational constants (GHZ):           5.2804151           1.5665936           1.2081575
 Leave Link  202 at Wed Feb  7 14:31:04 2024, MaxMem=  6710886400 cpu:               0.1 elap:               0.0
 (Enter /tmpu/scunam/7/gaussian-2016.03/g1/g16/l301.exe)
 Standard basis: def2TZVP (5D, 7F)
 Ernie: Thresh=  0.10000D-02 Tol=  0.10000D-05 Strict=F.
 There are   324 symmetry adapted cartesian basis functions of A   symmetry.
 There are   284 symmetry adapted basis functions of A   symmetry.
   284 basis functions,   456 primitive gaussians,   324 cartesian basis functions
    28 alpha electrons       28 beta electrons
       nuclear repulsion energy       321.6940089323 Hartrees.
 IExCor=  402 DFT=T Ex+Corr=B3LYP ExCW=0 ScaHFX=  0.200000
 ScaDFX=  0.800000  0.720000  1.000000  0.810000 ScalE2=  1.000000  1.000000
 IRadAn=      5 IRanWt=     -1 IRanGd=            0 ICorTp=0 IEmpDi=  4
 NAtoms=   14 NActive=   14 NUniq=   14 SFac= 1.00D+00 NAtFMM=   60 NAOKFM=F Big=F
 Integral buffers will be    131072 words long.
 Raffenetti 2 integral format.
 Two-electron integral symmetry is turned on.
 Leave Link  301 at Wed Feb  7 14:31:04 2024, MaxMem=  6710886400 cpu:               0.8 elap:               0.1
 (Enter /tmpu/scunam/7/gaussian-2016.03/g1/g16/l302.exe)
 NPDir=0 NMtPBC=     1 NCelOv=     1 NCel=       1 NClECP=     1 NCelD=      1
         NCelK=      1 NCelE2=     1 NClLst=     1 CellRange=     0.0.
 One-electron integrals computed using PRISM.
 One-electron integral symmetry used in STVInt
   1 Symmetry operations used in ECPInt.
 ECPInt:  NShTT=    6328 NPrTT=   19500 LenC2=    6194 LenP2D=   15434.
 LDataN:  DoStor=T MaxTD1= 6 Len=  172
 NBasis=   284 RedAO= T EigKep=  8.80D-06  NBF=   284
 NBsUse=   284 1.00D-06 EigRej= -1.00D+00 NBFU=   284
 Precomputing XC quadrature grid using
 IXCGrd= 4 IRadAn=           5 IRanWt=          -1 IRanGd=           0 AccXCQ= 0.00D+00.
 Generated NRdTot=       0 NPtTot=           0 NUsed=           0 NTot=          32
 NSgBfM=   323   323   323   323   323 MxSgAt=    14 MxSgA2=    14.
 Leave Link  302 at Wed Feb  7 14:31:05 2024, MaxMem=  6710886400 cpu:               4.5 elap:               0.3
 (Enter /tmpu/scunam/7/gaussian-2016.03/g1/g16/l303.exe)
 DipDrv:  MaxL=1.
 Leave Link  303 at Wed Feb  7 14:31:05 2024, MaxMem=  6710886400 cpu:               0.6 elap:               0.1
 (Enter /tmpu/scunam/7/gaussian-2016.03/g1/g16/l401.exe)
 Initial guess from the checkpoint file:  "Benzaldehyde.chk"
 B after Tr=    -0.000000    0.000000    0.000000
         Rot=    1.000000   -0.000007    0.000010   -0.000015 Ang=  -0.00 deg.
 Guess basis will be translated and rotated to current coordinates.
 JPrj=2 DoOrth=T DoCkMO=T.
 Leave Link  401 at Wed Feb  7 14:31:05 2024, MaxMem=  6710886400 cpu:               2.5 elap:               0.2
 (Enter /tmpu/scunam/7/gaussian-2016.03/g1/g16/l502.exe)
 Integral symmetry usage will be decided dynamically.
 Closed shell SCF:
 Using DIIS extrapolation, IDIIS=  1040.
 NGot=  6710886400 LenX=  6710668346 LenY=  6710562929
 Requested convergence on RMS density matrix=1.00D-08 within1024 cycles.
 Requested convergence on MAX density matrix=1.00D-06.
 Requested convergence on             energy=1.00D-06.
 No special actions if energy rises.
 Fock matrices will be formed incrementally for  20 cycles.

 Cycle   1  Pass 1  IDiag  1:
 FoFJK:  IHMeth= 1 ICntrl=       0 DoSepK=F KAlg= 0 I1Cent=           0 FoldK=F
 IRaf= 950000000 NMat=       1 IRICut=       1 DoRegI=T DoRafI=F ISym2E= 0 IDoP0=0 IntGTp=1.
 FoFCou: FMM=F IPFlag=           0 FMFlag=      100000 FMFlg1=           0
         NFxFlg=           0 DoJE=F BraDBF=F KetDBF=F FulRan=T
         wScrn=  0.000000 ICntrl=         0 IOpCl=  0 I1Cent=           0 NGrid=           0
         NMat0=    1 NMatS0=      1 NMatT0=    0 NMatD0=    1 NMtDS0=    0 NMtDT0=    0
 Symmetry not used in FoFCou.
 E= -345.708113264544    
 DIIS: error= 1.50D-05 at cycle   1 NSaved=   1.
 NSaved= 1 IEnMin= 1 EnMin= -345.708113264544     IErMin= 1 ErrMin= 1.50D-05
 ErrMax= 1.50D-05  0.00D+00 EMaxC= 1.00D-01 BMatC= 5.36D-08 BMatP= 5.36D-08
 IDIUse=1 WtCom= 1.00D+00 WtEn= 0.00D+00
 Coeff-Com:  0.100D+01
 Coeff:      0.100D+01
 Gap=     0.750 Goal=   None    Shift=    0.000
 RMSDP=1.29D-06 MaxDP=3.79D-05              OVMax= 1.14D-04

 Cycle   2  Pass 1  IDiag  1:
 RMSU=  1.29D-06    CP:  1.00D+00
 E= -345.708113332412     Delta-E=       -0.000000067869 Rises=F Damp=F
 DIIS: error= 1.91D-06 at cycle   2 NSaved=   2.
 NSaved= 2 IEnMin= 2 EnMin= -345.708113332412     IErMin= 2 ErrMin= 1.91D-06
 ErrMax= 1.91D-06  0.00D+00 EMaxC= 1.00D-01 BMatC= 8.65D-10 BMatP= 5.36D-08
 IDIUse=1 WtCom= 1.00D+00 WtEn= 0.00D+00
 Coeff-Com: -0.555D-01 0.106D+01
 Coeff:     -0.555D-01 0.106D+01
 Gap=     0.191 Goal=   None    Shift=    0.000
 RMSDP=1.72D-07 MaxDP=5.39D-06 DE=-6.79D-08 OVMax= 1.41D-05

 Cycle   3  Pass 1  IDiag  1:
 RMSU=  1.53D-07    CP:  1.00D+00  1.06D+00
 E= -345.708113333302     Delta-E=       -0.000000000890 Rises=F Damp=F
 DIIS: error= 1.31D-06 at cycle   3 NSaved=   3.
 NSaved= 3 IEnMin= 3 EnMin= -345.708113333302     IErMin= 3 ErrMin= 1.31D-06
 ErrMax= 1.31D-06  0.00D+00 EMaxC= 1.00D-01 BMatC= 2.07D-10 BMatP= 8.65D-10
 IDIUse=1 WtCom= 1.00D+00 WtEn= 0.00D+00
 Coeff-Com: -0.218D-01 0.344D+00 0.678D+00
 Coeff:     -0.218D-01 0.344D+00 0.678D+00
 Gap=     0.191 Goal=   None    Shift=    0.000
 RMSDP=8.25D-08 MaxDP=7.20D-06 DE=-8.90D-10 OVMax= 9.69D-06

 Cycle   4  Pass 1  IDiag  1:
 RMSU=  6.64D-08    CP:  1.00D+00  1.06D+00  7.01D-01
 E= -345.708113333393     Delta-E=       -0.000000000091 Rises=F Damp=F
 DIIS: error= 1.24D-06 at cycle   4 NSaved=   4.
 NSaved= 4 IEnMin= 4 EnMin= -345.708113333393     IErMin= 4 ErrMin= 1.24D-06
 ErrMax= 1.24D-06  0.00D+00 EMaxC= 1.00D-01 BMatC= 1.06D-10 BMatP= 2.07D-10
 IDIUse=1 WtCom= 1.00D+00 WtEn= 0.00D+00
 Coeff-Com: -0.854D-02 0.127D+00 0.433D+00 0.448D+00
 Coeff:     -0.854D-02 0.127D+00 0.433D+00 0.448D+00
 Gap=     0.191 Goal=   None    Shift=    0.000
 RMSDP=4.31D-08 MaxDP=4.43D-06 DE=-9.06D-11 OVMax= 5.43D-06

 Cycle   5  Pass 1  IDiag  1:
 RMSU=  2.03D-08    CP:  1.00D+00  1.07D+00  7.77D-01  4.83D-01
 E= -345.708113333504     Delta-E=       -0.000000000111 Rises=F Damp=F
 DIIS: error= 2.23D-07 at cycle   5 NSaved=   5.
 NSaved= 5 IEnMin= 5 EnMin= -345.708113333504     IErMin= 5 ErrMin= 2.23D-07
 ErrMax= 2.23D-07  0.00D+00 EMaxC= 1.00D-01 BMatC= 6.10D-12 BMatP= 1.06D-10
 IDIUse=1 WtCom= 1.00D+00 WtEn= 0.00D+00
 Coeff-Com: -0.106D-02 0.768D-02 0.131D+00 0.231D+00 0.632D+00
 Coeff:     -0.106D-02 0.768D-02 0.131D+00 0.231D+00 0.632D+00
 Gap=     0.191 Goal=   None    Shift=    0.000
 RMSDP=1.09D-08 MaxDP=9.00D-07 DE=-1.11D-10 OVMax= 1.00D-06

 Cycle   6  Pass 1  IDiag  1:
 RMSU=  5.80D-09    CP:  1.00D+00  1.07D+00  7.94D-01  5.79D-01  7.14D-01
 E= -345.708113333506     Delta-E=       -0.000000000002 Rises=F Damp=F
 DIIS: error= 1.00D-07 at cycle   6 NSaved=   6.
 NSaved= 6 IEnMin= 6 EnMin= -345.708113333506     IErMin= 6 ErrMin= 1.00D-07
 ErrMax= 1.00D-07  0.00D+00 EMaxC= 1.00D-01 BMatC= 2.23D-12 BMatP= 6.10D-12
 IDIUse=1 WtCom= 1.00D+00 WtEn= 0.00D+00
 Coeff-Com:  0.722D-03-0.182D-01 0.192D-01 0.881D-01 0.440D+00 0.470D+00
 Coeff:      0.722D-03-0.182D-01 0.192D-01 0.881D-01 0.440D+00 0.470D+00
 Gap=     0.191 Goal=   None    Shift=    0.000
 RMSDP=6.36D-09 MaxDP=7.26D-07 DE=-2.05D-12 OVMax= 4.81D-07

 SCF Done:  E(RB3LYP) =  -345.708113334     A.U. after    6 cycles
            NFock=  6  Conv=0.64D-08     -V/T= 2.0050
 KE= 3.440043971191D+02 PE=-1.448133103726D+03 EE= 4.367265843409D+02
 Leave Link  502 at Wed Feb  7 14:31:21 2024, MaxMem=  6710886400 cpu:             259.3 elap:              16.2
 (Enter /tmpu/scunam/7/gaussian-2016.03/g1/g16/l701.exe)
 ... and contract with generalized density number  0.
 Compute integral first derivatives.
   1 Symmetry operations used in ECPInt.
 ECPInt:  NShTT=    6328 NPrTT=   19500 LenC2=    6194 LenP2D=   15434.
 LDataN:  DoStor=T MaxTD1= 7 Len=  274
 Leave Link  701 at Wed Feb  7 14:31:21 2024, MaxMem=  6710886400 cpu:               3.8 elap:               0.3
 (Enter /tmpu/scunam/7/gaussian-2016.03/g1/g16/l702.exe)
 L702 exits ... SP integral derivatives will be done elsewhere.
 Leave Link  702 at Wed Feb  7 14:31:21 2024, MaxMem=  6710886400 cpu:               0.3 elap:               0.0
 (Enter /tmpu/scunam/7/gaussian-2016.03/g1/g16/l703.exe)
 Integral derivatives from FoFJK, PRISM(SPDF).
 Compute integral first derivatives, UseDBF=F ICtDFT=           0.
 Calling FoFJK, ICntrl=      2127 FMM=F ISym2X=0 I1Cent= 0 IOpClX= 0 NMat=1 NMatS=1 NMatT=0.
 FoFJK:  IHMeth= 1 ICntrl=    2127 DoSepK=F KAlg= 0 I1Cent=           0 FoldK=F
 IRaf=         0 NMat=       1 IRICut=       1 DoRegI=T DoRafI=F ISym2E= 0 IDoP0=0 IntGTp=1.
 FoFCou: FMM=F IPFlag=           0 FMFlag=      100000 FMFlg1=         800
         NFxFlg=           0 DoJE=F BraDBF=F KetDBF=F FulRan=T
         wScrn=  0.000000 ICntrl=      2127 IOpCl=  0 I1Cent=           0 NGrid=           0
         NMat0=    1 NMatS0=      1 NMatT0=    0 NMatD0=    1 NMtDS0=    0 NMtDT0=    0
 Symmetry not used in FoFCou.
 Leave Link  703 at Wed Feb  7 14:31:33 2024, MaxMem=  6710886400 cpu:             182.8 elap:              11.5
 (Enter /tmpu/scunam/7/gaussian-2016.03/g1/g16/l716.exe)
 Dipole        = 1.27205938D+00 4.76809380D-01-1.62851223D-04
 ***** Axes restored to original set *****
 -------------------------------------------------------------------
 Center     Atomic                   Forces (Hartrees/Bohr)
 Number     Number              X              Y              Z
 -------------------------------------------------------------------
      1        8          -0.000009987    0.000004757   -0.000006464
      2        6          -0.000004916    0.000020654   -0.000006731
      3        6           0.000009011   -0.000004329   -0.000001254
      4        6          -0.000008335   -0.000016069   -0.000001438
      5        6          -0.000006388   -0.000008489    0.000001688
      6        6           0.000009245    0.000001016    0.000000793
      7        6          -0.000001199    0.000006689   -0.000000404
      8        6           0.000008731   -0.000013793    0.000022847
      9        1           0.000000158   -0.000000098   -0.000000657
     10        1          -0.000000526   -0.000000537   -0.000000535
     11        1           0.000004550    0.000002586    0.000000489
     12        1           0.000000656   -0.000001768    0.000000020
     13        1          -0.000001162    0.000001361    0.000000041
     14        1           0.000000162    0.000008020   -0.000008395
 -------------------------------------------------------------------
 Cartesian Forces:  Max     0.000022847 RMS     0.000007400
 Leave Link  716 at Wed Feb  7 14:31:33 2024, MaxMem=  6710886400 cpu:               0.3 elap:               0.0
 (Enter /tmpu/scunam/7/gaussian-2016.03/g1/g16/l103.exe)

 GradGradGradGradGradGradGradGradGradGradGradGradGradGradGradGradGradGrad
 Berny optimization.
 Search for a local minimum.
 Step number   7 out of a maximum of  100
 All quantities printed in internal units (Hartrees-Bohrs-Radians)
 Update second derivatives using D2CorN and points    1    2    3    4    5
                                                          6    7
 DE= -1.31D-08 DEPred=-1.43D-08 R= 9.17D-01
 Trust test= 9.17D-01 RLast= 8.35D-04 DXMaxT set to 3.85D-01
 ITU=  0  0  1  1  1  1  0
     Eigenvalues ---    0.00569   0.00766   0.01038   0.01660   0.02608
     Eigenvalues ---    0.03892   0.04779   0.06901   0.07025   0.07110
     Eigenvalues ---    0.07487   0.08683   0.09854   0.10373   0.11181
     Eigenvalues ---    0.13141   0.16834   0.18042   0.21075   0.29364
     Eigenvalues ---    0.30232   0.31178   0.36739   0.43149   0.44642
     Eigenvalues ---    0.58844   0.68410   0.81699   1.02593   1.11206
     Eigenvalues ---    1.22580   1.26185   1.47484   1.57975   1.61099
     Eigenvalues ---    1.94188
 RFO step:  Lambda= 0.00000000D+00 EMin= 5.69163163D-03
 Quartic linear search produced a step of -0.10195.
 B after Tr=     0.000001   -0.000000    0.000026
         Rot=    1.000000    0.000000    0.000007   -0.000001 Ang=   0.00 deg.
 Variable       Old X    -DE/DX   Delta X   Delta X   Delta X     New X
                                 (Linear)    (Quad)   (Total)
    X1        5.43804  -0.00001  -0.00001   0.00003   0.00002   5.43807
    Y1       -0.64548   0.00000  -0.00002   0.00010   0.00009  -0.64539
    Z1       -0.00069  -0.00001  -0.00005   0.00020   0.00025  -0.00044
    X2        1.05343  -0.00000  -0.00000   0.00000  -0.00000   1.05342
    Y2        0.41210   0.00002   0.00001  -0.00004  -0.00003   0.41207
    Z2       -0.00015  -0.00001   0.00001  -0.00006  -0.00001  -0.00016
    X3       -0.65354   0.00001  -0.00001   0.00003   0.00002  -0.65351
    Y3        2.42183  -0.00000   0.00001  -0.00004  -0.00004   2.42179
    Z3       -0.00010  -0.00000   0.00000  -0.00007  -0.00005  -0.00015
    X4        0.15606  -0.00001   0.00001  -0.00003  -0.00002   0.15605
    Y4       -2.07304  -0.00002   0.00001  -0.00006  -0.00005  -2.07309
    Z4       -0.00007  -0.00000   0.00001  -0.00011  -0.00007  -0.00014
    X5       -3.23775  -0.00001  -0.00000   0.00003   0.00002  -3.23773
    Y5        1.96263  -0.00001   0.00000  -0.00001  -0.00001   1.96261
    Z5       -0.00005   0.00000  -0.00000   0.00004   0.00002  -0.00003
    X6       -2.42098   0.00001   0.00001  -0.00003  -0.00001  -2.42099
    Y6       -2.52954   0.00000   0.00000  -0.00002  -0.00002  -2.52956
    Z6        0.00003   0.00000   0.00000  -0.00004  -0.00004  -0.00002
    X7       -4.11829  -0.00000   0.00000  -0.00001  -0.00000  -4.11830
    Y7       -0.51304   0.00001   0.00000   0.00001   0.00000  -0.51303
    Z7        0.00001  -0.00000  -0.00000   0.00007   0.00003   0.00005
    X8        3.79625   0.00001   0.00000  -0.00003  -0.00002   3.79623
    Y8        0.94114  -0.00001  -0.00001   0.00002   0.00003   0.94116
    Z8       -0.00040   0.00002   0.00002   0.00010   0.00020  -0.00020
    X9        0.05421   0.00000  -0.00002   0.00011   0.00007   0.05429
    Y9        4.34477  -0.00000   0.00002  -0.00007  -0.00005   4.34471
    Z9       -0.00013  -0.00000   0.00000  -0.00010  -0.00007  -0.00020
   X10        1.50928  -0.00000   0.00000  -0.00002  -0.00001   1.50927
   Y10       -3.60654  -0.00000   0.00000  -0.00005  -0.00005  -3.60659
   Z10       -0.00009  -0.00000   0.00001  -0.00017  -0.00011  -0.00020
   X11       -4.56024   0.00000  -0.00002   0.00011   0.00008  -4.56016
   Y11        3.52305   0.00000  -0.00001   0.00006   0.00004   3.52309
   Z11       -0.00007   0.00000  -0.00001   0.00012   0.00008   0.00001
   X12       -3.12136   0.00000   0.00001  -0.00005  -0.00003  -3.12139
   Y12       -4.45172  -0.00000   0.00000  -0.00001  -0.00002  -4.45174
   Z12        0.00010   0.00000   0.00000  -0.00006  -0.00007   0.00003
   X13       -6.13190  -0.00000   0.00001  -0.00002  -0.00001  -6.13191
   Y13       -0.87777   0.00000  -0.00001   0.00007   0.00004  -0.87772
   Z13        0.00006   0.00000  -0.00001   0.00017   0.00010   0.00016
   X14        4.28614   0.00000   0.00003  -0.00014  -0.00012   4.28602
   Y14        2.98116   0.00001  -0.00002   0.00008   0.00007   2.98123
   Z14        0.00004  -0.00001   0.00001  -0.00035  -0.00025  -0.00021
         Item               Value     Threshold  Converged?
 Maximum Force            0.000023     0.000002     NO 
 RMS     Force            0.000007     0.000001     NO 
 Maximum Displacement     0.000254     0.000006     NO 
 RMS     Displacement     0.000081     0.000004     NO 
 Predicted change in Energy=-3.481190D-09
 Lowest energy point so far.  Saving SCF results.
 GradGradGradGradGradGradGradGradGradGradGradGradGradGradGradGradGradGrad

 Leave Link  103 at Wed Feb  7 14:31:33 2024, MaxMem=  6710886400 cpu:               0.5 elap:               0.0
 (Enter /tmpu/scunam/7/gaussian-2016.03/g1/g16/l202.exe)
                          Input orientation:                          
 ---------------------------------------------------------------------
 Center     Atomic      Atomic             Coordinates (Angstroms)
 Number     Number       Type             X           Y           Z
 ---------------------------------------------------------------------
      1          8           0        2.877701   -0.341525   -0.000232
      2          6           0        0.557448    0.218058   -0.000087
      3          6           0       -0.345825    1.281555   -0.000080
      4          6           0        0.082577   -1.097034   -0.000074
      5          6           0       -1.713334    1.038571   -0.000017
      6          6           0       -1.281130   -1.338585   -0.000009
      7          6           0       -2.179308   -0.271486    0.000025
      8          6           0        2.008877    0.498043   -0.000108
      9          1           0        0.028727    2.299122   -0.000106
     10          1           0        0.798671   -1.908526   -0.000106
     11          1           0       -2.413132    1.864336    0.000005
     12          1           0       -1.651767   -2.355760    0.000018
     13          1           0       -3.244867   -0.464471    0.000083
     14          1           0        2.268063    1.577601   -0.000112
 ---------------------------------------------------------------------
                    Distance matrix (angstroms):
                    1          2          3          4          5
     1  O    0.000000
     2  C    2.386778   0.000000
     3  C    3.609087   1.395323   0.000000
     4  C    2.895430   1.398203   2.416861   0.000000
     5  C    4.793982   2.414475   1.388928   2.790359   0.000000
     6  C    4.276682   2.409047   2.782074   1.384935   2.416127
     7  C    5.057494   2.780195   2.402831   2.407832   1.390461
     8  C    1.208193   1.478187   2.481635   2.500980   3.761253
     9  H    3.884543   2.147178   1.084312   3.396584   2.150294
    10  H    2.603433   2.140222   3.389172   1.082270   3.872408
    11  H    5.732255   3.396259   2.147881   3.872761   1.082408
    12  H    4.957139   3.391927   3.864654   2.142974   3.394889
    13  H    6.123803   3.863087   3.384236   3.387037   2.145864
    14  H    2.013629   2.185077   2.630600   3.453987   4.017720
                    6          7          8          9         10
     6  C    0.000000
     7  C    1.394785   0.000000
     8  C    3.767937   4.258294   0.000000
     9  H    3.866347   3.388723   2.676729   0.000000
    10  H    2.156480   3.398273   2.693728   4.277513   0.000000
    11  H    3.397078   2.148584   4.628274   2.480265   4.954813
    12  H    1.082597   2.150000   4.641605   4.948938   2.490916
    13  H    2.149497   1.082894   5.341185   4.284141   4.293657
    14  H    4.593573   4.816455   1.110236   2.352705   3.783146
                   11         12         13         14
    11  H    0.000000
    12  H    4.288227   0.000000
    13  H    2.472879   2.472841   0.000000
    14  H    4.689969   5.553053   5.878985   0.000000
 Stoichiometry    C7H6O
 Framework group  C1[X(C7H6O)]
 Deg. of freedom    36
 Full point group                 C1      NOp   1
 RotChk:  IX=2 Diff= 1.90D-05
 Largest Abelian subgroup         C1      NOp   1
 Largest concise Abelian subgroup C1      NOp   1
                         Standard orientation:                         
 ---------------------------------------------------------------------
 Center     Atomic      Atomic             Coordinates (Angstroms)
 Number     Number       Type             X           Y           Z
 ---------------------------------------------------------------------
      1          8           0       -2.843565   -0.391359    0.000158
      2          6           0       -0.532507    0.205063    0.000013
      3          6           0        0.353734    1.282794    0.000005
      4          6           0       -0.036776   -1.102309   -0.000001
      5          6           0        1.724935    1.061594   -0.000058
      6          6           0        1.330601   -1.322137   -0.000065
      7          6           0        2.211690   -0.240885   -0.000099
      8          6           0       -1.988206    0.461923    0.000033
      9          1           0       -0.036958    2.294274    0.000031
     10          1           0       -0.739871   -1.925090    0.000031
     11          1           0        2.411509    1.898387   -0.000080
     12          1           0        1.717371   -2.333287   -0.000093
     13          1           0        3.280184   -0.416895   -0.000158
     14          1           0       -2.264533    1.537222    0.000037
 ---------------------------------------------------------------------
 Rotational constants (GHZ):           5.2804136           1.5665946           1.2081580
 Leave Link  202 at Wed Feb  7 14:31:33 2024, MaxMem=  6710886400 cpu:               0.1 elap:               0.0
 (Enter /tmpu/scunam/7/gaussian-2016.03/g1/g16/l301.exe)
 Standard basis: def2TZVP (5D, 7F)
 Ernie: Thresh=  0.10000D-02 Tol=  0.10000D-05 Strict=F.
 There are   324 symmetry adapted cartesian basis functions of A   symmetry.
 There are   284 symmetry adapted basis functions of A   symmetry.
   284 basis functions,   456 primitive gaussians,   324 cartesian basis functions
    28 alpha electrons       28 beta electrons
       nuclear repulsion energy       321.6941581325 Hartrees.
 IExCor=  402 DFT=T Ex+Corr=B3LYP ExCW=0 ScaHFX=  0.200000
 ScaDFX=  0.800000  0.720000  1.000000  0.810000 ScalE2=  1.000000  1.000000
 IRadAn=      5 IRanWt=     -1 IRanGd=            0 ICorTp=0 IEmpDi=  4
 NAtoms=   14 NActive=   14 NUniq=   14 SFac= 1.00D+00 NAtFMM=   60 NAOKFM=F Big=F
 Integral buffers will be    131072 words long.
 Raffenetti 2 integral format.
 Two-electron integral symmetry is turned on.
 Leave Link  301 at Wed Feb  7 14:31:33 2024, MaxMem=  6710886400 cpu:               0.8 elap:               0.1
 (Enter /tmpu/scunam/7/gaussian-2016.03/g1/g16/l302.exe)
 NPDir=0 NMtPBC=     1 NCelOv=     1 NCel=       1 NClECP=     1 NCelD=      1
         NCelK=      1 NCelE2=     1 NClLst=     1 CellRange=     0.0.
 One-electron integrals computed using PRISM.
 One-electron integral symmetry used in STVInt
   1 Symmetry operations used in ECPInt.
 ECPInt:  NShTT=    6328 NPrTT=   19500 LenC2=    6194 LenP2D=   15434.
 LDataN:  DoStor=T MaxTD1= 6 Len=  172
 NBasis=   284 RedAO= T EigKep=  8.80D-06  NBF=   284
 NBsUse=   284 1.00D-06 EigRej= -1.00D+00 NBFU=   284
 Precomputing XC quadrature grid using
 IXCGrd= 4 IRadAn=           5 IRanWt=          -1 IRanGd=           0 AccXCQ= 0.00D+00.
 Generated NRdTot=       0 NPtTot=           0 NUsed=           0 NTot=          32
 NSgBfM=   323   323   323   323   323 MxSgAt=    14 MxSgA2=    14.
 Leave Link  302 at Wed Feb  7 14:31:33 2024, MaxMem=  6710886400 cpu:               4.5 elap:               0.3
 (Enter /tmpu/scunam/7/gaussian-2016.03/g1/g16/l303.exe)
 DipDrv:  MaxL=1.
 Leave Link  303 at Wed Feb  7 14:31:33 2024, MaxMem=  6710886400 cpu:               0.6 elap:               0.1
 (Enter /tmpu/scunam/7/gaussian-2016.03/g1/g16/l401.exe)
 Initial guess from the checkpoint file:  "Benzaldehyde.chk"
 B after Tr=    -0.000000   -0.000000   -0.000000
         Rot=    1.000000    0.000001    0.000010   -0.000005 Ang=   0.00 deg.
 Guess basis will be translated and rotated to current coordinates.
 JPrj=2 DoOrth=T DoCkMO=T.
 Leave Link  401 at Wed Feb  7 14:31:34 2024, MaxMem=  6710886400 cpu:               2.6 elap:               0.2
 (Enter /tmpu/scunam/7/gaussian-2016.03/g1/g16/l502.exe)
 Integral symmetry usage will be decided dynamically.
 Closed shell SCF:
 Using DIIS extrapolation, IDIIS=  1040.
 NGot=  6710886400 LenX=  6710668346 LenY=  6710562929
 Requested convergence on RMS density matrix=1.00D-08 within1024 cycles.
 Requested convergence on MAX density matrix=1.00D-06.
 Requested convergence on             energy=1.00D-06.
 No special actions if energy rises.
 Fock matrices will be formed incrementally for  20 cycles.

 Cycle   1  Pass 1  IDiag  1:
 FoFJK:  IHMeth= 1 ICntrl=       0 DoSepK=F KAlg= 0 I1Cent=           0 FoldK=F
 IRaf= 950000000 NMat=       1 IRICut=       1 DoRegI=T DoRafI=F ISym2E= 0 IDoP0=0 IntGTp=1.
 FoFCou: FMM=F IPFlag=           0 FMFlag=      100000 FMFlg1=           0
         NFxFlg=           0 DoJE=F BraDBF=F KetDBF=F FulRan=T
         wScrn=  0.000000 ICntrl=         0 IOpCl=  0 I1Cent=           0 NGrid=           0
         NMat0=    1 NMatS0=      1 NMatT0=    0 NMatD0=    1 NMtDS0=    0 NMtDT0=    0
 Symmetry not used in FoFCou.
 E= -345.708113327237    
 DIIS: error= 4.00D-06 at cycle   1 NSaved=   1.
 NSaved= 1 IEnMin= 1 EnMin= -345.708113327237     IErMin= 1 ErrMin= 4.00D-06
 ErrMax= 4.00D-06  0.00D+00 EMaxC= 1.00D-01 BMatC= 6.39D-09 BMatP= 6.39D-09
 IDIUse=1 WtCom= 1.00D+00 WtEn= 0.00D+00
 Coeff-Com:  0.100D+01
 Coeff:      0.100D+01
 Gap=     0.750 Goal=   None    Shift=    0.000
 RMSDP=8.16D-07 MaxDP=3.50D-05              OVMax= 3.66D-05

 Cycle   2  Pass 1  IDiag  1:
 RMSU=  8.16D-07    CP:  1.00D+00
 E= -345.708113335465     Delta-E=       -0.000000008228 Rises=F Damp=F
 DIIS: error= 4.47D-07 at cycle   2 NSaved=   2.
 NSaved= 2 IEnMin= 2 EnMin= -345.708113335465     IErMin= 2 ErrMin= 4.47D-07
 ErrMax= 4.47D-07  0.00D+00 EMaxC= 1.00D-01 BMatC= 7.43D-11 BMatP= 6.39D-09
 IDIUse=1 WtCom= 1.00D+00 WtEn= 0.00D+00
 Coeff-Com: -0.387D-01 0.104D+01
 Coeff:     -0.387D-01 0.104D+01
 Gap=     0.191 Goal=   None    Shift=    0.000
 RMSDP=8.60D-08 MaxDP=2.74D-06 DE=-8.23D-09 OVMax= 1.05D-05

 Cycle   3  Pass 1  IDiag  1:
 RMSU=  6.93D-08    CP:  1.00D+00  1.06D+00
 E= -345.708113335620     Delta-E=       -0.000000000155 Rises=F Damp=F
 DIIS: error= 2.85D-07 at cycle   3 NSaved=   3.
 NSaved= 3 IEnMin= 3 EnMin= -345.708113335620     IErMin= 3 ErrMin= 2.85D-07
 ErrMax= 2.85D-07  0.00D+00 EMaxC= 1.00D-01 BMatC= 2.42D-11 BMatP= 7.43D-11
 IDIUse=1 WtCom= 1.00D+00 WtEn= 0.00D+00
 Coeff-Com: -0.193D-01 0.348D+00 0.672D+00
 Coeff:     -0.193D-01 0.348D+00 0.672D+00
 Gap=     0.191 Goal=   None    Shift=    0.000
 RMSDP=5.00D-08 MaxDP=5.87D-06 DE=-1.55D-10 OVMax= 2.34D-06

 Cycle   4  Pass 1  IDiag  1:
 RMSU=  4.58D-08    CP:  1.00D+00  1.06D+00  8.03D-01
 E= -345.708113335628     Delta-E=       -0.000000000008 Rises=F Damp=F
 DIIS: error= 3.29D-07 at cycle   4 NSaved=   4.
 NSaved= 4 IEnMin= 4 EnMin= -345.708113335628     IErMin= 3 ErrMin= 2.85D-07
 ErrMax= 3.29D-07  0.00D+00 EMaxC= 1.00D-01 BMatC= 2.21D-11 BMatP= 2.42D-11
 IDIUse=1 WtCom= 1.00D+00 WtEn= 0.00D+00
 Coeff-Com: -0.691D-02 0.756D-01 0.480D+00 0.451D+00
 Coeff:     -0.691D-02 0.756D-01 0.480D+00 0.451D+00
 Gap=     0.191 Goal=   None    Shift=    0.000
 RMSDP=3.22D-08 MaxDP=3.98D-06 DE=-7.62D-12 OVMax= 1.34D-06

 Cycle   5  Pass 1  IDiag  1:
 RMSU=  1.40D-08    CP:  1.00D+00  1.07D+00  9.70D-01  4.67D-01
 E= -345.708113335647     Delta-E=       -0.000000000020 Rises=F Damp=F
 DIIS: error= 6.71D-08 at cycle   5 NSaved=   5.
 NSaved= 5 IEnMin= 5 EnMin= -345.708113335647     IErMin= 5 ErrMin= 6.71D-08
 ErrMax= 6.71D-08  0.00D+00 EMaxC= 1.00D-01 BMatC= 1.22D-12 BMatP= 2.21D-11
 IDIUse=1 WtCom= 1.00D+00 WtEn= 0.00D+00
 Coeff-Com:  0.525D-03-0.353D-01 0.106D+00 0.228D+00 0.700D+00
 Coeff:      0.525D-03-0.353D-01 0.106D+00 0.228D+00 0.700D+00
 Gap=     0.191 Goal=   None    Shift=    0.000
 RMSDP=7.11D-09 MaxDP=6.24D-07 DE=-1.96D-11 OVMax= 7.77D-07

 SCF Done:  E(RB3LYP) =  -345.708113336     A.U. after    5 cycles
            NFock=  5  Conv=0.71D-08     -V/T= 2.0050
 KE= 3.440044136026D+02 PE=-1.448133392247D+03 EE= 4.367267071761D+02
 Leave Link  502 at Wed Feb  7 14:31:47 2024, MaxMem=  6710886400 cpu:             217.0 elap:              13.6
 (Enter /tmpu/scunam/7/gaussian-2016.03/g1/g16/l701.exe)
 ... and contract with generalized density number  0.
 Compute integral first derivatives.
   1 Symmetry operations used in ECPInt.
 ECPInt:  NShTT=    6328 NPrTT=   19500 LenC2=    6194 LenP2D=   15434.
 LDataN:  DoStor=T MaxTD1= 7 Len=  274
 Leave Link  701 at Wed Feb  7 14:31:47 2024, MaxMem=  6710886400 cpu:               3.9 elap:               0.3
 (Enter /tmpu/scunam/7/gaussian-2016.03/g1/g16/l702.exe)
 L702 exits ... SP integral derivatives will be done elsewhere.
 Leave Link  702 at Wed Feb  7 14:31:48 2024, MaxMem=  6710886400 cpu:               0.3 elap:               0.0
 (Enter /tmpu/scunam/7/gaussian-2016.03/g1/g16/l703.exe)
 Integral derivatives from FoFJK, PRISM(SPDF).
 Compute integral first derivatives, UseDBF=F ICtDFT=           0.
 Calling FoFJK, ICntrl=      2127 FMM=F ISym2X=0 I1Cent= 0 IOpClX= 0 NMat=1 NMatS=1 NMatT=0.
 FoFJK:  IHMeth= 1 ICntrl=    2127 DoSepK=F KAlg= 0 I1Cent=           0 FoldK=F
 IRaf=         0 NMat=       1 IRICut=       1 DoRegI=T DoRafI=F ISym2E= 0 IDoP0=0 IntGTp=1.
 FoFCou: FMM=F IPFlag=           0 FMFlag=      100000 FMFlg1=         800
         NFxFlg=           0 DoJE=F BraDBF=F KetDBF=F FulRan=T
         wScrn=  0.000000 ICntrl=      2127 IOpCl=  0 I1Cent=           0 NGrid=           0
         NMat0=    1 NMatS0=      1 NMatT0=    0 NMatD0=    1 NMtDS0=    0 NMtDT0=    0
 Symmetry not used in FoFCou.
 Leave Link  703 at Wed Feb  7 14:31:59 2024, MaxMem=  6710886400 cpu:             183.2 elap:              11.5
 (Enter /tmpu/scunam/7/gaussian-2016.03/g1/g16/l716.exe)
 Dipole        = 1.27208020D+00 4.76794319D-01-1.00464542D-04
 ***** Axes restored to original set *****
 -------------------------------------------------------------------
 Center     Atomic                   Forces (Hartrees/Bohr)
 Number     Number              X              Y              Z
 -------------------------------------------------------------------
      1        8          -0.000005443    0.000001112    0.000005270
      2        6          -0.000005847    0.000007896    0.000002226
      3        6           0.000007610   -0.000002050    0.000002798
      4        6          -0.000001529   -0.000003988    0.000001247
      5        6          -0.000004428   -0.000004305   -0.000000818
      6        6           0.000004486   -0.000000860   -0.000000691
      7        6          -0.000001021    0.000005249    0.000000009
      8        6           0.000006591   -0.000005142   -0.000014622
      9        1          -0.000001856    0.000000844    0.000000359
     10        1          -0.000001425   -0.000001355    0.000000611
     11        1           0.000001312    0.000000861   -0.000000347
     12        1           0.000000410   -0.000000072   -0.000000246
     13        1          -0.000000567   -0.000000115   -0.000000056
     14        1           0.000001708    0.000001924    0.000004259
 -------------------------------------------------------------------
 Cartesian Forces:  Max     0.000014622 RMS     0.000003960
 Leave Link  716 at Wed Feb  7 14:31:59 2024, MaxMem=  6710886400 cpu:               0.3 elap:               0.0
 (Enter /tmpu/scunam/7/gaussian-2016.03/g1/g16/l103.exe)

 GradGradGradGradGradGradGradGradGradGradGradGradGradGradGradGradGradGrad
 Berny optimization.
 Search for a local minimum.
 Step number   8 out of a maximum of  100
 All quantities printed in internal units (Hartrees-Bohrs-Radians)
 Update second derivatives using D2CorN and points    1    2    3    4    5
                                                          6    8
 DE= -2.14D-09 DEPred=-3.48D-09 R= 6.15D-01
 Trust test= 6.15D-01 RLast= 5.24D-04 DXMaxT set to 3.85D-01
 ITU=  0  0  0  1  1  1  1  0
     Eigenvalues ---    0.00386   0.00766   0.01089   0.01659   0.02607
     Eigenvalues ---    0.03889   0.04833   0.06900   0.07106   0.07246
     Eigenvalues ---    0.07543   0.08646   0.09868   0.10579   0.11177
     Eigenvalues ---    0.13250   0.16784   0.18139   0.21101   0.29353
     Eigenvalues ---    0.30232   0.31178   0.36662   0.43138   0.44643
     Eigenvalues ---    0.58808   0.68401   0.81673   1.02565   1.11130
     Eigenvalues ---    1.22596   1.26117   1.47293   1.57973   1.61057
     Eigenvalues ---    1.92965
 RFO step:  Lambda= 0.00000000D+00 EMin= 3.86120810D-03
 Quartic linear search produced a step of -0.27716.
 B after Tr=    -0.000004   -0.000002    0.000012
         Rot=    1.000000    0.000001    0.000003    0.000001 Ang=   0.00 deg.
 Variable       Old X    -DE/DX   Delta X   Delta X   Delta X     New X
                                 (Linear)    (Quad)   (Total)
    X1        5.43807  -0.00001  -0.00001  -0.00004  -0.00005   5.43802
    Y1       -0.64539   0.00000  -0.00002  -0.00005  -0.00008  -0.64547
    Z1       -0.00044   0.00001  -0.00007   0.00015   0.00013  -0.00031
    X2        1.05342  -0.00001   0.00000  -0.00001  -0.00001   1.05341
    Y2        0.41207   0.00001   0.00001   0.00003   0.00004   0.41211
    Z2       -0.00016   0.00000   0.00000  -0.00004  -0.00002  -0.00019
    X3       -0.65351   0.00001  -0.00001  -0.00001  -0.00001  -0.65353
    Y3        2.42179  -0.00000   0.00001   0.00002   0.00002   2.42181
    Z3       -0.00015   0.00000   0.00001  -0.00001   0.00001  -0.00014
    X4        0.15605  -0.00000   0.00000   0.00001   0.00001   0.15605
    Y4       -2.07309  -0.00000   0.00001   0.00001   0.00003  -2.07307
    Z4       -0.00014   0.00000   0.00002  -0.00004  -0.00000  -0.00014
    X5       -3.23773  -0.00000  -0.00001  -0.00001  -0.00002  -3.23775
    Y5        1.96261  -0.00000   0.00000  -0.00001  -0.00000   1.96261
    Z5       -0.00003  -0.00000  -0.00001   0.00003   0.00002  -0.00002
    X6       -2.42099   0.00000   0.00000   0.00002   0.00002  -2.42097
    Y6       -2.52956  -0.00000   0.00001   0.00000   0.00001  -2.52955
    Z6       -0.00002  -0.00000   0.00001  -0.00002  -0.00001  -0.00003
    X7       -4.11830  -0.00000   0.00000   0.00000  -0.00000  -4.11830
    Y7       -0.51303   0.00001  -0.00000  -0.00000  -0.00000  -0.51304
    Z7        0.00005   0.00000  -0.00001   0.00002  -0.00000   0.00005
    X8        3.79623   0.00001   0.00001   0.00001   0.00001   3.79624
    Y8        0.94116  -0.00001  -0.00001  -0.00001  -0.00002   0.94115
    Z8       -0.00020  -0.00001  -0.00005  -0.00005  -0.00007  -0.00027
    X9        0.05429  -0.00000  -0.00002  -0.00004  -0.00006   0.05423
    Y9        4.34471   0.00000   0.00002   0.00003   0.00004   4.34475
    Z9       -0.00020   0.00000   0.00002  -0.00000   0.00002  -0.00018
   X10        1.50927  -0.00000   0.00000   0.00002   0.00002   1.50929
   Y10       -3.60659  -0.00000   0.00001   0.00003   0.00004  -3.60656
   Z10       -0.00020   0.00000   0.00003  -0.00006  -0.00000  -0.00020
   X11       -4.56016   0.00000  -0.00002  -0.00000  -0.00002  -4.56018
   Y11        3.52309   0.00000  -0.00001  -0.00000  -0.00001   3.52308
   Z11        0.00001  -0.00000  -0.00002   0.00007   0.00003   0.00004
   X12       -3.12139   0.00000   0.00001   0.00004   0.00004  -3.12135
   Y12       -4.45174  -0.00000   0.00000  -0.00001  -0.00000  -4.45174
   Z12        0.00003  -0.00000   0.00002  -0.00004  -0.00002   0.00001
   X13       -6.13191  -0.00000   0.00000   0.00000   0.00000  -6.13191
   Y13       -0.87772  -0.00000  -0.00001  -0.00001  -0.00002  -0.87774
   Z13        0.00016  -0.00000  -0.00003   0.00005  -0.00000   0.00016
   X14        4.28602   0.00000   0.00003   0.00005   0.00009   4.28610
   Y14        2.98123   0.00000  -0.00002  -0.00001  -0.00003   2.98120
   Z14       -0.00021   0.00000   0.00007  -0.00019  -0.00008  -0.00029
         Item               Value     Threshold  Converged?
 Maximum Force            0.000015     0.000002     NO 
 RMS     Force            0.000004     0.000001     NO 
 Maximum Displacement     0.000130     0.000006     NO 
 RMS     Displacement     0.000038     0.000004     NO 
 Predicted change in Energy=-1.254449D-09
 Lowest energy point so far.  Saving SCF results.
 GradGradGradGradGradGradGradGradGradGradGradGradGradGradGradGradGradGrad

 Leave Link  103 at Wed Feb  7 14:31:59 2024, MaxMem=  6710886400 cpu:               0.2 elap:               0.0
 (Enter /tmpu/scunam/7/gaussian-2016.03/g1/g16/l202.exe)
                          Input orientation:                          
 ---------------------------------------------------------------------
 Center     Atomic      Atomic             Coordinates (Angstroms)
 Number     Number       Type             X           Y           Z
 ---------------------------------------------------------------------
      1          8           0        2.877674   -0.341566   -0.000164
      2          6           0        0.557443    0.218079   -0.000099
      3          6           0       -0.345833    1.281568   -0.000073
      4          6           0        0.082580   -1.097021   -0.000076
      5          6           0       -1.713344    1.038569   -0.000009
      6          6           0       -1.281121   -1.338582   -0.000014
      7          6           0       -2.179309   -0.271488    0.000025
      8          6           0        2.008881    0.498033   -0.000145
      9          1           0        0.028698    2.299143   -0.000093
     10          1           0        0.798679   -1.908507   -0.000107
     11          1           0       -2.413144    1.864332    0.000019
     12          1           0       -1.651747   -2.355761    0.000006
     13          1           0       -3.244867   -0.464482    0.000083
     14          1           0        2.268109    1.577583   -0.000153
 ---------------------------------------------------------------------
                    Distance matrix (angstroms):
                    1          2          3          4          5
     1  O    0.000000
     2  C    2.386771   0.000000
     3  C    3.609094   1.395319   0.000000
     4  C    2.895386   1.398207   2.416862   0.000000
     5  C    4.793977   2.414472   1.388933   2.790356   0.000000
     6  C    4.276637   2.409048   2.782077   1.384931   2.416125
     7  C    5.057469   2.780195   2.402835   2.407831   1.390457
     8  C    1.208192   1.478191   2.481654   2.500966   3.761268
     9  H    3.884586   2.147184   1.084311   3.396591   2.150292
    10  H    2.603368   2.140225   3.389172   1.082270   3.872405
    11  H    5.732255   3.396254   2.147881   3.872758   1.082408
    12  H    4.957080   3.391927   3.864657   2.142969   3.394888
    13  H    6.123775   3.863088   3.384241   3.387036   2.145862
    14  H    2.013629   2.185092   2.630649   3.453989   4.017773
                    6          7          8          9         10
     6  C    0.000000
     7  C    1.394787   0.000000
     8  C    3.767926   4.258298   0.000000
     9  H    3.866351   3.388722   2.676775   0.000000
    10  H    2.156475   3.398271   2.693701   4.277522   0.000000
    11  H    3.397078   2.148583   4.628292   2.480252   4.954809
    12  H    1.082597   2.150003   4.641588   4.948941   2.490909
    13  H    2.149500   1.082894   5.341189   4.284139   4.293655
    14  H    4.593588   4.816491   1.110238   2.352788   3.783127
                   11         12         13         14
    11  H    0.000000
    12  H    4.288229   0.000000
    13  H    2.472881   2.472846   0.000000
    14  H    4.690027   5.553059   5.879024   0.000000
 Stoichiometry    C7H6O
 Framework group  C1[X(C7H6O)]
 Deg. of freedom    36
 Full point group                 C1      NOp   1
 RotChk:  IX=2 Diff= 1.43D-05
 Largest Abelian subgroup         C1      NOp   1
 Largest concise Abelian subgroup C1      NOp   1
                         Standard orientation:                         
 ---------------------------------------------------------------------
 Center     Atomic      Atomic             Coordinates (Angstroms)
 Number     Number       Type             X           Y           Z
 ---------------------------------------------------------------------
      1          8           0       -2.843546   -0.391369    0.000094
      2          6           0       -0.532504    0.205091    0.000029
      3          6           0        0.353750    1.282805    0.000003
      4          6           0       -0.036795   -1.102294    0.000006
      5          6           0        1.724952    1.061576   -0.000061
      6          6           0        1.330574   -1.322145   -0.000055
      7          6           0        2.211685   -0.240907   -0.000094
      8          6           0       -1.988210    0.461935    0.000075
      9          1           0       -0.036909    2.294297    0.000024
     10          1           0       -0.739903   -1.925062    0.000037
     11          1           0        2.411536    1.898361   -0.000089
     12          1           0        1.717324   -2.333303   -0.000075
     13          1           0        3.280176   -0.416937   -0.000152
     14          1           0       -2.264566    1.537228    0.000084
 ---------------------------------------------------------------------
 Rotational constants (GHZ):           5.2803967           1.5666034           1.2081623
 Leave Link  202 at Wed Feb  7 14:31:59 2024, MaxMem=  6710886400 cpu:               0.1 elap:               0.0
 (Enter /tmpu/scunam/7/gaussian-2016.03/g1/g16/l301.exe)
 Standard basis: def2TZVP (5D, 7F)
 Ernie: Thresh=  0.10000D-02 Tol=  0.10000D-05 Strict=F.
 There are   324 symmetry adapted cartesian basis functions of A   symmetry.
 There are   284 symmetry adapted basis functions of A   symmetry.
   284 basis functions,   456 primitive gaussians,   324 cartesian basis functions
    28 alpha electrons       28 beta electrons
       nuclear repulsion energy       321.6943334294 Hartrees.
 IExCor=  402 DFT=T Ex+Corr=B3LYP ExCW=0 ScaHFX=  0.200000
 ScaDFX=  0.800000  0.720000  1.000000  0.810000 ScalE2=  1.000000  1.000000
 IRadAn=      5 IRanWt=     -1 IRanGd=            0 ICorTp=0 IEmpDi=  4
 NAtoms=   14 NActive=   14 NUniq=   14 SFac= 1.00D+00 NAtFMM=   60 NAOKFM=F Big=F
 Integral buffers will be    131072 words long.
 Raffenetti 2 integral format.
 Two-electron integral symmetry is turned on.
 Leave Link  301 at Wed Feb  7 14:31:59 2024, MaxMem=  6710886400 cpu:               0.8 elap:               0.1
 (Enter /tmpu/scunam/7/gaussian-2016.03/g1/g16/l302.exe)
 NPDir=0 NMtPBC=     1 NCelOv=     1 NCel=       1 NClECP=     1 NCelD=      1
         NCelK=      1 NCelE2=     1 NClLst=     1 CellRange=     0.0.
 One-electron integrals computed using PRISM.
 One-electron integral symmetry used in STVInt
   1 Symmetry operations used in ECPInt.
 ECPInt:  NShTT=    6328 NPrTT=   19500 LenC2=    6194 LenP2D=   15434.
 LDataN:  DoStor=T MaxTD1= 6 Len=  172
 NBasis=   284 RedAO= T EigKep=  8.80D-06  NBF=   284
 NBsUse=   284 1.00D-06 EigRej= -1.00D+00 NBFU=   284
 Precomputing XC quadrature grid using
 IXCGrd= 4 IRadAn=           5 IRanWt=          -1 IRanGd=           0 AccXCQ= 0.00D+00.
 Generated NRdTot=       0 NPtTot=           0 NUsed=           0 NTot=          32
 NSgBfM=   323   323   323   323   323 MxSgAt=    14 MxSgA2=    14.
 Leave Link  302 at Wed Feb  7 14:32:00 2024, MaxMem=  6710886400 cpu:               4.5 elap:               0.3
 (Enter /tmpu/scunam/7/gaussian-2016.03/g1/g16/l303.exe)
 DipDrv:  MaxL=1.
 Leave Link  303 at Wed Feb  7 14:32:00 2024, MaxMem=  6710886400 cpu:               0.6 elap:               0.1
 (Enter /tmpu/scunam/7/gaussian-2016.03/g1/g16/l401.exe)
 Initial guess from the checkpoint file:  "Benzaldehyde.chk"
 B after Tr=     0.000000    0.000000   -0.000000
         Rot=    1.000000   -0.000001    0.000003    0.000003 Ang=  -0.00 deg.
 Guess basis will be translated and rotated to current coordinates.
 JPrj=2 DoOrth=T DoCkMO=T.
 Leave Link  401 at Wed Feb  7 14:32:00 2024, MaxMem=  6710886400 cpu:               2.5 elap:               0.2
 (Enter /tmpu/scunam/7/gaussian-2016.03/g1/g16/l502.exe)
 Integral symmetry usage will be decided dynamically.
 Closed shell SCF:
 Using DIIS extrapolation, IDIIS=  1040.
 NGot=  6710886400 LenX=  6710668346 LenY=  6710562929
 Requested convergence on RMS density matrix=1.00D-08 within1024 cycles.
 Requested convergence on MAX density matrix=1.00D-06.
 Requested convergence on             energy=1.00D-06.
 No special actions if energy rises.
 Fock matrices will be formed incrementally for  20 cycles.

 Cycle   1  Pass 1  IDiag  1:
 FoFJK:  IHMeth= 1 ICntrl=       0 DoSepK=F KAlg= 0 I1Cent=           0 FoldK=F
 IRaf= 950000000 NMat=       1 IRICut=       1 DoRegI=T DoRafI=F ISym2E= 0 IDoP0=0 IntGTp=1.
 FoFCou: FMM=F IPFlag=           0 FMFlag=      100000 FMFlg1=           0
         NFxFlg=           0 DoJE=F BraDBF=F KetDBF=F FulRan=T
         wScrn=  0.000000 ICntrl=         0 IOpCl=  0 I1Cent=           0 NGrid=           0
         NMat0=    1 NMatS0=      1 NMatT0=    0 NMatD0=    1 NMtDS0=    0 NMtDT0=    0
 Symmetry not used in FoFCou.
 E= -345.708113330564    
 DIIS: error= 4.38D-06 at cycle   1 NSaved=   1.
 NSaved= 1 IEnMin= 1 EnMin= -345.708113330564     IErMin= 1 ErrMin= 4.38D-06
 ErrMax= 4.38D-06  0.00D+00 EMaxC= 1.00D-01 BMatC= 4.79D-09 BMatP= 4.79D-09
 IDIUse=1 WtCom= 1.00D+00 WtEn= 0.00D+00
 Coeff-Com:  0.100D+01
 Coeff:      0.100D+01
 Gap=     0.750 Goal=   None    Shift=    0.000
 RMSDP=3.45D-07 MaxDP=1.05D-05              OVMax= 3.41D-05

 Cycle   2  Pass 1  IDiag  1:
 RMSU=  3.44D-07    CP:  1.00D+00
 E= -345.708113336453     Delta-E=       -0.000000005889 Rises=F Damp=F
 DIIS: error= 5.45D-07 at cycle   2 NSaved=   2.
 NSaved= 2 IEnMin= 2 EnMin= -345.708113336453     IErMin= 2 ErrMin= 5.45D-07
 ErrMax= 5.45D-07  0.00D+00 EMaxC= 1.00D-01 BMatC= 9.85D-11 BMatP= 4.79D-09
 IDIUse=1 WtCom= 1.00D+00 WtEn= 0.00D+00
 Coeff-Com: -0.465D-01 0.105D+01
 Coeff:     -0.465D-01 0.105D+01
 Gap=     0.191 Goal=   None    Shift=    0.000
 RMSDP=9.88D-08 MaxDP=1.03D-05 DE=-5.89D-09 OVMax= 4.55D-06

 Cycle   3  Pass 1  IDiag  1:
 RMSU=  9.49D-08    CP:  1.00D+00  1.02D+00
 E= -345.708113336437     Delta-E=        0.000000000016 Rises=F Damp=F
 DIIS: error= 8.86D-07 at cycle   3 NSaved=   3.
 NSaved= 3 IEnMin= 2 EnMin= -345.708113336453     IErMin= 2 ErrMin= 5.45D-07
 ErrMax= 8.86D-07  0.00D+00 EMaxC= 1.00D-01 BMatC= 1.73D-10 BMatP= 9.85D-11
 IDIUse=1 WtCom= 1.00D+00 WtEn= 0.00D+00
 Coeff-Com: -0.385D-01 0.631D+00 0.407D+00
 Coeff:     -0.385D-01 0.631D+00 0.407D+00
 Gap=     0.191 Goal=   None    Shift=    0.000
 RMSDP=9.03D-08 MaxDP=1.12D-05 DE= 1.58D-11 OVMax= 3.99D-06

 Cycle   4  Pass 1  IDiag  1:
 RMSU=  3.41D-08    CP:  1.00D+00  1.07D+00  1.86D-01
 E= -345.708113336555     Delta-E=       -0.000000000117 Rises=F Damp=F
 DIIS: error= 3.41D-07 at cycle   4 NSaved=   4.
 NSaved= 4 IEnMin= 4 EnMin= -345.708113336555     IErMin= 4 ErrMin= 3.41D-07
 ErrMax= 3.41D-07  0.00D+00 EMaxC= 1.00D-01 BMatC= 1.85D-11 BMatP= 9.85D-11
 IDIUse=1 WtCom= 1.00D+00 WtEn= 0.00D+00
 Coeff-Com: -0.991D-02 0.153D+00 0.255D+00 0.602D+00
 Coeff:     -0.991D-02 0.153D+00 0.255D+00 0.602D+00
 Gap=     0.191 Goal=   None    Shift=    0.000
 RMSDP=2.30D-08 MaxDP=2.89D-06 DE=-1.17D-10 OVMax= 1.18D-06

 Cycle   5  Pass 1  IDiag  1:
 RMSU=  6.94D-09    CP:  1.00D+00  1.06D+00  3.70D-01  6.70D-01
 E= -345.708113336566     Delta-E=       -0.000000000011 Rises=F Damp=F
 DIIS: error= 8.80D-08 at cycle   5 NSaved=   5.
 NSaved= 5 IEnMin= 5 EnMin= -345.708113336566     IErMin= 5 ErrMin= 8.80D-08
 ErrMax= 8.80D-08  0.00D+00 EMaxC= 1.00D-01 BMatC= 9.63D-13 BMatP= 1.85D-11
 IDIUse=1 WtCom= 1.00D+00 WtEn= 0.00D+00
 Coeff-Com: -0.286D-02 0.372D-01 0.106D+00 0.312D+00 0.548D+00
 Coeff:     -0.286D-02 0.372D-01 0.106D+00 0.312D+00 0.548D+00
 Gap=     0.191 Goal=   None    Shift=    0.000
 RMSDP=4.33D-09 MaxDP=3.40D-07 DE=-1.10D-11 OVMax= 5.87D-07

 SCF Done:  E(RB3LYP) =  -345.708113337     A.U. after    5 cycles
            NFock=  5  Conv=0.43D-08     -V/T= 2.0050
 KE= 3.440044121823D+02 PE=-1.448133761829D+03 EE= 4.367269028803D+02
 Leave Link  502 at Wed Feb  7 14:32:13 2024, MaxMem=  6710886400 cpu:             216.8 elap:              13.6
 (Enter /tmpu/scunam/7/gaussian-2016.03/g1/g16/l701.exe)
 ... and contract with generalized density number  0.
 Compute integral first derivatives.
   1 Symmetry operations used in ECPInt.
 ECPInt:  NShTT=    6328 NPrTT=   19500 LenC2=    6194 LenP2D=   15434.
 LDataN:  DoStor=T MaxTD1= 7 Len=  274
 Leave Link  701 at Wed Feb  7 14:32:14 2024, MaxMem=  6710886400 cpu:               3.9 elap:               0.3
 (Enter /tmpu/scunam/7/gaussian-2016.03/g1/g16/l702.exe)
 L702 exits ... SP integral derivatives will be done elsewhere.
 Leave Link  702 at Wed Feb  7 14:32:14 2024, MaxMem=  6710886400 cpu:               0.3 elap:               0.0
 (Enter /tmpu/scunam/7/gaussian-2016.03/g1/g16/l703.exe)
 Integral derivatives from FoFJK, PRISM(SPDF).
 Compute integral first derivatives, UseDBF=F ICtDFT=           0.
 Calling FoFJK, ICntrl=      2127 FMM=F ISym2X=0 I1Cent= 0 IOpClX= 0 NMat=1 NMatS=1 NMatT=0.
 FoFJK:  IHMeth= 1 ICntrl=    2127 DoSepK=F KAlg= 0 I1Cent=           0 FoldK=F
 IRaf=         0 NMat=       1 IRICut=       1 DoRegI=T DoRafI=F ISym2E= 0 IDoP0=0 IntGTp=1.
 FoFCou: FMM=F IPFlag=           0 FMFlag=      100000 FMFlg1=         800
         NFxFlg=           0 DoJE=F BraDBF=F KetDBF=F FulRan=T
         wScrn=  0.000000 ICntrl=      2127 IOpCl=  0 I1Cent=           0 NGrid=           0
         NMat0=    1 NMatS0=      1 NMatT0=    0 NMatD0=    1 NMtDS0=    0 NMtDT0=    0
 Symmetry not used in FoFCou.
 Leave Link  703 at Wed Feb  7 14:32:25 2024, MaxMem=  6710886400 cpu:             183.4 elap:              11.5
 (Enter /tmpu/scunam/7/gaussian-2016.03/g1/g16/l716.exe)
 Dipole        = 1.27204385D+00 4.76809487D-01-4.30419428D-05
 ***** Axes restored to original set *****
 -------------------------------------------------------------------
 Center     Atomic                   Forces (Hartrees/Bohr)
 Number     Number              X              Y              Z
 -------------------------------------------------------------------
      1        8          -0.000002880    0.000000641   -0.000000341
      2        6          -0.000002425    0.000003091   -0.000000533
      3        6           0.000003906   -0.000001367    0.000000723
      4        6          -0.000000987   -0.000001352   -0.000000131
      5        6          -0.000001815   -0.000001789    0.000000149
      6        6           0.000001965   -0.000000453    0.000000129
      7        6          -0.000000835    0.000002869   -0.000000137
      8        6           0.000003560   -0.000002411    0.000000542
      9        1          -0.000000602    0.000000461   -0.000000062
     10        1          -0.000001015   -0.000001153    0.000000282
     11        1           0.000001000    0.000000582   -0.000000097
     12        1          -0.000000037   -0.000000051    0.000000047
     13        1          -0.000000385    0.000000040   -0.000000268
     14        1           0.000000550    0.000000893   -0.000000303
 -------------------------------------------------------------------
 Cartesian Forces:  Max     0.000003906 RMS     0.000001457
 Leave Link  716 at Wed Feb  7 14:32:25 2024, MaxMem=  6710886400 cpu:               0.3 elap:               0.0
 (Enter /tmpu/scunam/7/gaussian-2016.03/g1/g16/l103.exe)

 GradGradGradGradGradGradGradGradGradGradGradGradGradGradGradGradGradGrad
 Berny optimization.
 Search for a local minimum.
 Step number   9 out of a maximum of  100
 All quantities printed in internal units (Hartrees-Bohrs-Radians)
 Update second derivatives using D2CorN and points    1    2    3    4    5
                                                          6    9
 DE= -9.18D-10 DEPred=-1.25D-09 R= 7.32D-01
 Trust test= 7.32D-01 RLast= 2.46D-04 DXMaxT set to 3.85D-01
 ITU=  0  0  0  0  1  1  1  1  0
     Eigenvalues ---    0.00310   0.00765   0.01110   0.01659   0.02607
     Eigenvalues ---    0.03889   0.04892   0.06896   0.07105   0.07344
     Eigenvalues ---    0.07674   0.08677   0.09870   0.10766   0.11175
     Eigenvalues ---    0.13353   0.16842   0.18209   0.21118   0.29345
     Eigenvalues ---    0.30232   0.31195   0.36611   0.43132   0.44645
     Eigenvalues ---    0.58787   0.68395   0.81657   1.02545   1.11075
     Eigenvalues ---    1.22604   1.26068   1.47150   1.57968   1.61019
     Eigenvalues ---    1.92107
 RFO step:  Lambda= 0.00000000D+00 EMin= 3.10092104D-03
 Quartic linear search produced a step of  0.42525.
 B after Tr=    -0.000003   -0.000001    0.000022
         Rot=    1.000000    0.000000    0.000005    0.000000 Ang=   0.00 deg.
 Variable       Old X    -DE/DX   Delta X   Delta X   Delta X     New X
                                 (Linear)    (Quad)   (Total)
    X1        5.43802  -0.00000  -0.00002  -0.00003  -0.00005   5.43796
    Y1       -0.64547   0.00000  -0.00003  -0.00003  -0.00007  -0.64554
    Z1       -0.00031  -0.00000   0.00006   0.00019   0.00032   0.00001
    X2        1.05341  -0.00000  -0.00000   0.00000  -0.00001   1.05341
    Y2        0.41211   0.00000   0.00002   0.00003   0.00004   0.41215
    Z2       -0.00019  -0.00000  -0.00001  -0.00005  -0.00002  -0.00021
    X3       -0.65353   0.00000  -0.00001  -0.00001  -0.00001  -0.65354
    Y3        2.42181  -0.00000   0.00001   0.00001   0.00002   2.42183
    Z3       -0.00014   0.00000   0.00001  -0.00003  -0.00001  -0.00014
    X4        0.15605  -0.00000   0.00000   0.00001   0.00000   0.15606
    Y4       -2.07307  -0.00000   0.00001   0.00001   0.00002  -2.07305
    Z4       -0.00014  -0.00000  -0.00000  -0.00006  -0.00004  -0.00018
    X5       -3.23775  -0.00000  -0.00001  -0.00001  -0.00002  -3.23777
    Y5        1.96261  -0.00000  -0.00000  -0.00001  -0.00001   1.96260
    Z5       -0.00002   0.00000   0.00001   0.00005   0.00004   0.00002
    X6       -2.42097   0.00000   0.00001   0.00001   0.00002  -2.42095
    Y6       -2.52955  -0.00000   0.00000   0.00000   0.00001  -2.52955
    Z6       -0.00003   0.00000  -0.00000  -0.00003  -0.00004  -0.00007
    X7       -4.11830  -0.00000  -0.00000  -0.00000  -0.00001  -4.11830
    Y7       -0.51304   0.00000  -0.00000  -0.00001  -0.00000  -0.51304
    Z7        0.00005  -0.00000  -0.00000   0.00003   0.00001   0.00006
    X8        3.79624   0.00000   0.00000   0.00000   0.00001   3.79624
    Y8        0.94115  -0.00000  -0.00001  -0.00000  -0.00002   0.94113
    Z8       -0.00027   0.00000  -0.00003   0.00001   0.00004  -0.00024
    X9        0.05423  -0.00000  -0.00002  -0.00003  -0.00005   0.05418
    Y9        4.34475   0.00000   0.00002   0.00002   0.00003   4.34478
    Z9       -0.00018  -0.00000   0.00001  -0.00003   0.00000  -0.00018
   X10        1.50929  -0.00000   0.00001   0.00001   0.00001   1.50930
   Y10       -3.60656  -0.00000   0.00001   0.00002   0.00003  -3.60652
   Z10       -0.00020   0.00000  -0.00000  -0.00010  -0.00006  -0.00026
   X11       -4.56018   0.00000  -0.00001  -0.00000  -0.00001  -4.56019
   Y11        3.52308   0.00000  -0.00000  -0.00000  -0.00000   3.52308
   Z11        0.00004  -0.00000   0.00001   0.00011   0.00009   0.00013
   X12       -3.12135  -0.00000   0.00002   0.00003   0.00004  -3.12131
   Y12       -4.45174  -0.00000  -0.00000  -0.00000  -0.00000  -4.45175
   Z12        0.00001   0.00000  -0.00001  -0.00006  -0.00007  -0.00006
   X13       -6.13191  -0.00000   0.00000  -0.00000  -0.00000  -6.13191
   Y13       -0.87774   0.00000  -0.00001  -0.00002  -0.00002  -0.87776
   Z13        0.00016  -0.00000  -0.00000   0.00008   0.00003   0.00019
   X14        4.28610   0.00000   0.00004   0.00005   0.00008   4.28619
   Y14        2.98120   0.00000  -0.00001  -0.00001  -0.00003   2.98117
   Z14       -0.00029  -0.00000  -0.00003  -0.00033  -0.00030  -0.00059
         Item               Value     Threshold  Converged?
 Maximum Force            0.000004     0.000002     NO 
 RMS     Force            0.000001     0.000001     NO 
 Maximum Displacement     0.000324     0.000006     NO 
 RMS     Displacement     0.000077     0.000004     NO 
 Predicted change in Energy=-4.606616D-10
 Lowest energy point so far.  Saving SCF results.
 GradGradGradGradGradGradGradGradGradGradGradGradGradGradGradGradGradGrad

 Leave Link  103 at Wed Feb  7 14:32:25 2024, MaxMem=  6710886400 cpu:               0.2 elap:               0.0
 (Enter /tmpu/scunam/7/gaussian-2016.03/g1/g16/l202.exe)
                          Input orientation:                          
 ---------------------------------------------------------------------
 Center     Atomic      Atomic             Coordinates (Angstroms)
 Number     Number       Type             X           Y           Z
 ---------------------------------------------------------------------
      1          8           0        2.877647   -0.341604    0.000008
      2          6           0        0.557440    0.218100   -0.000111
      3          6           0       -0.345840    1.281579   -0.000076
      4          6           0        0.082583   -1.097008   -0.000097
      5          6           0       -1.713354    1.038565    0.000012
      6          6           0       -1.281112   -1.338579   -0.000035
      7          6           0       -2.179312   -0.271490    0.000031
      8          6           0        2.008885    0.498025   -0.000125
      9          1           0        0.028669    2.299161   -0.000093
     10          1           0        0.798686   -1.908491   -0.000138
     11          1           0       -2.413151    1.864331    0.000069
     12          1           0       -1.651725   -2.355763   -0.000033
     13          1           0       -3.244869   -0.464493    0.000101
     14          1           0        2.268153    1.577567   -0.000312
 ---------------------------------------------------------------------
                    Distance matrix (angstroms):
                    1          2          3          4          5
     1  O    0.000000
     2  C    2.386761   0.000000
     3  C    3.609098   1.395314   0.000000
     4  C    2.895345   1.398213   2.416862   0.000000
     5  C    4.793971   2.414470   1.388938   2.790351   0.000000
     6  C    4.276592   2.409050   2.782078   1.384926   2.416122
     7  C    5.057445   2.780200   2.402840   2.407831   1.390454
     8  C    1.208191   1.478191   2.481670   2.500954   3.761282
     9  H    3.884626   2.147187   1.084312   3.396597   2.150290
    10  H    2.603308   2.140231   3.389171   1.082269   3.872399
    11  H    5.732250   3.396246   2.147877   3.872753   1.082408
    12  H    4.957020   3.391929   3.864659   2.142962   3.394887
    13  H    6.123749   3.863093   3.384248   3.387035   2.145861
    14  H    2.013629   2.185107   2.630698   3.453994   4.017826
                    6          7          8          9         10
     6  C    0.000000
     7  C    1.394791   0.000000
     8  C    3.767916   4.258303   0.000000
     9  H    3.866352   3.388721   2.676816   0.000000
    10  H    2.156469   3.398270   2.693677   4.277529   0.000000
    11  H    3.397079   2.148584   4.628303   2.480234   4.954804
    12  H    1.082597   2.150009   4.641569   4.948943   2.490896
    13  H    2.149503   1.082895   5.341195   4.284138   4.293653
    14  H    4.593604   4.816530   1.110240   2.352868   3.783112
                   11         12         13         14
    11  H    0.000000
    12  H    4.288235   0.000000
    13  H    2.472889   2.472854   0.000000
    14  H    4.690079   5.553065   5.879066   0.000000
 Stoichiometry    C7H6O
 Framework group  C1[X(C7H6O)]
 Deg. of freedom    36
 Full point group                 C1      NOp   1
 RotChk:  IX=0 Diff= 1.27D-05
 Largest Abelian subgroup         C1      NOp   1
 Largest concise Abelian subgroup C1      NOp   1
                         Standard orientation:                         
 ---------------------------------------------------------------------
 Center     Atomic      Atomic             Coordinates (Angstroms)
 Number     Number       Type             X           Y           Z
 ---------------------------------------------------------------------
      1          8           0       -2.843526   -0.391380   -0.000057
      2          6           0       -0.532504    0.205118    0.000062
      3          6           0        0.353765    1.282814    0.000027
      4          6           0       -0.036812   -1.102279    0.000048
      5          6           0        1.724967    1.061559   -0.000061
      6          6           0        1.330549   -1.322152   -0.000014
      7          6           0        2.211681   -0.240927   -0.000081
      8          6           0       -1.988213    0.461947    0.000076
      9          1           0       -0.036865    2.294318    0.000043
     10          1           0       -0.739931   -1.925037    0.000088
     11          1           0        2.411556    1.898340   -0.000119
     12          1           0        1.717277   -2.333319   -0.000017
     13          1           0        3.280170   -0.416976   -0.000150
     14          1           0       -2.264601    1.537233    0.000263
 ---------------------------------------------------------------------
 Rotational constants (GHZ):           5.2803835           1.5666120           1.2081667
 Leave Link  202 at Wed Feb  7 14:32:25 2024, MaxMem=  6710886400 cpu:               0.1 elap:               0.0
 (Enter /tmpu/scunam/7/gaussian-2016.03/g1/g16/l301.exe)
 Standard basis: def2TZVP (5D, 7F)
 Ernie: Thresh=  0.10000D-02 Tol=  0.10000D-05 Strict=F.
 There are   324 symmetry adapted cartesian basis functions of A   symmetry.
 There are   284 symmetry adapted basis functions of A   symmetry.
   284 basis functions,   456 primitive gaussians,   324 cartesian basis functions
    28 alpha electrons       28 beta electrons
       nuclear repulsion energy       321.6945198631 Hartrees.
 IExCor=  402 DFT=T Ex+Corr=B3LYP ExCW=0 ScaHFX=  0.200000
 ScaDFX=  0.800000  0.720000  1.000000  0.810000 ScalE2=  1.000000  1.000000
 IRadAn=      5 IRanWt=     -1 IRanGd=            0 ICorTp=0 IEmpDi=  4
 NAtoms=   14 NActive=   14 NUniq=   14 SFac= 1.00D+00 NAtFMM=   60 NAOKFM=F Big=F
 Integral buffers will be    131072 words long.
 Raffenetti 2 integral format.
 Two-electron integral symmetry is turned on.
 Leave Link  301 at Wed Feb  7 14:32:25 2024, MaxMem=  6710886400 cpu:               0.9 elap:               0.1
 (Enter /tmpu/scunam/7/gaussian-2016.03/g1/g16/l302.exe)
 NPDir=0 NMtPBC=     1 NCelOv=     1 NCel=       1 NClECP=     1 NCelD=      1
         NCelK=      1 NCelE2=     1 NClLst=     1 CellRange=     0.0.
 One-electron integrals computed using PRISM.
 One-electron integral symmetry used in STVInt
   1 Symmetry operations used in ECPInt.
 ECPInt:  NShTT=    6328 NPrTT=   19500 LenC2=    6194 LenP2D=   15434.
 LDataN:  DoStor=T MaxTD1= 6 Len=  172
 NBasis=   284 RedAO= T EigKep=  8.80D-06  NBF=   284
 NBsUse=   284 1.00D-06 EigRej= -1.00D+00 NBFU=   284
 Precomputing XC quadrature grid using
 IXCGrd= 4 IRadAn=           5 IRanWt=          -1 IRanGd=           0 AccXCQ= 0.00D+00.
 Generated NRdTot=       0 NPtTot=           0 NUsed=           0 NTot=          32
 NSgBfM=   323   323   323   323   323 MxSgAt=    14 MxSgA2=    14.
 Leave Link  302 at Wed Feb  7 14:32:26 2024, MaxMem=  6710886400 cpu:               4.5 elap:               0.3
 (Enter /tmpu/scunam/7/gaussian-2016.03/g1/g16/l303.exe)
 DipDrv:  MaxL=1.
 Leave Link  303 at Wed Feb  7 14:32:26 2024, MaxMem=  6710886400 cpu:               0.6 elap:               0.1
 (Enter /tmpu/scunam/7/gaussian-2016.03/g1/g16/l401.exe)
 Initial guess from the checkpoint file:  "Benzaldehyde.chk"
 B after Tr=     0.000000   -0.000000    0.000000
         Rot=    1.000000   -0.000001    0.000010    0.000003 Ang=  -0.00 deg.
 Guess basis will be translated and rotated to current coordinates.
 JPrj=2 DoOrth=T DoCkMO=T.
 Leave Link  401 at Wed Feb  7 14:32:26 2024, MaxMem=  6710886400 cpu:               2.6 elap:               0.2
 (Enter /tmpu/scunam/7/gaussian-2016.03/g1/g16/l502.exe)
 Integral symmetry usage will be decided dynamically.
 Closed shell SCF:
 Using DIIS extrapolation, IDIIS=  1040.
 NGot=  6710886400 LenX=  6710668346 LenY=  6710562929
 Requested convergence on RMS density matrix=1.00D-08 within1024 cycles.
 Requested convergence on MAX density matrix=1.00D-06.
 Requested convergence on             energy=1.00D-06.
 No special actions if energy rises.
 Fock matrices will be formed incrementally for  20 cycles.

 Cycle   1  Pass 1  IDiag  1:
 FoFJK:  IHMeth= 1 ICntrl=       0 DoSepK=F KAlg= 0 I1Cent=           0 FoldK=F
 IRaf= 950000000 NMat=       1 IRICut=       1 DoRegI=T DoRafI=F ISym2E= 0 IDoP0=0 IntGTp=1.
 FoFCou: FMM=F IPFlag=           0 FMFlag=      100000 FMFlg1=           0
         NFxFlg=           0 DoJE=F BraDBF=F KetDBF=F FulRan=T
         wScrn=  0.000000 ICntrl=         0 IOpCl=  0 I1Cent=           0 NGrid=           0
         NMat0=    1 NMatS0=      1 NMatT0=    0 NMatD0=    1 NMtDS0=    0 NMtDT0=    0
 Symmetry not used in FoFCou.
 E= -345.708113321413    
 DIIS: error= 6.64D-06 at cycle   1 NSaved=   1.
 NSaved= 1 IEnMin= 1 EnMin= -345.708113321413     IErMin= 1 ErrMin= 6.64D-06
 ErrMax= 6.64D-06  0.00D+00 EMaxC= 1.00D-01 BMatC= 9.79D-09 BMatP= 9.79D-09
 IDIUse=1 WtCom= 1.00D+00 WtEn= 0.00D+00
 Coeff-Com:  0.100D+01
 Coeff:      0.100D+01
 Gap=     0.750 Goal=   None    Shift=    0.000
 RMSDP=5.82D-07 MaxDP=1.82D-05              OVMax= 5.75D-05

 Cycle   2  Pass 1  IDiag  1:
 RMSU=  5.81D-07    CP:  1.00D+00
 E= -345.708113335565     Delta-E=       -0.000000014152 Rises=F Damp=F
 DIIS: error= 9.04D-07 at cycle   2 NSaved=   2.
 NSaved= 2 IEnMin= 2 EnMin= -345.708113335565     IErMin= 2 ErrMin= 9.04D-07
 ErrMax= 9.04D-07  0.00D+00 EMaxC= 1.00D-01 BMatC= 1.76D-10 BMatP= 9.79D-09
 IDIUse=1 WtCom= 1.00D+00 WtEn= 0.00D+00
 Coeff-Com: -0.608D-01 0.106D+01
 Coeff:     -0.608D-01 0.106D+01
 Gap=     0.191 Goal=   None    Shift=    0.000
 RMSDP=1.08D-07 MaxDP=6.84D-06 DE=-1.42D-08 OVMax= 1.10D-05

 Cycle   3  Pass 1  IDiag  1:
 RMSU=  9.69D-08    CP:  1.00D+00  1.08D+00
 E= -345.708113335778     Delta-E=       -0.000000000212 Rises=F Damp=F
 DIIS: error= 5.91D-07 at cycle   3 NSaved=   3.
 NSaved= 3 IEnMin= 3 EnMin= -345.708113335778     IErMin= 3 ErrMin= 5.91D-07
 ErrMax= 5.91D-07  0.00D+00 EMaxC= 1.00D-01 BMatC= 1.09D-10 BMatP= 1.76D-10
 IDIUse=1 WtCom= 1.00D+00 WtEn= 0.00D+00
 Coeff-Com: -0.332D-01 0.487D+00 0.546D+00
 Coeff:     -0.332D-01 0.487D+00 0.546D+00
 Gap=     0.191 Goal=   None    Shift=    0.000
 RMSDP=8.68D-08 MaxDP=1.04D-05 DE=-2.12D-10 OVMax= 4.82D-06

 Cycle   4  Pass 1  IDiag  1:
 RMSU=  6.30D-08    CP:  1.00D+00  1.10D+00  4.58D-01
 E= -345.708113335832     Delta-E=       -0.000000000055 Rises=F Damp=F
 DIIS: error= 5.30D-07 at cycle   4 NSaved=   4.
 NSaved= 4 IEnMin= 4 EnMin= -345.708113335832     IErMin= 4 ErrMin= 5.30D-07
 ErrMax= 5.30D-07  0.00D+00 EMaxC= 1.00D-01 BMatC= 5.36D-11 BMatP= 1.09D-10
 IDIUse=1 WtCom= 1.00D+00 WtEn= 0.00D+00
 Coeff-Com: -0.851D-02 0.110D+00 0.399D+00 0.499D+00
 Coeff:     -0.851D-02 0.110D+00 0.399D+00 0.499D+00
 Gap=     0.191 Goal=   None    Shift=    0.000
 RMSDP=4.02D-08 MaxDP=4.98D-06 DE=-5.48D-11 OVMax= 1.93D-06

 Cycle   5  Pass 1  IDiag  1:
 RMSU=  1.25D-08    CP:  1.00D+00  1.10D+00  7.15D-01  5.85D-01
 E= -345.708113335874     Delta-E=       -0.000000000042 Rises=F Damp=F
 DIIS: error= 8.92D-08 at cycle   5 NSaved=   5.
 NSaved= 5 IEnMin= 5 EnMin= -345.708113335874     IErMin= 5 ErrMin= 8.92D-08
 ErrMax= 8.92D-08  0.00D+00 EMaxC= 1.00D-01 BMatC= 1.82D-12 BMatP= 5.36D-11
 IDIUse=1 WtCom= 1.00D+00 WtEn= 0.00D+00
 Coeff-Com: -0.789D-03-0.256D-02 0.125D+00 0.225D+00 0.653D+00
 Coeff:     -0.789D-03-0.256D-02 0.125D+00 0.225D+00 0.653D+00
 Gap=     0.191 Goal=   None    Shift=    0.000
 RMSDP=8.17D-09 MaxDP=7.83D-07 DE=-4.16D-11 OVMax= 7.08D-07

 SCF Done:  E(RB3LYP) =  -345.708113336     A.U. after    5 cycles
            NFock=  5  Conv=0.82D-08     -V/T= 2.0050
 KE= 3.440044106914D+02 PE=-1.448134151268D+03 EE= 4.367271073772D+02
 Leave Link  502 at Wed Feb  7 14:32:40 2024, MaxMem=  6710886400 cpu:             217.5 elap:              13.6
 (Enter /tmpu/scunam/7/gaussian-2016.03/g1/g16/l701.exe)
 ... and contract with generalized density number  0.
 Compute integral first derivatives.
   1 Symmetry operations used in ECPInt.
 ECPInt:  NShTT=    6328 NPrTT=   19500 LenC2=    6194 LenP2D=   15434.
 LDataN:  DoStor=T MaxTD1= 7 Len=  274
 Leave Link  701 at Wed Feb  7 14:32:40 2024, MaxMem=  6710886400 cpu:               3.8 elap:               0.3
 (Enter /tmpu/scunam/7/gaussian-2016.03/g1/g16/l702.exe)
 L702 exits ... SP integral derivatives will be done elsewhere.
 Leave Link  702 at Wed Feb  7 14:32:40 2024, MaxMem=  6710886400 cpu:               0.3 elap:               0.0
 (Enter /tmpu/scunam/7/gaussian-2016.03/g1/g16/l703.exe)
 Integral derivatives from FoFJK, PRISM(SPDF).
 Compute integral first derivatives, UseDBF=F ICtDFT=           0.
 Calling FoFJK, ICntrl=      2127 FMM=F ISym2X=0 I1Cent= 0 IOpClX= 0 NMat=1 NMatS=1 NMatT=0.
 FoFJK:  IHMeth= 1 ICntrl=    2127 DoSepK=F KAlg= 0 I1Cent=           0 FoldK=F
 IRaf=         0 NMat=       1 IRICut=       1 DoRegI=T DoRafI=F ISym2E= 0 IDoP0=0 IntGTp=1.
 FoFCou: FMM=F IPFlag=           0 FMFlag=      100000 FMFlg1=         800
         NFxFlg=           0 DoJE=F BraDBF=F KetDBF=F FulRan=T
         wScrn=  0.000000 ICntrl=      2127 IOpCl=  0 I1Cent=           0 NGrid=           0
         NMat0=    1 NMatS0=      1 NMatT0=    0 NMatD0=    1 NMtDS0=    0 NMtDT0=    0
 Symmetry not used in FoFCou.
 Leave Link  703 at Wed Feb  7 14:32:52 2024, MaxMem=  6710886400 cpu:             183.9 elap:              11.8
 (Enter /tmpu/scunam/7/gaussian-2016.03/g1/g16/l716.exe)
 Dipole        = 1.27201127D+00 4.76827088D-01 7.25220556D-05
 ***** Axes restored to original set *****
 -------------------------------------------------------------------
 Center     Atomic                   Forces (Hartrees/Bohr)
 Number     Number              X              Y              Z
 -------------------------------------------------------------------
      1        8          -0.000000663    0.000000564    0.000000706
      2        6          -0.000001374   -0.000003264    0.000001735
      3        6           0.000000154    0.000000031    0.000001129
      4        6           0.000000744    0.000002284    0.000000224
      5        6           0.000001424    0.000001313   -0.000000496
      6        6          -0.000001107   -0.000000408   -0.000000115
      7        6          -0.000000165    0.000000479    0.000000124
      8        6           0.000002575   -0.000000224   -0.000005923
      9        1           0.000000365   -0.000000119   -0.000000060
     10        1          -0.000000505   -0.000000996    0.000000524
     11        1           0.000000085    0.000000016   -0.000000481
     12        1          -0.000000659    0.000000324    0.000000171
     13        1          -0.000000039    0.000000180   -0.000000308
     14        1          -0.000000835   -0.000000179    0.000002771
 -------------------------------------------------------------------
 Cartesian Forces:  Max     0.000005923 RMS     0.000001401
 Leave Link  716 at Wed Feb  7 14:32:52 2024, MaxMem=  6710886400 cpu:               0.9 elap:               0.1
 (Enter /tmpu/scunam/7/gaussian-2016.03/g1/g16/l103.exe)

 GradGradGradGradGradGradGradGradGradGradGradGradGradGradGradGradGradGrad
 Berny optimization.
 Search for a local minimum.
 Step number  10 out of a maximum of  100
 All quantities printed in internal units (Hartrees-Bohrs-Radians)
 Update second derivatives using D2CorN and points    1    2    3    4    5
                                                          6    9
 DE=  6.92D-10 DEPred=-4.61D-10 R=-1.50D+00
 Trust test=-1.50D+00 RLast= 4.98D-04 DXMaxT set to 1.92D-01
 ITU= -1  0  0  0  0  1  1  1  1  0
     Eigenvalues ---    0.00296   0.00766   0.01124   0.01659   0.02608
     Eigenvalues ---    0.03890   0.04944   0.06892   0.07104   0.07364
     Eigenvalues ---    0.07849   0.08698   0.09870   0.10924   0.11174
     Eigenvalues ---    0.13442   0.16882   0.18267   0.21126   0.29343
     Eigenvalues ---    0.30232   0.31206   0.36578   0.43127   0.44647
     Eigenvalues ---    0.58776   0.68390   0.81647   1.02530   1.11037
     Eigenvalues ---    1.22609   1.26029   1.47060   1.57966   1.60986
     Eigenvalues ---    1.91494
 RFO step:  Lambda= 0.00000000D+00 EMin= 2.95801850D-03
 Quartic linear search produced a step of -0.91003.
 B after Tr=    -0.000000   -0.000000   -0.000005
         Rot=    1.000000   -0.000000   -0.000002    0.000000 Ang=  -0.00 deg.
 Variable       Old X    -DE/DX   Delta X   Delta X   Delta X     New X
                                 (Linear)    (Quad)   (Total)
    X1        5.43796  -0.00000   0.00005  -0.00001   0.00004   5.43801
    Y1       -0.64554   0.00000   0.00007  -0.00001   0.00006  -0.64548
    Z1        0.00001   0.00000  -0.00029  -0.00006  -0.00037  -0.00036
    X2        1.05341  -0.00000   0.00000  -0.00000   0.00000   1.05341
    Y2        0.41215  -0.00000  -0.00004   0.00000  -0.00003   0.41212
    Z2       -0.00021   0.00000   0.00002   0.00002   0.00003  -0.00018
    X3       -0.65354   0.00000   0.00001  -0.00000   0.00001  -0.65353
    Y3        2.42183   0.00000  -0.00002   0.00000  -0.00002   2.42182
    Z3       -0.00014   0.00000   0.00001   0.00002   0.00003  -0.00012
    X4        0.15606   0.00000  -0.00000   0.00000  -0.00000   0.15606
    Y4       -2.07305   0.00000  -0.00002   0.00000  -0.00002  -2.07306
    Z4       -0.00018   0.00000   0.00004   0.00003   0.00006  -0.00013
    X5       -3.23777   0.00000   0.00002  -0.00000   0.00002  -3.23775
    Y5        1.96260   0.00000   0.00001  -0.00000   0.00001   1.96261
    Z5        0.00002  -0.00000  -0.00004  -0.00001  -0.00004  -0.00002
    X6       -2.42095  -0.00000  -0.00002   0.00000  -0.00001  -2.42096
    Y6       -2.52955  -0.00000  -0.00001   0.00000  -0.00000  -2.52955
    Z6       -0.00007  -0.00000   0.00004   0.00001   0.00005  -0.00002
    X7       -4.11830  -0.00000   0.00001  -0.00000   0.00000  -4.11830
    Y7       -0.51304   0.00000   0.00000  -0.00000   0.00000  -0.51304
    Z7        0.00006   0.00000  -0.00001  -0.00002  -0.00002   0.00004
    X8        3.79624   0.00000  -0.00001   0.00000  -0.00000   3.79624
    Y8        0.94113  -0.00000   0.00001   0.00000   0.00001   0.94114
    Z8       -0.00024  -0.00001  -0.00003  -0.00000  -0.00005  -0.00029
    X9        0.05418   0.00000   0.00005  -0.00001   0.00004   0.05422
    Y9        4.34478  -0.00000  -0.00003   0.00001  -0.00003   4.34476
    Z9       -0.00018  -0.00000  -0.00000   0.00003   0.00002  -0.00015
   X10        1.50930  -0.00000  -0.00001  -0.00000  -0.00001   1.50928
   Y10       -3.60652  -0.00000  -0.00003   0.00000  -0.00003  -3.60655
   Z10       -0.00026   0.00000   0.00005   0.00005   0.00009  -0.00017
   X11       -4.56019   0.00000   0.00001  -0.00000   0.00001  -4.56018
   Y11        3.52308   0.00000   0.00000  -0.00000  -0.00000   3.52308
   Z11        0.00013  -0.00000  -0.00009  -0.00003  -0.00010   0.00003
   X12       -3.12131  -0.00000  -0.00004   0.00000  -0.00004  -3.12134
   Y12       -4.45175   0.00000   0.00000  -0.00000   0.00000  -4.45174
   Z12       -0.00006   0.00000   0.00007   0.00001   0.00008   0.00002
   X13       -6.13191  -0.00000   0.00000   0.00000   0.00000  -6.13191
   Y13       -0.87776   0.00000   0.00002  -0.00001   0.00001  -0.87775
   Z13        0.00019  -0.00000  -0.00003  -0.00005  -0.00007   0.00012
   X14        4.28619  -0.00000  -0.00008   0.00001  -0.00006   4.28612
   Y14        2.98117  -0.00000   0.00003  -0.00000   0.00003   2.98120
   Z14       -0.00059   0.00000   0.00027   0.00005   0.00031  -0.00028
         Item               Value     Threshold  Converged?
 Maximum Force            0.000006     0.000002     NO 
 RMS     Force            0.000001     0.000001     NO 
 Maximum Displacement     0.000375     0.000006     NO 
 RMS     Displacement     0.000084     0.000004     NO 
 Predicted change in Energy=-7.707260D-10
 GradGradGradGradGradGradGradGradGradGradGradGradGradGradGradGradGradGrad

 Leave Link  103 at Wed Feb  7 14:32:52 2024, MaxMem=  6710886400 cpu:               3.7 elap:               0.3
 (Enter /tmpu/scunam/7/gaussian-2016.03/g1/g16/l202.exe)
                          Input orientation:                          
 ---------------------------------------------------------------------
 Center     Atomic      Atomic             Coordinates (Angstroms)
 Number     Number       Type             X           Y           Z
 ---------------------------------------------------------------------
      1          8           0        2.877669   -0.341574   -0.000191
      2          6           0        0.557442    0.218083   -0.000094
      3          6           0       -0.345833    1.281570   -0.000062
      4          6           0        0.082581   -1.097018   -0.000067
      5          6           0       -1.713345    1.038568   -0.000008
      6          6           0       -1.281119   -1.338582   -0.000011
      7          6           0       -2.179310   -0.271488    0.000019
      8          6           0        2.008884    0.498032   -0.000153
      9          1           0        0.028691    2.299148   -0.000081
     10          1           0        0.798679   -1.908506   -0.000091
     11          1           0       -2.413146    1.864331    0.000014
     12          1           0       -1.651744   -2.355761    0.000011
     13          1           0       -3.244867   -0.464486    0.000064
     14          1           0        2.268119    1.577581   -0.000149
 ---------------------------------------------------------------------
                    Distance matrix (angstroms):
                    1          2          3          4          5
     1  O    0.000000
     2  C    2.386769   0.000000
     3  C    3.609094   1.395318   0.000000
     4  C    2.895378   1.398207   2.416862   0.000000
     5  C    4.793975   2.414471   1.388935   2.790354   0.000000
     6  C    4.276627   2.409048   2.782078   1.384930   2.416125
     7  C    5.057464   2.780196   2.402837   2.407831   1.390456
     8  C    1.208190   1.478193   2.481658   2.500965   3.761273
     9  H    3.884596   2.147186   1.084312   3.396593   2.150291
    10  H    2.603359   2.140228   3.389173   1.082270   3.872403
    11  H    5.732254   3.396252   2.147881   3.872756   1.082408
    12  H    4.957068   3.391928   3.864658   2.142969   3.394887
    13  H    6.123769   3.863089   3.384244   3.387035   2.145863
    14  H    2.013630   2.185097   2.630659   3.453991   4.017785
                    6          7          8          9         10
     6  C    0.000000
     7  C    1.394788   0.000000
     8  C    3.767927   4.258301   0.000000
     9  H    3.866352   3.388722   2.676786   0.000000
    10  H    2.156472   3.398270   2.693700   4.277526   0.000000
    11  H    3.397078   2.148582   4.628296   2.480248   4.954807
    12  H    1.082597   2.150004   4.641587   4.948942   2.490905
    13  H    2.149500   1.082895   5.341193   4.284139   4.293653
    14  H    4.593593   4.816501   1.110238   2.352806   3.783128
                   11         12         13         14
    11  H    0.000000
    12  H    4.288229   0.000000
    13  H    2.472883   2.472845   0.000000
    14  H    4.690039   5.553062   5.879035   0.000000
 Stoichiometry    C7H6O
 Framework group  C1[X(C7H6O)]
 Deg. of freedom    36
 Full point group                 C1      NOp   1
 RotChk:  IX=2 Diff= 1.05D-05
 Largest Abelian subgroup         C1      NOp   1
 Largest concise Abelian subgroup C1      NOp   1
                         Standard orientation:                         
 ---------------------------------------------------------------------
 Center     Atomic      Atomic             Coordinates (Angstroms)
 Number     Number       Type             X           Y           Z
 ---------------------------------------------------------------------
      1          8           0       -2.843541   -0.391372    0.000119
      2          6           0       -0.532504    0.205096    0.000022
      3          6           0        0.353752    1.282807   -0.000009
      4          6           0       -0.036798   -1.102291   -0.000005
      5          6           0        1.724954    1.061573   -0.000064
      6          6           0        1.330570   -1.322146   -0.000061
      7          6           0        2.211684   -0.240910   -0.000090
      8          6           0       -1.988213    0.461937    0.000082
      9          1           0       -0.036900    2.294302    0.000009
     10          1           0       -0.739906   -1.925059    0.000020
     11          1           0        2.411540    1.898357   -0.000086
     12          1           0        1.717317   -2.333306   -0.000083
     13          1           0        3.280175   -0.416946   -0.000136
     14          1           0       -2.264575    1.537229    0.000077
 ---------------------------------------------------------------------
 Rotational constants (GHZ):           5.2803935           1.5666048           1.2081630
 Leave Link  202 at Wed Feb  7 14:32:52 2024, MaxMem=  6710886400 cpu:               1.3 elap:               0.1
 (Enter /tmpu/scunam/7/gaussian-2016.03/g1/g16/l301.exe)
 Standard basis: def2TZVP (5D, 7F)
 Ernie: Thresh=  0.10000D-02 Tol=  0.10000D-05 Strict=F.
 There are   324 symmetry adapted cartesian basis functions of A   symmetry.
 There are   284 symmetry adapted basis functions of A   symmetry.
   284 basis functions,   456 primitive gaussians,   324 cartesian basis functions
    28 alpha electrons       28 beta electrons
       nuclear repulsion energy       321.6943485062 Hartrees.
 IExCor=  402 DFT=T Ex+Corr=B3LYP ExCW=0 ScaHFX=  0.200000
 ScaDFX=  0.800000  0.720000  1.000000  0.810000 ScalE2=  1.000000  1.000000
 IRadAn=      5 IRanWt=     -1 IRanGd=            0 ICorTp=0 IEmpDi=  4
 NAtoms=   14 NActive=   14 NUniq=   14 SFac= 1.00D+00 NAtFMM=   60 NAOKFM=F Big=F
 Integral buffers will be    131072 words long.
 Raffenetti 2 integral format.
 Two-electron integral symmetry is turned on.
 Leave Link  301 at Wed Feb  7 14:32:52 2024, MaxMem=  6710886400 cpu:               1.9 elap:               0.1
 (Enter /tmpu/scunam/7/gaussian-2016.03/g1/g16/l302.exe)
 NPDir=0 NMtPBC=     1 NCelOv=     1 NCel=       1 NClECP=     1 NCelD=      1
         NCelK=      1 NCelE2=     1 NClLst=     1 CellRange=     0.0.
 One-electron integrals computed using PRISM.
 One-electron integral symmetry used in STVInt
   1 Symmetry operations used in ECPInt.
 ECPInt:  NShTT=    6328 NPrTT=   19500 LenC2=    6194 LenP2D=   15434.
 LDataN:  DoStor=T MaxTD1= 6 Len=  172
 NBasis=   284 RedAO= T EigKep=  8.80D-06  NBF=   284
 NBsUse=   284 1.00D-06 EigRej= -1.00D+00 NBFU=   284
 Precomputing XC quadrature grid using
 IXCGrd= 4 IRadAn=           5 IRanWt=          -1 IRanGd=           0 AccXCQ= 0.00D+00.
 Generated NRdTot=       0 NPtTot=           0 NUsed=           0 NTot=          32
 NSgBfM=   323   323   323   323   323 MxSgAt=    14 MxSgA2=    14.
 Leave Link  302 at Wed Feb  7 14:32:53 2024, MaxMem=  6710886400 cpu:               5.9 elap:               0.4
 (Enter /tmpu/scunam/7/gaussian-2016.03/g1/g16/l303.exe)
 DipDrv:  MaxL=1.
 Leave Link  303 at Wed Feb  7 14:32:53 2024, MaxMem=  6710886400 cpu:               0.6 elap:               0.1
 (Enter /tmpu/scunam/7/gaussian-2016.03/g1/g16/l401.exe)
 Lowest energy guess from the checkpoint file:  "Benzaldehyde.chk"
 B after Tr=    -0.000000   -0.000000    0.000000
         Rot=    1.000000    0.000001   -0.000002    0.000000 Ang=   0.00 deg.
 Guess basis will be translated and rotated to current coordinates.
 B after Tr=    -0.000000    0.000000   -0.000000
         Rot=    1.000000    0.000001   -0.000012   -0.000003 Ang=   0.00 deg.
 Guess basis will be translated and rotated to current coordinates.
 CkInt1:  FT= 9.00D-02
 Max alpha theta=  0.005 degrees.
 JPrj=2 DoOrth=T DoCkMO=T.
 Leave Link  401 at Wed Feb  7 14:32:53 2024, MaxMem=  6710886400 cpu:               4.0 elap:               0.3
 (Enter /tmpu/scunam/7/gaussian-2016.03/g1/g16/l502.exe)
 Integral symmetry usage will be decided dynamically.
 Closed shell SCF:
 Using DIIS extrapolation, IDIIS=  1040.
 NGot=  6710886400 LenX=  6710668346 LenY=  6710562929
 Requested convergence on RMS density matrix=1.00D-08 within1024 cycles.
 Requested convergence on MAX density matrix=1.00D-06.
 Requested convergence on             energy=1.00D-06.
 No special actions if energy rises.
 Fock matrices will be formed incrementally for  20 cycles.

 Cycle   1  Pass 1  IDiag  1:
 FoFJK:  IHMeth= 1 ICntrl=       0 DoSepK=F KAlg= 0 I1Cent=           0 FoldK=F
 IRaf= 950000000 NMat=       1 IRICut=       1 DoRegI=T DoRafI=F ISym2E= 0 IDoP0=0 IntGTp=1.
 FoFCou: FMM=F IPFlag=           0 FMFlag=      100000 FMFlg1=           0
         NFxFlg=           0 DoJE=F BraDBF=F KetDBF=F FulRan=T
         wScrn=  0.000000 ICntrl=         0 IOpCl=  0 I1Cent=           0 NGrid=           0
         NMat0=    1 NMatS0=      1 NMatT0=    0 NMatD0=    1 NMtDS0=    0 NMtDT0=    0
 Symmetry not used in FoFCou.
 E= -345.708113335885    
 DIIS: error= 1.28D-06 at cycle   1 NSaved=   1.
 NSaved= 1 IEnMin= 1 EnMin= -345.708113335885     IErMin= 1 ErrMin= 1.28D-06
 ErrMax= 1.28D-06  0.00D+00 EMaxC= 1.00D-01 BMatC= 4.93D-10 BMatP= 4.93D-10
 IDIUse=1 WtCom= 1.00D+00 WtEn= 0.00D+00
 Coeff-Com:  0.100D+01
 Coeff:      0.100D+01
 Gap=    10.195 Goal=   None    Shift=    0.000
 RMSDP=2.04D-07 MaxDP=7.59D-06              OVMax= 1.16D-05

 Cycle   2  Pass 1  IDiag  1:
 RMSU=  2.03D-07    CP:  1.00D+00
 E= -345.708113336590     Delta-E=       -0.000000000705 Rises=F Damp=F
 DIIS: error= 1.74D-07 at cycle   2 NSaved=   2.
 NSaved= 2 IEnMin= 2 EnMin= -345.708113336590     IErMin= 2 ErrMin= 1.74D-07
 ErrMax= 1.74D-07  0.00D+00 EMaxC= 1.00D-01 BMatC= 9.37D-12 BMatP= 4.93D-10
 IDIUse=1 WtCom= 1.00D+00 WtEn= 0.00D+00
 Coeff-Com: -0.521D-01 0.105D+01
 Coeff:     -0.521D-01 0.105D+01
 Gap=     0.191 Goal=   None    Shift=    0.000
 RMSDP=2.55D-08 MaxDP=1.33D-06 DE=-7.05D-10 OVMax= 1.64D-06

 Cycle   3  Pass 1  IDiag  1:
 RMSU=  2.24D-08    CP:  1.00D+00  1.06D+00
 E= -345.708113336597     Delta-E=       -0.000000000007 Rises=F Damp=F
 DIIS: error= 1.93D-07 at cycle   3 NSaved=   3.
 NSaved= 3 IEnMin= 3 EnMin= -345.708113336597     IErMin= 2 ErrMin= 1.74D-07
 ErrMax= 1.93D-07  0.00D+00 EMaxC= 1.00D-01 BMatC= 9.89D-12 BMatP= 9.37D-12
 IDIUse=1 WtCom= 1.00D+00 WtEn= 0.00D+00
 Coeff-Com: -0.365D-01 0.563D+00 0.474D+00
 Coeff:     -0.365D-01 0.563D+00 0.474D+00
 Gap=     0.191 Goal=   None    Shift=    0.000
 RMSDP=1.86D-08 MaxDP=2.04D-06 DE=-7.28D-12 OVMax= 1.47D-06

 Cycle   4  Pass 1  IDiag  1:
 RMSU=  1.18D-08    CP:  1.00D+00  1.07D+00  4.21D-01
 E= -345.708113336603     Delta-E=       -0.000000000006 Rises=F Damp=F
 DIIS: error= 9.24D-08 at cycle   4 NSaved=   4.
 NSaved= 4 IEnMin= 4 EnMin= -345.708113336603     IErMin= 4 ErrMin= 9.24D-08
 ErrMax= 9.24D-08  0.00D+00 EMaxC= 1.00D-01 BMatC= 1.93D-12 BMatP= 9.37D-12
 IDIUse=1 WtCom= 1.00D+00 WtEn= 0.00D+00
 Coeff-Com: -0.931D-02 0.125D+00 0.308D+00 0.576D+00
 Coeff:     -0.931D-02 0.125D+00 0.308D+00 0.576D+00
 Gap=     0.191 Goal=   None    Shift=    0.000
 RMSDP=7.22D-09 MaxDP=8.53D-07 DE=-5.80D-12 OVMax= 4.52D-07

 SCF Done:  E(RB3LYP) =  -345.708113337     A.U. after    4 cycles
            NFock=  4  Conv=0.72D-08     -V/T= 2.0050
 KE= 3.440044104463D+02 PE=-1.448133794651D+03 EE= 4.367269223620D+02
 Leave Link  502 at Wed Feb  7 14:33:04 2024, MaxMem=  6710886400 cpu:             173.8 elap:              10.9
 (Enter /tmpu/scunam/7/gaussian-2016.03/g1/g16/l701.exe)
 ... and contract with generalized density number  0.
 Compute integral first derivatives.
   1 Symmetry operations used in ECPInt.
 ECPInt:  NShTT=    6328 NPrTT=   19500 LenC2=    6194 LenP2D=   15434.
 LDataN:  DoStor=T MaxTD1= 7 Len=  274
 Leave Link  701 at Wed Feb  7 14:33:04 2024, MaxMem=  6710886400 cpu:               3.8 elap:               0.3
 (Enter /tmpu/scunam/7/gaussian-2016.03/g1/g16/l702.exe)
 L702 exits ... SP integral derivatives will be done elsewhere.
 Leave Link  702 at Wed Feb  7 14:33:04 2024, MaxMem=  6710886400 cpu:               0.3 elap:               0.0
 (Enter /tmpu/scunam/7/gaussian-2016.03/g1/g16/l703.exe)
 Integral derivatives from FoFJK, PRISM(SPDF).
 Compute integral first derivatives, UseDBF=F ICtDFT=           0.
 Calling FoFJK, ICntrl=      2127 FMM=F ISym2X=0 I1Cent= 0 IOpClX= 0 NMat=1 NMatS=1 NMatT=0.
 FoFJK:  IHMeth= 1 ICntrl=    2127 DoSepK=F KAlg= 0 I1Cent=           0 FoldK=F
 IRaf=         0 NMat=       1 IRICut=       1 DoRegI=T DoRafI=F ISym2E= 0 IDoP0=0 IntGTp=1.
 FoFCou: FMM=F IPFlag=           0 FMFlag=      100000 FMFlg1=         800
         NFxFlg=           0 DoJE=F BraDBF=F KetDBF=F FulRan=T
         wScrn=  0.000000 ICntrl=      2127 IOpCl=  0 I1Cent=           0 NGrid=           0
         NMat0=    1 NMatS0=      1 NMatT0=    0 NMatD0=    1 NMtDS0=    0 NMtDT0=    0
 Symmetry not used in FoFCou.
 Leave Link  703 at Wed Feb  7 14:33:16 2024, MaxMem=  6710886400 cpu:             183.3 elap:              11.5
 (Enter /tmpu/scunam/7/gaussian-2016.03/g1/g16/l716.exe)
 Dipole        = 1.27203007D+00 4.76809048D-01-5.60827897D-05
 ***** Axes restored to original set *****
 -------------------------------------------------------------------
 Center     Atomic                   Forces (Hartrees/Bohr)
 Number     Number              X              Y              Z
 -------------------------------------------------------------------
      1        8          -0.000001270   -0.000000034   -0.000000421
      2        6          -0.000000744    0.000002328   -0.000000206
      3        6           0.000002189   -0.000000907   -0.000000117
      4        6          -0.000001012   -0.000001578   -0.000000217
      5        6          -0.000001210   -0.000001159    0.000000148
      6        6           0.000001265    0.000000125    0.000000061
      7        6          -0.000000495    0.000001851    0.000000019
      8        6           0.000001243   -0.000001725    0.000001452
      9        1          -0.000000184    0.000000215   -0.000000076
     10        1          -0.000000789   -0.000000719   -0.000000005
     11        1           0.000000858    0.000000648    0.000000049
     12        1           0.000000019   -0.000000009    0.000000006
     13        1          -0.000000225    0.000000350   -0.000000079
     14        1           0.000000354    0.000000614   -0.000000613
 -------------------------------------------------------------------
 Cartesian Forces:  Max     0.000002328 RMS     0.000000915
 Leave Link  716 at Wed Feb  7 14:33:16 2024, MaxMem=  6710886400 cpu:               0.3 elap:               0.0
 (Enter /tmpu/scunam/7/gaussian-2016.03/g1/g16/l103.exe)

 GradGradGradGradGradGradGradGradGradGradGradGradGradGradGradGradGradGrad
 Berny optimization.
 Search for a local minimum.
 Step number  11 out of a maximum of  100
 All quantities printed in internal units (Hartrees-Bohrs-Radians)
 Update second derivatives using D2CorN and points    1    2    3    4    5
                                                          6   11
 DE= -3.73D-11 DEPred=-7.71D-10 R= 4.84D-02
 Trust test= 4.84D-02 RLast= 8.91D-05 DXMaxT set to 9.61D-02
 ITU= -1 -1  0  0  0  0  1  1  1  1  0
     Eigenvalues ---    0.00275   0.00767   0.01129   0.01659   0.02608
     Eigenvalues ---    0.03891   0.04988   0.06887   0.07104   0.07362
     Eigenvalues ---    0.08011   0.08722   0.09868   0.11048   0.11174
     Eigenvalues ---    0.13512   0.16925   0.18310   0.21120   0.29342
     Eigenvalues ---    0.30232   0.31216   0.36555   0.43124   0.44648
     Eigenvalues ---    0.58773   0.68386   0.81641   1.02519   1.11009
     Eigenvalues ---    1.22611   1.26000   1.46984   1.57964   1.60956
     Eigenvalues ---    1.91047
 RFO step:  Lambda= 0.00000000D+00 EMin= 2.74583150D-03
 Skip linear search -- no minimum in search direction.
 B after Tr=    -0.000000   -0.000000    0.000007
         Rot=    1.000000    0.000000    0.000002   -0.000000 Ang=   0.00 deg.
 Variable       Old X    -DE/DX   Delta X   Delta X   Delta X     New X
                                 (Linear)    (Quad)   (Total)
    X1        5.43801  -0.00000   0.00000  -0.00000  -0.00000   5.43800
    Y1       -0.64548  -0.00000   0.00000   0.00000   0.00000  -0.64548
    Z1       -0.00036  -0.00000   0.00000   0.00007   0.00009  -0.00027
    X2        1.05341  -0.00000   0.00000   0.00000   0.00000   1.05341
    Y2        0.41212   0.00000   0.00000   0.00000   0.00000   0.41212
    Z2       -0.00018  -0.00000   0.00000  -0.00002  -0.00001  -0.00018
    X3       -0.65353   0.00000   0.00000   0.00000   0.00000  -0.65353
    Y3        2.42182  -0.00000   0.00000  -0.00000  -0.00000   2.42181
    Z3       -0.00012  -0.00000   0.00000  -0.00001  -0.00001  -0.00013
    X4        0.15606  -0.00000   0.00000  -0.00000  -0.00000   0.15605
    Y4       -2.07306  -0.00000   0.00000  -0.00000  -0.00000  -2.07307
    Z4       -0.00013  -0.00000   0.00000  -0.00003  -0.00002  -0.00014
    X5       -3.23775  -0.00000   0.00000  -0.00000  -0.00000  -3.23775
    Y5        1.96261  -0.00000   0.00000  -0.00000  -0.00000   1.96261
    Z5       -0.00002   0.00000   0.00000   0.00001   0.00001  -0.00001
    X6       -2.42096   0.00000   0.00000   0.00000   0.00000  -2.42096
    Y6       -2.52955   0.00000   0.00000   0.00000  -0.00000  -2.52955
    Z6       -0.00002   0.00000   0.00000  -0.00001  -0.00001  -0.00003
    X7       -4.11830  -0.00000   0.00000  -0.00000  -0.00000  -4.11830
    Y7       -0.51304   0.00000   0.00000   0.00000   0.00000  -0.51304
    Z7        0.00004   0.00000   0.00000   0.00002   0.00001   0.00004
    X8        3.79624   0.00000   0.00000  -0.00000  -0.00000   3.79624
    Y8        0.94114  -0.00000   0.00000   0.00000   0.00000   0.94115
    Z8       -0.00029   0.00000   0.00000   0.00000   0.00003  -0.00026
    X9        0.05422  -0.00000   0.00000  -0.00000  -0.00000   0.05421
    Y9        4.34476   0.00000   0.00000  -0.00000  -0.00000   4.34476
    Z9       -0.00015  -0.00000   0.00000  -0.00002  -0.00001  -0.00017
   X10        1.50928  -0.00000   0.00000  -0.00001  -0.00001   1.50928
   Y10       -3.60655  -0.00000   0.00000  -0.00001  -0.00001  -3.60656
   Z10       -0.00017  -0.00000   0.00000  -0.00004  -0.00003  -0.00020
   X11       -4.56018   0.00000   0.00000   0.00001   0.00001  -4.56017
   Y11        3.52308   0.00000   0.00000   0.00001   0.00001   3.52308
   Z11        0.00003   0.00000   0.00000   0.00004   0.00003   0.00005
   X12       -3.12134   0.00000   0.00000   0.00000   0.00001  -3.12134
   Y12       -4.45174  -0.00000   0.00000  -0.00000  -0.00000  -4.45174
   Z12        0.00002   0.00000   0.00000  -0.00002  -0.00002  -0.00000
   X13       -6.13191  -0.00000   0.00000  -0.00000  -0.00000  -6.13191
   Y13       -0.87775   0.00000   0.00000   0.00000   0.00000  -0.87775
   Z13        0.00012  -0.00000   0.00000   0.00004   0.00002   0.00014
   X14        4.28612   0.00000   0.00000  -0.00000  -0.00000   4.28612
   Y14        2.98120   0.00000   0.00000   0.00000   0.00001   2.98120
   Z14       -0.00028  -0.00000   0.00000  -0.00010  -0.00008  -0.00036
         Item               Value     Threshold  Converged?
 Maximum Force            0.000002     0.000002     NO 
 RMS     Force            0.000001     0.000001     YES
 Maximum Displacement     0.000094     0.000006     NO 
 RMS     Displacement     0.000021     0.000004     NO 
 Predicted change in Energy=-4.902864D-11
 Lowest energy point so far.  Saving SCF results.
 GradGradGradGradGradGradGradGradGradGradGradGradGradGradGradGradGradGrad

 Leave Link  103 at Wed Feb  7 14:33:16 2024, MaxMem=  6710886400 cpu:               0.2 elap:               0.0
 (Enter /tmpu/scunam/7/gaussian-2016.03/g1/g16/l202.exe)
                          Input orientation:                          
 ---------------------------------------------------------------------
 Center     Atomic      Atomic             Coordinates (Angstroms)
 Number     Number       Type             X           Y           Z
 ---------------------------------------------------------------------
      1          8           0        2.877668   -0.341572   -0.000141
      2          6           0        0.557443    0.218085   -0.000098
      3          6           0       -0.345833    1.281569   -0.000068
      4          6           0        0.082580   -1.097020   -0.000077
      5          6           0       -1.713346    1.038566   -0.000003
      6          6           0       -1.281118   -1.338582   -0.000017
      7          6           0       -2.179311   -0.271488    0.000023
      8          6           0        2.008884    0.498033   -0.000140
      9          1           0        0.028689    2.299147   -0.000088
     10          1           0        0.798676   -1.908510   -0.000106
     11          1           0       -2.413141    1.864335    0.000028
     12          1           0       -1.651741   -2.355762   -0.000000
     13          1           0       -3.244868   -0.464485    0.000076
     14          1           0        2.268118    1.577584   -0.000190
 ---------------------------------------------------------------------
                    Distance matrix (angstroms):
                    1          2          3          4          5
     1  O    0.000000
     2  C    2.386768   0.000000
     3  C    3.609091   1.395315   0.000000
     4  C    2.895378   1.398211   2.416862   0.000000
     5  C    4.793974   2.414471   1.388936   2.790355   0.000000
     6  C    4.276626   2.409049   2.782076   1.384928   2.416123
     7  C    5.057464   2.780198   2.402837   2.407832   1.390455
     8  C    1.208190   1.478192   2.481656   2.500967   3.761272
     9  H    3.884595   2.147185   1.084312   3.396594   2.150291
    10  H    2.603364   2.140233   3.389174   1.082270   3.872403
    11  H    5.732249   3.396249   2.147878   3.872757   1.082408
    12  H    4.957066   3.391928   3.864656   2.142966   3.394886
    13  H    6.123770   3.863091   3.384245   3.387036   2.145862
    14  H    2.013631   2.185097   2.630659   3.453995   4.017785
                    6          7          8          9         10
     6  C    0.000000
     7  C    1.394790   0.000000
     8  C    3.767926   4.258302   0.000000
     9  H    3.866350   3.388720   2.676786   0.000000
    10  H    2.156469   3.398271   2.693706   4.277529   0.000000
    11  H    3.397079   2.148584   4.628291   2.480240   4.954807
    12  H    1.082597   2.150006   4.641586   4.948941   2.490899
    13  H    2.149502   1.082895   5.341194   4.284138   4.293653
    14  H    4.593593   4.816502   1.110240   2.352807   3.783135
                   11         12         13         14
    11  H    0.000000
    12  H    4.288233   0.000000
    13  H    2.472888   2.472849   0.000000
    14  H    4.690033   5.553063   5.879036   0.000000
 Stoichiometry    C7H6O
 Framework group  C1[X(C7H6O)]
 Deg. of freedom    36
 Full point group                 C1      NOp   1
 RotChk:  IX=2 Diff= 8.35D-07
 Largest Abelian subgroup         C1      NOp   1
 Largest concise Abelian subgroup C1      NOp   1
                         Standard orientation:                         
 ---------------------------------------------------------------------
 Center     Atomic      Atomic             Coordinates (Angstroms)
 Number     Number       Type             X           Y           Z
 ---------------------------------------------------------------------
      1          8           0       -2.843540   -0.391372    0.000075
      2          6           0       -0.532505    0.205097    0.000032
      3          6           0        0.353751    1.282806    0.000002
      4          6           0       -0.036797   -1.102292    0.000011
      5          6           0        1.724954    1.061572   -0.000063
      6          6           0        1.330569   -1.322146   -0.000048
      7          6           0        2.211685   -0.240909   -0.000089
      8          6           0       -1.988212    0.461937    0.000074
      9          1           0       -0.036899    2.294302    0.000022
     10          1           0       -0.739902   -1.925063    0.000040
     11          1           0        2.411533    1.898361   -0.000094
     12          1           0        1.717315   -2.333305   -0.000066
     13          1           0        3.280176   -0.416943   -0.000142
     14          1           0       -2.264576    1.537231    0.000124
 ---------------------------------------------------------------------
 Rotational constants (GHZ):           5.2803934           1.5666052           1.2081632
 Leave Link  202 at Wed Feb  7 14:33:16 2024, MaxMem=  6710886400 cpu:               0.1 elap:               0.0
 (Enter /tmpu/scunam/7/gaussian-2016.03/g1/g16/l301.exe)
 Standard basis: def2TZVP (5D, 7F)
 Ernie: Thresh=  0.10000D-02 Tol=  0.10000D-05 Strict=F.
 There are   324 symmetry adapted cartesian basis functions of A   symmetry.
 There are   284 symmetry adapted basis functions of A   symmetry.
   284 basis functions,   456 primitive gaussians,   324 cartesian basis functions
    28 alpha electrons       28 beta electrons
       nuclear repulsion energy       321.6943594353 Hartrees.
 IExCor=  402 DFT=T Ex+Corr=B3LYP ExCW=0 ScaHFX=  0.200000
 ScaDFX=  0.800000  0.720000  1.000000  0.810000 ScalE2=  1.000000  1.000000
 IRadAn=      5 IRanWt=     -1 IRanGd=            0 ICorTp=0 IEmpDi=  4
 NAtoms=   14 NActive=   14 NUniq=   14 SFac= 1.00D+00 NAtFMM=   60 NAOKFM=F Big=F
 Integral buffers will be    131072 words long.
 Raffenetti 2 integral format.
 Two-electron integral symmetry is turned on.
 Leave Link  301 at Wed Feb  7 14:33:16 2024, MaxMem=  6710886400 cpu:               0.8 elap:               0.1
 (Enter /tmpu/scunam/7/gaussian-2016.03/g1/g16/l302.exe)
 NPDir=0 NMtPBC=     1 NCelOv=     1 NCel=       1 NClECP=     1 NCelD=      1
         NCelK=      1 NCelE2=     1 NClLst=     1 CellRange=     0.0.
 One-electron integrals computed using PRISM.
 One-electron integral symmetry used in STVInt
   1 Symmetry operations used in ECPInt.
 ECPInt:  NShTT=    6328 NPrTT=   19500 LenC2=    6194 LenP2D=   15434.
 LDataN:  DoStor=T MaxTD1= 6 Len=  172
 NBasis=   284 RedAO= T EigKep=  8.80D-06  NBF=   284
 NBsUse=   284 1.00D-06 EigRej= -1.00D+00 NBFU=   284
 Precomputing XC quadrature grid using
 IXCGrd= 4 IRadAn=           5 IRanWt=          -1 IRanGd=           0 AccXCQ= 0.00D+00.
 Generated NRdTot=       0 NPtTot=           0 NUsed=           0 NTot=          32
 NSgBfM=   323   323   323   323   323 MxSgAt=    14 MxSgA2=    14.
 Leave Link  302 at Wed Feb  7 14:33:16 2024, MaxMem=  6710886400 cpu:               4.6 elap:               0.3
 (Enter /tmpu/scunam/7/gaussian-2016.03/g1/g16/l303.exe)
 DipDrv:  MaxL=1.
 Leave Link  303 at Wed Feb  7 14:33:17 2024, MaxMem=  6710886400 cpu:               0.6 elap:               0.1
 (Enter /tmpu/scunam/7/gaussian-2016.03/g1/g16/l401.exe)
 Initial guess from the checkpoint file:  "Benzaldehyde.chk"
 B after Tr=     0.000000   -0.000000    0.000000
         Rot=    1.000000   -0.000000    0.000003   -0.000000 Ang=  -0.00 deg.
 Guess basis will be translated and rotated to current coordinates.
 JPrj=2 DoOrth=T DoCkMO=T.
 Leave Link  401 at Wed Feb  7 14:33:17 2024, MaxMem=  6710886400 cpu:               2.5 elap:               0.2
 (Enter /tmpu/scunam/7/gaussian-2016.03/g1/g16/l502.exe)
 Integral symmetry usage will be decided dynamically.
 Closed shell SCF:
 Using DIIS extrapolation, IDIIS=  1040.
 NGot=  6710886400 LenX=  6710668346 LenY=  6710562929
 Requested convergence on RMS density matrix=1.00D-08 within1024 cycles.
 Requested convergence on MAX density matrix=1.00D-06.
 Requested convergence on             energy=1.00D-06.
 No special actions if energy rises.
 Fock matrices will be formed incrementally for  20 cycles.

 Cycle   1  Pass 1  IDiag  1:
 FoFJK:  IHMeth= 1 ICntrl=       0 DoSepK=F KAlg= 0 I1Cent=           0 FoldK=F
 IRaf= 950000000 NMat=       1 IRICut=       1 DoRegI=T DoRafI=F ISym2E= 0 IDoP0=0 IntGTp=1.
 FoFCou: FMM=F IPFlag=           0 FMFlag=      100000 FMFlg1=           0
         NFxFlg=           0 DoJE=F BraDBF=F KetDBF=F FulRan=T
         wScrn=  0.000000 ICntrl=         0 IOpCl=  0 I1Cent=           0 NGrid=           0
         NMat0=    1 NMatS0=      1 NMatT0=    0 NMatD0=    1 NMtDS0=    0 NMtDT0=    0
 Symmetry not used in FoFCou.
 E= -345.708113335638    
 DIIS: error= 1.59D-06 at cycle   1 NSaved=   1.
 NSaved= 1 IEnMin= 1 EnMin= -345.708113335638     IErMin= 1 ErrMin= 1.59D-06
 ErrMax= 1.59D-06  0.00D+00 EMaxC= 1.00D-01 BMatC= 6.36D-10 BMatP= 6.36D-10
 IDIUse=1 WtCom= 1.00D+00 WtEn= 0.00D+00
 Coeff-Com:  0.100D+01
 Coeff:      0.100D+01
 Gap=     0.750 Goal=   None    Shift=    0.000
 RMSDP=1.81D-07 MaxDP=6.65D-06              OVMax= 1.44D-05

 Cycle   2  Pass 1  IDiag  1:
 RMSU=  1.80D-07    CP:  1.00D+00
 E= -345.708113336591     Delta-E=       -0.000000000953 Rises=F Damp=F
 DIIS: error= 2.26D-07 at cycle   2 NSaved=   2.
 NSaved= 2 IEnMin= 2 EnMin= -345.708113336591     IErMin= 2 ErrMin= 2.26D-07
 ErrMax= 2.26D-07  0.00D+00 EMaxC= 1.00D-01 BMatC= 1.13D-11 BMatP= 6.36D-10
 IDIUse=1 WtCom= 1.00D+00 WtEn= 0.00D+00
 Coeff-Com: -0.573D-01 0.106D+01
 Coeff:     -0.573D-01 0.106D+01
 Gap=     0.191 Goal=   None    Shift=    0.000
 RMSDP=2.71D-08 MaxDP=1.10D-06 DE=-9.53D-10 OVMax= 2.93D-06

 Cycle   3  Pass 1  IDiag  1:
 RMSU=  2.31D-08    CP:  1.00D+00  1.08D+00
 E= -345.708113336611     Delta-E=       -0.000000000019 Rises=F Damp=F
 DIIS: error= 1.65D-07 at cycle   3 NSaved=   3.
 NSaved= 3 IEnMin= 3 EnMin= -345.708113336611     IErMin= 3 ErrMin= 1.65D-07
 ErrMax= 1.65D-07  0.00D+00 EMaxC= 1.00D-01 BMatC= 4.42D-12 BMatP= 1.13D-11
 IDIUse=1 WtCom= 1.00D+00 WtEn= 0.00D+00
 Coeff-Com: -0.271D-01 0.401D+00 0.626D+00
 Coeff:     -0.271D-01 0.401D+00 0.626D+00
 Gap=     0.191 Goal=   None    Shift=    0.000
 RMSDP=1.86D-08 MaxDP=2.23D-06 DE=-1.94D-11 OVMax= 1.06D-06

 Cycle   4  Pass 1  IDiag  1:
 RMSU=  1.56D-08    CP:  1.00D+00  1.09D+00  6.45D-01
 E= -345.708113336608     Delta-E=        0.000000000002 Rises=F Damp=F
 DIIS: error= 1.66D-07 at cycle   4 NSaved=   4.
 NSaved= 4 IEnMin= 3 EnMin= -345.708113336611     IErMin= 3 ErrMin= 1.65D-07
 ErrMax= 1.66D-07  0.00D+00 EMaxC= 1.00D-01 BMatC= 3.98D-12 BMatP= 4.42D-12
 IDIUse=1 WtCom= 1.00D+00 WtEn= 0.00D+00
 Coeff-Com: -0.927D-02 0.113D+00 0.469D+00 0.427D+00
 Coeff:     -0.927D-02 0.113D+00 0.469D+00 0.427D+00
 Gap=     0.191 Goal=   None    Shift=    0.000
 RMSDP=1.09D-08 MaxDP=1.36D-06 DE= 2.39D-12 OVMax= 5.53D-07

 Cycle   5  Pass 1  IDiag  1:
 RMSU=  3.87D-09    CP:  1.00D+00  1.09D+00  8.60D-01  4.71D-01
 E= -345.708113336614     Delta-E=       -0.000000000006 Rises=F Damp=F
 DIIS: error= 1.65D-08 at cycle   5 NSaved=   5.
 NSaved= 5 IEnMin= 5 EnMin= -345.708113336614     IErMin= 5 ErrMin= 1.65D-08
 ErrMax= 1.65D-08  0.00D+00 EMaxC= 1.00D-01 BMatC= 8.81D-14 BMatP= 3.98D-12
 IDIUse=1 WtCom= 1.00D+00 WtEn= 0.00D+00
 Coeff-Com:  0.251D-03-0.205D-01 0.917D-01 0.162D+00 0.766D+00
 Coeff:      0.251D-03-0.205D-01 0.917D-01 0.162D+00 0.766D+00
 Gap=     0.191 Goal=   None    Shift=    0.000
 RMSDP=2.06D-09 MaxDP=1.80D-07 DE=-5.91D-12 OVMax= 2.21D-07

 SCF Done:  E(RB3LYP) =  -345.708113337     A.U. after    5 cycles
            NFock=  5  Conv=0.21D-08     -V/T= 2.0050
 KE= 3.440044114974D+02 PE=-1.448133816295D+03 EE= 4.367269320261D+02
 Leave Link  502 at Wed Feb  7 14:33:30 2024, MaxMem=  6710886400 cpu:             215.6 elap:              13.5
 (Enter /tmpu/scunam/7/gaussian-2016.03/g1/g16/l701.exe)
 ... and contract with generalized density number  0.
 Compute integral first derivatives.
   1 Symmetry operations used in ECPInt.
 ECPInt:  NShTT=    6328 NPrTT=   19500 LenC2=    6194 LenP2D=   15434.
 LDataN:  DoStor=T MaxTD1= 7 Len=  274
 Leave Link  701 at Wed Feb  7 14:33:31 2024, MaxMem=  6710886400 cpu:               3.9 elap:               0.3
 (Enter /tmpu/scunam/7/gaussian-2016.03/g1/g16/l702.exe)
 L702 exits ... SP integral derivatives will be done elsewhere.
 Leave Link  702 at Wed Feb  7 14:33:31 2024, MaxMem=  6710886400 cpu:               0.3 elap:               0.0
 (Enter /tmpu/scunam/7/gaussian-2016.03/g1/g16/l703.exe)
 Integral derivatives from FoFJK, PRISM(SPDF).
 Compute integral first derivatives, UseDBF=F ICtDFT=           0.
 Calling FoFJK, ICntrl=      2127 FMM=F ISym2X=0 I1Cent= 0 IOpClX= 0 NMat=1 NMatS=1 NMatT=0.
 FoFJK:  IHMeth= 1 ICntrl=    2127 DoSepK=F KAlg= 0 I1Cent=           0 FoldK=F
 IRaf=         0 NMat=       1 IRICut=       1 DoRegI=T DoRafI=F ISym2E= 0 IDoP0=0 IntGTp=1.
 FoFCou: FMM=F IPFlag=           0 FMFlag=      100000 FMFlg1=         800
         NFxFlg=           0 DoJE=F BraDBF=F KetDBF=F FulRan=T
         wScrn=  0.000000 ICntrl=      2127 IOpCl=  0 I1Cent=           0 NGrid=           0
         NMat0=    1 NMatS0=      1 NMatT0=    0 NMatD0=    1 NMtDS0=    0 NMtDT0=    0
 Symmetry not used in FoFCou.
 Leave Link  703 at Wed Feb  7 14:33:43 2024, MaxMem=  6710886400 cpu:             189.1 elap:              12.0
 (Enter /tmpu/scunam/7/gaussian-2016.03/g1/g16/l716.exe)
 Dipole        = 1.27203132D+00 4.76810157D-01-2.51771369D-05
 ***** Axes restored to original set *****
 -------------------------------------------------------------------
 Center     Atomic                   Forces (Hartrees/Bohr)
 Number     Number              X              Y              Z
 -------------------------------------------------------------------
      1        8          -0.000000790   -0.000000362    0.000000563
      2        6          -0.000001004   -0.000000632    0.000000643
      3        6           0.000000977   -0.000000191    0.000000428
      4        6           0.000000125    0.000000766    0.000000188
      5        6           0.000000150    0.000000246   -0.000000195
      6        6          -0.000000230   -0.000000077   -0.000000082
      7        6          -0.000000274    0.000000901    0.000000030
      8        6           0.000001469   -0.000000585   -0.000002529
      9        1          -0.000000084    0.000000089    0.000000071
     10        1          -0.000000460   -0.000000552    0.000000189
     11        1           0.000000265    0.000000205   -0.000000114
     12        1          -0.000000223    0.000000183    0.000000005
     13        1          -0.000000112    0.000000179   -0.000000113
     14        1           0.000000191   -0.000000171    0.000000916
 -------------------------------------------------------------------
 Cartesian Forces:  Max     0.000002529 RMS     0.000000625
 Leave Link  716 at Wed Feb  7 14:33:43 2024, MaxMem=  6710886400 cpu:               0.3 elap:               0.0
 (Enter /tmpu/scunam/7/gaussian-2016.03/g1/g16/l103.exe)

 GradGradGradGradGradGradGradGradGradGradGradGradGradGradGradGradGradGrad
 Berny optimization.
 Search for a local minimum.
 Step number  12 out of a maximum of  100
 All quantities printed in internal units (Hartrees-Bohrs-Radians)
 Update second derivatives using D2CorN and points    1    2    3    4    5
                                                          6   12
 DE= -1.14D-11 DEPred=-4.90D-11 R= 2.33D-01
 Trust test= 2.33D-01 RLast= 1.39D-04 DXMaxT set to 9.61D-02
 ITU=  0 -1 -1  0  0  0  0  1  1  1  1  0
     Eigenvalues ---    0.00299   0.00767   0.01134   0.01659   0.02608
     Eigenvalues ---    0.03891   0.05027   0.06883   0.07103   0.07358
     Eigenvalues ---    0.08142   0.08721   0.09866   0.11131   0.11181
     Eigenvalues ---    0.13563   0.16925   0.18338   0.21108   0.29341
     Eigenvalues ---    0.30232   0.31216   0.36543   0.43122   0.44648
     Eigenvalues ---    0.58774   0.68383   0.81637   1.02512   1.10989
     Eigenvalues ---    1.22612   1.25977   1.46936   1.57961   1.60933
     Eigenvalues ---    1.90735
 RFO step:  Lambda= 0.00000000D+00 EMin= 2.98522417D-03
 Quartic linear search produced a step of -0.41801.
 B after Tr=     0.000000    0.000000   -0.000000
         Rot=    1.000000   -0.000000   -0.000000   -0.000000 Ang=  -0.00 deg.
 Variable       Old X    -DE/DX   Delta X   Delta X   Delta X     New X
                                 (Linear)    (Quad)   (Total)
    X1        5.43800  -0.00000   0.00000  -0.00000   0.00000   5.43800
    Y1       -0.64548  -0.00000  -0.00000   0.00000  -0.00000  -0.64548
    Z1       -0.00027   0.00000  -0.00004  -0.00000  -0.00004  -0.00031
    X2        1.05341  -0.00000  -0.00000   0.00000  -0.00000   1.05341
    Y2        0.41212  -0.00000  -0.00000   0.00000  -0.00000   0.41212
    Z2       -0.00018   0.00000   0.00000   0.00000   0.00001  -0.00018
    X3       -0.65353   0.00000  -0.00000   0.00000   0.00000  -0.65353
    Y3        2.42181  -0.00000   0.00000  -0.00000   0.00000   2.42181
    Z3       -0.00013   0.00000   0.00000   0.00000   0.00001  -0.00012
    X4        0.15605   0.00000   0.00000  -0.00000   0.00000   0.15605
    Y4       -2.07307   0.00000   0.00000  -0.00000   0.00000  -2.07307
    Z4       -0.00014   0.00000   0.00001   0.00000   0.00001  -0.00013
    X5       -3.23775   0.00000   0.00000  -0.00000   0.00000  -3.23775
    Y5        1.96261   0.00000   0.00000  -0.00000   0.00000   1.96261
    Z5       -0.00001  -0.00000  -0.00000   0.00000  -0.00000  -0.00001
    X6       -2.42096  -0.00000  -0.00000   0.00000  -0.00000  -2.42096
    Y6       -2.52955  -0.00000   0.00000   0.00000   0.00000  -2.52955
    Z6       -0.00003  -0.00000   0.00001   0.00000   0.00001  -0.00003
    X7       -4.11830  -0.00000   0.00000  -0.00000   0.00000  -4.11830
    Y7       -0.51304   0.00000  -0.00000   0.00000   0.00000  -0.51304
    Z7        0.00004   0.00000  -0.00000  -0.00000  -0.00001   0.00004
    X8        3.79624   0.00000   0.00000   0.00000   0.00000   3.79624
    Y8        0.94115  -0.00000  -0.00000   0.00000  -0.00000   0.94115
    Z8       -0.00026  -0.00000  -0.00001  -0.00001  -0.00002  -0.00028
    X9        0.05421  -0.00000   0.00000  -0.00000  -0.00000   0.05421
    Y9        4.34476   0.00000   0.00000   0.00000   0.00000   4.34476
    Z9       -0.00017   0.00000   0.00001   0.00001   0.00001  -0.00016
   X10        1.50928  -0.00000   0.00000  -0.00000  -0.00000   1.50928
   Y10       -3.60656  -0.00000   0.00000  -0.00000   0.00000  -3.60656
   Z10       -0.00020   0.00000   0.00001   0.00001   0.00002  -0.00018
   X11       -4.56017   0.00000  -0.00000   0.00000  -0.00000  -4.56018
   Y11        3.52308   0.00000  -0.00000   0.00000  -0.00000   3.52308
   Z11        0.00005  -0.00000  -0.00001  -0.00000  -0.00001   0.00004
   X12       -3.12134  -0.00000  -0.00000   0.00000  -0.00000  -3.12134
   Y12       -4.45174   0.00000   0.00000   0.00000   0.00000  -4.45174
   Z12       -0.00000   0.00000   0.00001  -0.00000   0.00001   0.00001
   X13       -6.13191  -0.00000   0.00000  -0.00000   0.00000  -6.13191
   Y13       -0.87775   0.00000  -0.00000  -0.00000  -0.00000  -0.87775
   Z13        0.00014  -0.00000  -0.00001  -0.00001  -0.00002   0.00013
   X14        4.28612   0.00000   0.00000   0.00000   0.00000   4.28612
   Y14        2.98120  -0.00000  -0.00000   0.00000  -0.00000   2.98120
   Z14       -0.00036   0.00000   0.00003  -0.00000   0.00003  -0.00033
         Item               Value     Threshold  Converged?
 Maximum Force            0.000003     0.000002     NO 
 RMS     Force            0.000001     0.000001     YES
 Maximum Displacement     0.000042     0.000006     NO 
 RMS     Displacement     0.000010     0.000004     NO 
 Predicted change in Energy=-5.328032D-11
 Lowest energy point so far.  Saving SCF results.
 GradGradGradGradGradGradGradGradGradGradGradGradGradGradGradGradGradGrad

 Leave Link  103 at Wed Feb  7 14:33:43 2024, MaxMem=  6710886400 cpu:               0.2 elap:               0.0
 (Enter /tmpu/scunam/7/gaussian-2016.03/g1/g16/l202.exe)
                          Input orientation:                          
 ---------------------------------------------------------------------
 Center     Atomic      Atomic             Coordinates (Angstroms)
 Number     Number       Type             X           Y           Z
 ---------------------------------------------------------------------
      1          8           0        2.877668   -0.341572   -0.000163
      2          6           0        0.557443    0.218084   -0.000095
      3          6           0       -0.345833    1.281569   -0.000063
      4          6           0        0.082581   -1.097019   -0.000070
      5          6           0       -1.713346    1.038566   -0.000004
      6          6           0       -1.281118   -1.338581   -0.000014
      7          6           0       -2.179311   -0.271488    0.000020
      8          6           0        2.008884    0.498033   -0.000150
      9          1           0        0.028688    2.299148   -0.000082
     10          1           0        0.798675   -1.908509   -0.000097
     11          1           0       -2.413142    1.864334    0.000022
     12          1           0       -1.651742   -2.355761    0.000004
     13          1           0       -3.244868   -0.464486    0.000067
     14          1           0        2.268119    1.577583   -0.000175
 ---------------------------------------------------------------------
                    Distance matrix (angstroms):
                    1          2          3          4          5
     1  O    0.000000
     2  C    2.386768   0.000000
     3  C    3.609092   1.395316   0.000000
     4  C    2.895378   1.398210   2.416861   0.000000
     5  C    4.793975   2.414471   1.388936   2.790354   0.000000
     6  C    4.276626   2.409048   2.782076   1.384929   2.416123
     7  C    5.057464   2.780198   2.402837   2.407832   1.390455
     8  C    1.208190   1.478193   2.481657   2.500967   3.761273
     9  H    3.884596   2.147186   1.084312   3.396594   2.150290
    10  H    2.603364   2.140232   3.389174   1.082270   3.872403
    11  H    5.732250   3.396249   2.147879   3.872756   1.082408
    12  H    4.957067   3.391928   3.864656   2.142967   3.394886
    13  H    6.123770   3.863091   3.384245   3.387036   2.145863
    14  H    2.013631   2.185098   2.630660   3.453994   4.017786
                    6          7          8          9         10
     6  C    0.000000
     7  C    1.394790   0.000000
     8  C    3.767927   4.258303   0.000000
     9  H    3.866350   3.388720   2.676787   0.000000
    10  H    2.156469   3.398270   2.693706   4.277529   0.000000
    11  H    3.397079   2.148584   4.628293   2.480241   4.954807
    12  H    1.082597   2.150006   4.641587   4.948941   2.490899
    13  H    2.149501   1.082895   5.341195   4.284138   4.293652
    14  H    4.593594   4.816503   1.110239   2.352808   3.783135
                   11         12         13         14
    11  H    0.000000
    12  H    4.288232   0.000000
    13  H    2.472887   2.472847   0.000000
    14  H    4.690035   5.553063   5.879037   0.000000
 Stoichiometry    C7H6O
 Framework group  C1[X(C7H6O)]
 Deg. of freedom    36
 Full point group                 C1      NOp   1
 RotChk:  IX=2 Diff= 1.36D-07
 Largest Abelian subgroup         C1      NOp   1
 Largest concise Abelian subgroup C1      NOp   1
                         Standard orientation:                         
 ---------------------------------------------------------------------
 Center     Atomic      Atomic             Coordinates (Angstroms)
 Number     Number       Type             X           Y           Z
 ---------------------------------------------------------------------
      1          8           0       -2.843540   -0.391373    0.000095
      2          6           0       -0.532504    0.205097    0.000027
      3          6           0        0.353751    1.282806   -0.000005
      4          6           0       -0.036797   -1.102292    0.000002
      5          6           0        1.724954    1.061573   -0.000064
      6          6           0        1.330570   -1.322146   -0.000054
      7          6           0        2.211685   -0.240909   -0.000088
      8          6           0       -1.988213    0.461938    0.000082
      9          1           0       -0.036898    2.294302    0.000014
     10          1           0       -0.739901   -1.925063    0.000028
     11          1           0        2.411535    1.898360   -0.000091
     12          1           0        1.717316   -2.333305   -0.000073
     13          1           0        3.280176   -0.416944   -0.000135
     14          1           0       -2.264576    1.537230    0.000106
 ---------------------------------------------------------------------
 Rotational constants (GHZ):           5.2803940           1.5666048           1.2081630
 Leave Link  202 at Wed Feb  7 14:33:43 2024, MaxMem=  6710886400 cpu:               0.1 elap:               0.0
 (Enter /tmpu/scunam/7/gaussian-2016.03/g1/g16/l301.exe)
 Standard basis: def2TZVP (5D, 7F)
 Ernie: Thresh=  0.10000D-02 Tol=  0.10000D-05 Strict=F.
 There are   324 symmetry adapted cartesian basis functions of A   symmetry.
 There are   284 symmetry adapted basis functions of A   symmetry.
   284 basis functions,   456 primitive gaussians,   324 cartesian basis functions
    28 alpha electrons       28 beta electrons
       nuclear repulsion energy       321.6943473638 Hartrees.
 IExCor=  402 DFT=T Ex+Corr=B3LYP ExCW=0 ScaHFX=  0.200000
 ScaDFX=  0.800000  0.720000  1.000000  0.810000 ScalE2=  1.000000  1.000000
 IRadAn=      5 IRanWt=     -1 IRanGd=            0 ICorTp=0 IEmpDi=  4
 NAtoms=   14 NActive=   14 NUniq=   14 SFac= 1.00D+00 NAtFMM=   60 NAOKFM=F Big=F
 Integral buffers will be    131072 words long.
 Raffenetti 2 integral format.
 Two-electron integral symmetry is turned on.
 Leave Link  301 at Wed Feb  7 14:33:43 2024, MaxMem=  6710886400 cpu:               0.8 elap:               0.1
 (Enter /tmpu/scunam/7/gaussian-2016.03/g1/g16/l302.exe)
 NPDir=0 NMtPBC=     1 NCelOv=     1 NCel=       1 NClECP=     1 NCelD=      1
         NCelK=      1 NCelE2=     1 NClLst=     1 CellRange=     0.0.
 One-electron integrals computed using PRISM.
 One-electron integral symmetry used in STVInt
   1 Symmetry operations used in ECPInt.
 ECPInt:  NShTT=    6328 NPrTT=   19500 LenC2=    6194 LenP2D=   15434.
 LDataN:  DoStor=T MaxTD1= 6 Len=  172
 NBasis=   284 RedAO= T EigKep=  8.80D-06  NBF=   284
 NBsUse=   284 1.00D-06 EigRej= -1.00D+00 NBFU=   284
 Precomputing XC quadrature grid using
 IXCGrd= 4 IRadAn=           5 IRanWt=          -1 IRanGd=           0 AccXCQ= 0.00D+00.
 Generated NRdTot=       0 NPtTot=           0 NUsed=           0 NTot=          32
 NSgBfM=   323   323   323   323   323 MxSgAt=    14 MxSgA2=    14.
 Leave Link  302 at Wed Feb  7 14:33:43 2024, MaxMem=  6710886400 cpu:               4.5 elap:               0.3
 (Enter /tmpu/scunam/7/gaussian-2016.03/g1/g16/l303.exe)
 DipDrv:  MaxL=1.
 Leave Link  303 at Wed Feb  7 14:33:43 2024, MaxMem=  6710886400 cpu:               0.6 elap:               0.1
 (Enter /tmpu/scunam/7/gaussian-2016.03/g1/g16/l401.exe)
 Initial guess from the checkpoint file:  "Benzaldehyde.chk"
 B after Tr=     0.000000    0.000000    0.000000
         Rot=    1.000000    0.000000   -0.000001    0.000000 Ang=   0.00 deg.
 Guess basis will be translated and rotated to current coordinates.
 JPrj=2 DoOrth=T DoCkMO=T.
 Leave Link  401 at Wed Feb  7 14:33:43 2024, MaxMem=  6710886400 cpu:               2.5 elap:               0.2
 (Enter /tmpu/scunam/7/gaussian-2016.03/g1/g16/l502.exe)
 Integral symmetry usage will be decided dynamically.
 Closed shell SCF:
 Using DIIS extrapolation, IDIIS=  1040.
 NGot=  6710886400 LenX=  6710668346 LenY=  6710562929
 Requested convergence on RMS density matrix=1.00D-08 within1024 cycles.
 Requested convergence on MAX density matrix=1.00D-06.
 Requested convergence on             energy=1.00D-06.
 No special actions if energy rises.
 Fock matrices will be formed incrementally for  20 cycles.

 Cycle   1  Pass 1  IDiag  1:
 FoFJK:  IHMeth= 1 ICntrl=       0 DoSepK=F KAlg= 0 I1Cent=           0 FoldK=F
 IRaf= 950000000 NMat=       1 IRICut=       1 DoRegI=T DoRafI=F ISym2E= 0 IDoP0=0 IntGTp=1.
 FoFCou: FMM=F IPFlag=           0 FMFlag=      100000 FMFlg1=           0
         NFxFlg=           0 DoJE=F BraDBF=F KetDBF=F FulRan=T
         wScrn=  0.000000 ICntrl=         0 IOpCl=  0 I1Cent=           0 NGrid=           0
         NMat0=    1 NMatS0=      1 NMatT0=    0 NMatD0=    1 NMtDS0=    0 NMtDT0=    0
 Symmetry not used in FoFCou.
 E= -345.708113336474    
 DIIS: error= 6.12D-07 at cycle   1 NSaved=   1.
 NSaved= 1 IEnMin= 1 EnMin= -345.708113336474     IErMin= 1 ErrMin= 6.12D-07
 ErrMax= 6.12D-07  0.00D+00 EMaxC= 1.00D-01 BMatC= 1.18D-10 BMatP= 1.18D-10
 IDIUse=1 WtCom= 1.00D+00 WtEn= 0.00D+00
 Coeff-Com:  0.100D+01
 Coeff:      0.100D+01
 Gap=     0.750 Goal=   None    Shift=    0.000
 RMSDP=9.94D-08 MaxDP=4.26D-06              OVMax= 5.39D-06

 Cycle   2  Pass 1  IDiag  1:
 RMSU=  9.94D-08    CP:  1.00D+00
 E= -345.708113336644     Delta-E=       -0.000000000170 Rises=F Damp=F
 DIIS: error= 7.93D-08 at cycle   2 NSaved=   2.
 NSaved= 2 IEnMin= 2 EnMin= -345.708113336644     IErMin= 2 ErrMin= 7.93D-08
 ErrMax= 7.93D-08  0.00D+00 EMaxC= 1.00D-01 BMatC= 1.64D-12 BMatP= 1.18D-10
 IDIUse=1 WtCom= 1.00D+00 WtEn= 0.00D+00
 Coeff-Com: -0.534D-01 0.105D+01
 Coeff:     -0.534D-01 0.105D+01
 Gap=     0.191 Goal=   None    Shift=    0.000
 RMSDP=1.09D-08 MaxDP=3.32D-07 DE=-1.70D-10 OVMax= 1.13D-06

 Cycle   3  Pass 1  IDiag  1:
 RMSU=  8.70D-09    CP:  1.00D+00  1.07D+00
 E= -345.708113336647     Delta-E=       -0.000000000003 Rises=F Damp=F
 DIIS: error= 6.34D-08 at cycle   3 NSaved=   3.
 NSaved= 3 IEnMin= 3 EnMin= -345.708113336647     IErMin= 3 ErrMin= 6.34D-08
 ErrMax= 6.34D-08  0.00D+00 EMaxC= 1.00D-01 BMatC= 3.95D-13 BMatP= 1.64D-12
 IDIUse=1 WtCom= 1.00D+00 WtEn= 0.00D+00
 Coeff-Com: -0.209D-01 0.321D+00 0.700D+00
 Coeff:     -0.209D-01 0.321D+00 0.700D+00
 Gap=     0.191 Goal=   None    Shift=    0.000
 RMSDP=3.51D-09 MaxDP=1.11D-07 DE=-3.41D-12 OVMax= 4.69D-07

 SCF Done:  E(RB3LYP) =  -345.708113337     A.U. after    3 cycles
            NFock=  3  Conv=0.35D-08     -V/T= 2.0050
 KE= 3.440044114761D+02 PE=-1.448133793952D+03 EE= 4.367269217757D+02
 Leave Link  502 at Wed Feb  7 14:33:52 2024, MaxMem=  6710886400 cpu:             130.8 elap:               8.2
 (Enter /tmpu/scunam/7/gaussian-2016.03/g1/g16/l701.exe)
 ... and contract with generalized density number  0.
 Compute integral first derivatives.
   1 Symmetry operations used in ECPInt.
 ECPInt:  NShTT=    6328 NPrTT=   19500 LenC2=    6194 LenP2D=   15434.
 LDataN:  DoStor=T MaxTD1= 7 Len=  274
 Leave Link  701 at Wed Feb  7 14:33:52 2024, MaxMem=  6710886400 cpu:               3.8 elap:               0.3
 (Enter /tmpu/scunam/7/gaussian-2016.03/g1/g16/l702.exe)
 L702 exits ... SP integral derivatives will be done elsewhere.
 Leave Link  702 at Wed Feb  7 14:33:52 2024, MaxMem=  6710886400 cpu:               0.3 elap:               0.0
 (Enter /tmpu/scunam/7/gaussian-2016.03/g1/g16/l703.exe)
 Integral derivatives from FoFJK, PRISM(SPDF).
 Compute integral first derivatives, UseDBF=F ICtDFT=           0.
 Calling FoFJK, ICntrl=      2127 FMM=F ISym2X=0 I1Cent= 0 IOpClX= 0 NMat=1 NMatS=1 NMatT=0.
 FoFJK:  IHMeth= 1 ICntrl=    2127 DoSepK=F KAlg= 0 I1Cent=           0 FoldK=F
 IRaf=         0 NMat=       1 IRICut=       1 DoRegI=T DoRafI=F ISym2E= 0 IDoP0=0 IntGTp=1.
 FoFCou: FMM=F IPFlag=           0 FMFlag=      100000 FMFlg1=         800
         NFxFlg=           0 DoJE=F BraDBF=F KetDBF=F FulRan=T
         wScrn=  0.000000 ICntrl=      2127 IOpCl=  0 I1Cent=           0 NGrid=           0
         NMat0=    1 NMatS0=      1 NMatT0=    0 NMatD0=    1 NMtDS0=    0 NMtDT0=    0
 Symmetry not used in FoFCou.
 Leave Link  703 at Wed Feb  7 14:34:03 2024, MaxMem=  6710886400 cpu:             182.7 elap:              11.5
 (Enter /tmpu/scunam/7/gaussian-2016.03/g1/g16/l716.exe)
 Dipole        = 1.27202671D+00 4.76813245D-01-3.69188042D-05
 ***** Axes restored to original set *****
 -------------------------------------------------------------------
 Center     Atomic                   Forces (Hartrees/Bohr)
 Number     Number              X              Y              Z
 -------------------------------------------------------------------
      1        8          -0.000000590   -0.000000465   -0.000000261
      2        6          -0.000000571    0.000000471    0.000000018
      3        6           0.000001062   -0.000000266   -0.000000040
      4        6          -0.000000246   -0.000000156   -0.000000076
      5        6          -0.000000036   -0.000000002    0.000000020
      6        6           0.000000090    0.000000132    0.000000036
      7        6          -0.000000252    0.000000960    0.000000015
      8        6           0.000000762   -0.000000798    0.000000445
      9        1          -0.000000018   -0.000000035   -0.000000013
     10        1          -0.000000459   -0.000000467    0.000000035
     11        1           0.000000393    0.000000328   -0.000000014
     12        1          -0.000000168    0.000000044    0.000000024
     13        1          -0.000000191    0.000000273   -0.000000060
     14        1           0.000000224   -0.000000021   -0.000000130
 -------------------------------------------------------------------
 Cartesian Forces:  Max     0.000001062 RMS     0.000000372
 Leave Link  716 at Wed Feb  7 14:34:03 2024, MaxMem=  6710886400 cpu:               0.3 elap:               0.0
 (Enter /tmpu/scunam/7/gaussian-2016.03/g1/g16/l103.exe)

 GradGradGradGradGradGradGradGradGradGradGradGradGradGradGradGradGradGrad
 Berny optimization.
 Search for a local minimum.
 Step number  13 out of a maximum of  100
 All quantities printed in internal units (Hartrees-Bohrs-Radians)
 Update second derivatives using D2CorN and points    1    2    3    4    5
                                                          6   13
 DE= -3.29D-11 DEPred=-5.33D-11 R= 6.17D-01
 Trust test= 6.17D-01 RLast= 6.51D-05 DXMaxT set to 9.61D-02
 ITU=  0  0 -1 -1  0  0  0  0  1  1  1  1  0
     Eigenvalues ---    0.00290   0.00767   0.01136   0.01659   0.02608
     Eigenvalues ---    0.03892   0.05056   0.06879   0.07103   0.07351
     Eigenvalues ---    0.08249   0.08734   0.09863   0.11160   0.11220
     Eigenvalues ---    0.13597   0.16944   0.18356   0.21091   0.29340
     Eigenvalues ---    0.30232   0.31220   0.36535   0.43121   0.44648
     Eigenvalues ---    0.58777   0.68381   0.81635   1.02506   1.10976
     Eigenvalues ---    1.22612   1.25959   1.46901   1.57957   1.60909
     Eigenvalues ---    1.90512
 RFO step:  Lambda= 0.00000000D+00 EMin= 2.89708915D-03
 Skip linear search -- no minimum in search direction.
 B after Tr=     0.000000    0.000000   -0.000000
         Rot=    1.000000   -0.000000   -0.000000   -0.000000 Ang=  -0.00 deg.
 Variable       Old X    -DE/DX   Delta X   Delta X   Delta X     New X
                                 (Linear)    (Quad)   (Total)
    X1        5.43800  -0.00000   0.00000   0.00000   0.00000   5.43801
    Y1       -0.64548  -0.00000   0.00000   0.00000   0.00000  -0.64548
    Z1       -0.00031  -0.00000   0.00000  -0.00001  -0.00001  -0.00031
    X2        1.05341  -0.00000   0.00000   0.00000   0.00000   1.05341
    Y2        0.41212   0.00000   0.00000  -0.00000  -0.00000   0.41212
    Z2       -0.00018   0.00000   0.00000   0.00000   0.00000  -0.00018
    X3       -0.65353   0.00000   0.00000   0.00000   0.00000  -0.65353
    Y3        2.42181  -0.00000   0.00000  -0.00000  -0.00000   2.42181
    Z3       -0.00012  -0.00000   0.00000   0.00000   0.00000  -0.00012
    X4        0.15605  -0.00000   0.00000  -0.00000  -0.00000   0.15605
    Y4       -2.07307  -0.00000   0.00000  -0.00000  -0.00000  -2.07307
    Z4       -0.00013  -0.00000   0.00000   0.00000   0.00000  -0.00013
    X5       -3.23775  -0.00000   0.00000   0.00000   0.00000  -3.23775
    Y5        1.96261  -0.00000   0.00000  -0.00000  -0.00000   1.96261
    Z5       -0.00001   0.00000   0.00000  -0.00000  -0.00000  -0.00001
    X6       -2.42096   0.00000   0.00000  -0.00000   0.00000  -2.42096
    Y6       -2.52955   0.00000   0.00000  -0.00000  -0.00000  -2.52955
    Z6       -0.00003   0.00000   0.00000   0.00000   0.00000  -0.00003
    X7       -4.11830  -0.00000   0.00000  -0.00000  -0.00000  -4.11830
    Y7       -0.51304   0.00000   0.00000   0.00000   0.00000  -0.51304
    Z7        0.00004   0.00000   0.00000  -0.00000  -0.00000   0.00004
    X8        3.79624   0.00000   0.00000   0.00000   0.00000   3.79624
    Y8        0.94115  -0.00000   0.00000   0.00000   0.00000   0.94115
    Z8       -0.00028   0.00000   0.00000   0.00000   0.00000  -0.00028
    X9        0.05421  -0.00000   0.00000  -0.00000  -0.00000   0.05421
    Y9        4.34476  -0.00000   0.00000  -0.00000  -0.00000   4.34476
    Z9       -0.00016  -0.00000   0.00000   0.00000   0.00000  -0.00015
   X10        1.50928  -0.00000   0.00000  -0.00000  -0.00000   1.50928
   Y10       -3.60656  -0.00000   0.00000  -0.00000  -0.00000  -3.60656
   Z10       -0.00018   0.00000   0.00000   0.00000   0.00000  -0.00018
   X11       -4.56018   0.00000   0.00000   0.00000   0.00000  -4.56018
   Y11        3.52308   0.00000   0.00000   0.00000   0.00000   3.52308
   Z11        0.00004  -0.00000   0.00000  -0.00000  -0.00000   0.00004
   X12       -3.12134  -0.00000   0.00000   0.00000   0.00000  -3.12134
   Y12       -4.45174   0.00000   0.00000  -0.00000  -0.00000  -4.45174
   Z12        0.00001   0.00000   0.00000   0.00000   0.00000   0.00001
   X13       -6.13191  -0.00000   0.00000  -0.00000  -0.00000  -6.13191
   Y13       -0.87775   0.00000   0.00000   0.00000  -0.00000  -0.87775
   Z13        0.00013  -0.00000   0.00000  -0.00000  -0.00000   0.00012
   X14        4.28612   0.00000   0.00000  -0.00000  -0.00000   4.28612
   Y14        2.98120  -0.00000   0.00000   0.00000   0.00000   2.98120
   Z14       -0.00033  -0.00000   0.00000   0.00000   0.00000  -0.00033
         Item               Value     Threshold  Converged?
 Maximum Force            0.000001     0.000002     YES
 RMS     Force            0.000000     0.000001     YES
 Maximum Displacement     0.000006     0.000006     NO 
 RMS     Displacement     0.000001     0.000004     YES
 Predicted change in Energy=-2.177876D-12
 Lowest energy point so far.  Saving SCF results.
 GradGradGradGradGradGradGradGradGradGradGradGradGradGradGradGradGradGrad

 Leave Link  103 at Wed Feb  7 14:34:03 2024, MaxMem=  6710886400 cpu:               0.2 elap:               0.0
 (Enter /tmpu/scunam/7/gaussian-2016.03/g1/g16/l202.exe)
                          Input orientation:                          
 ---------------------------------------------------------------------
 Center     Atomic      Atomic             Coordinates (Angstroms)
 Number     Number       Type             X           Y           Z
 ---------------------------------------------------------------------
      1          8           0        2.877668   -0.341572   -0.000166
      2          6           0        0.557443    0.218084   -0.000094
      3          6           0       -0.345832    1.281569   -0.000062
      4          6           0        0.082581   -1.097019   -0.000070
      5          6           0       -1.713346    1.038566   -0.000005
      6          6           0       -1.281118   -1.338582   -0.000014
      7          6           0       -2.179311   -0.271488    0.000020
      8          6           0        2.008885    0.498034   -0.000149
      9          1           0        0.028688    2.299147   -0.000082
     10          1           0        0.798674   -1.908511   -0.000096
     11          1           0       -2.413141    1.864334    0.000022
     12          1           0       -1.651742   -2.355761    0.000005
     13          1           0       -3.244868   -0.464486    0.000066
     14          1           0        2.268119    1.577584   -0.000174
 ---------------------------------------------------------------------
                    Distance matrix (angstroms):
                    1          2          3          4          5
     1  O    0.000000
     2  C    2.386768   0.000000
     3  C    3.609091   1.395315   0.000000
     4  C    2.895378   1.398210   2.416861   0.000000
     5  C    4.793974   2.414471   1.388936   2.790354   0.000000
     6  C    4.276627   2.409048   2.782076   1.384929   2.416123
     7  C    5.057465   2.780198   2.402838   2.407832   1.390455
     8  C    1.208190   1.478193   2.481656   2.500968   3.761273
     9  H    3.884596   2.147185   1.084312   3.396594   2.150290
    10  H    2.603366   2.140233   3.389174   1.082270   3.872403
    11  H    5.732249   3.396249   2.147878   3.872756   1.082408
    12  H    4.957067   3.391928   3.864656   2.142966   3.394886
    13  H    6.123771   3.863091   3.384246   3.387037   2.145863
    14  H    2.013631   2.185098   2.630659   3.453995   4.017786
                    6          7          8          9         10
     6  C    0.000000
     7  C    1.394790   0.000000
     8  C    3.767927   4.258303   0.000000
     9  H    3.866350   3.388720   2.676787   0.000000
    10  H    2.156468   3.398270   2.693708   4.277530   0.000000
    11  H    3.397079   2.148584   4.628292   2.480240   4.954807
    12  H    1.082597   2.150006   4.641587   4.948941   2.490898
    13  H    2.149502   1.082895   5.341195   4.284138   4.293652
    14  H    4.593594   4.816503   1.110239   2.352808   3.783137
                   11         12         13         14
    11  H    0.000000
    12  H    4.288232   0.000000
    13  H    2.472888   2.472848   0.000000
    14  H    4.690034   5.553064   5.879038   0.000000
 Stoichiometry    C7H6O
 Framework group  C1[X(C7H6O)]
 Deg. of freedom    36
 Full point group                 C1      NOp   1
 RotChk:  IX=2 Diff= 3.85D-07
 Largest Abelian subgroup         C1      NOp   1
 Largest concise Abelian subgroup C1      NOp   1
                         Standard orientation:                         
 ---------------------------------------------------------------------
 Center     Atomic      Atomic             Coordinates (Angstroms)
 Number     Number       Type             X           Y           Z
 ---------------------------------------------------------------------
      1          8           0       -2.843540   -0.391373    0.000098
      2          6           0       -0.532505    0.205096    0.000026
      3          6           0        0.353750    1.282806   -0.000006
      4          6           0       -0.036797   -1.102292    0.000001
      5          6           0        1.724954    1.061573   -0.000064
      6          6           0        1.330570   -1.322145   -0.000055
      7          6           0        2.211686   -0.240908   -0.000088
      8          6           0       -1.988213    0.461937    0.000080
      9          1           0       -0.036899    2.294302    0.000014
     10          1           0       -0.739900   -1.925064    0.000027
     11          1           0        2.411534    1.898361   -0.000090
     12          1           0        1.717316   -2.333305   -0.000073
     13          1           0        3.280177   -0.416943   -0.000134
     14          1           0       -2.264577    1.537230    0.000106
 ---------------------------------------------------------------------
 Rotational constants (GHZ):           5.2803943           1.5666047           1.2081629
 Leave Link  202 at Wed Feb  7 14:34:04 2024, MaxMem=  6710886400 cpu:               0.1 elap:               0.0
 (Enter /tmpu/scunam/7/gaussian-2016.03/g1/g16/l301.exe)
 Standard basis: def2TZVP (5D, 7F)
 Ernie: Thresh=  0.10000D-02 Tol=  0.10000D-05 Strict=F.
 There are   324 symmetry adapted cartesian basis functions of A   symmetry.
 There are   284 symmetry adapted basis functions of A   symmetry.
   284 basis functions,   456 primitive gaussians,   324 cartesian basis functions
    28 alpha electrons       28 beta electrons
       nuclear repulsion energy       321.6943431902 Hartrees.
 IExCor=  402 DFT=T Ex+Corr=B3LYP ExCW=0 ScaHFX=  0.200000
 ScaDFX=  0.800000  0.720000  1.000000  0.810000 ScalE2=  1.000000  1.000000
 IRadAn=      5 IRanWt=     -1 IRanGd=            0 ICorTp=0 IEmpDi=  4
 NAtoms=   14 NActive=   14 NUniq=   14 SFac= 1.00D+00 NAtFMM=   60 NAOKFM=F Big=F
 Integral buffers will be    131072 words long.
 Raffenetti 2 integral format.
 Two-electron integral symmetry is turned on.
 Leave Link  301 at Wed Feb  7 14:34:04 2024, MaxMem=  6710886400 cpu:               0.8 elap:               0.1
 (Enter /tmpu/scunam/7/gaussian-2016.03/g1/g16/l302.exe)
 NPDir=0 NMtPBC=     1 NCelOv=     1 NCel=       1 NClECP=     1 NCelD=      1
         NCelK=      1 NCelE2=     1 NClLst=     1 CellRange=     0.0.
 One-electron integrals computed using PRISM.
 One-electron integral symmetry used in STVInt
   1 Symmetry operations used in ECPInt.
 ECPInt:  NShTT=    6328 NPrTT=   19500 LenC2=    6194 LenP2D=   15434.
 LDataN:  DoStor=T MaxTD1= 6 Len=  172
 NBasis=   284 RedAO= T EigKep=  8.80D-06  NBF=   284
 NBsUse=   284 1.00D-06 EigRej= -1.00D+00 NBFU=   284
 Precomputing XC quadrature grid using
 IXCGrd= 4 IRadAn=           5 IRanWt=          -1 IRanGd=           0 AccXCQ= 0.00D+00.
 Generated NRdTot=       0 NPtTot=           0 NUsed=           0 NTot=          32
 NSgBfM=   323   323   323   323   323 MxSgAt=    14 MxSgA2=    14.
 Leave Link  302 at Wed Feb  7 14:34:04 2024, MaxMem=  6710886400 cpu:               4.5 elap:               0.3
 (Enter /tmpu/scunam/7/gaussian-2016.03/g1/g16/l303.exe)
 DipDrv:  MaxL=1.
 Leave Link  303 at Wed Feb  7 14:34:04 2024, MaxMem=  6710886400 cpu:               0.6 elap:               0.1
 (Enter /tmpu/scunam/7/gaussian-2016.03/g1/g16/l401.exe)
 Initial guess from the checkpoint file:  "Benzaldehyde.chk"
 B after Tr=    -0.000000   -0.000000   -0.000000
         Rot=    1.000000    0.000000   -0.000000   -0.000000 Ang=   0.00 deg.
 Guess basis will be translated and rotated to current coordinates.
 JPrj=2 DoOrth=T DoCkMO=T.
 Leave Link  401 at Wed Feb  7 14:34:04 2024, MaxMem=  6710886400 cpu:               2.5 elap:               0.2
 (Enter /tmpu/scunam/7/gaussian-2016.03/g1/g16/l502.exe)
 Integral symmetry usage will be decided dynamically.
 Closed shell SCF:
 Using DIIS extrapolation, IDIIS=  1040.
 NGot=  6710886400 LenX=  6710668346 LenY=  6710562929
 Requested convergence on RMS density matrix=1.00D-08 within1024 cycles.
 Requested convergence on MAX density matrix=1.00D-06.
 Requested convergence on             energy=1.00D-06.
 No special actions if energy rises.
 Fock matrices will be formed incrementally for  20 cycles.

 Cycle   1  Pass 1  IDiag  1:
 FoFJK:  IHMeth= 1 ICntrl=       0 DoSepK=F KAlg= 0 I1Cent=           0 FoldK=F
 IRaf= 950000000 NMat=       1 IRICut=       1 DoRegI=T DoRafI=F ISym2E= 0 IDoP0=0 IntGTp=1.
 FoFCou: FMM=F IPFlag=           0 FMFlag=      100000 FMFlg1=           0
         NFxFlg=           0 DoJE=F BraDBF=F KetDBF=F FulRan=T
         wScrn=  0.000000 ICntrl=         0 IOpCl=  0 I1Cent=           0 NGrid=           0
         NMat0=    1 NMatS0=      1 NMatT0=    0 NMatD0=    1 NMtDS0=    0 NMtDT0=    0
 Symmetry not used in FoFCou.
 E= -345.708113336648    
 DIIS: error= 1.64D-07 at cycle   1 NSaved=   1.
 NSaved= 1 IEnMin= 1 EnMin= -345.708113336648     IErMin= 1 ErrMin= 1.64D-07
 ErrMax= 1.64D-07  0.00D+00 EMaxC= 1.00D-01 BMatC= 6.78D-12 BMatP= 6.78D-12
 IDIUse=1 WtCom= 1.00D+00 WtEn= 0.00D+00
 Coeff-Com:  0.100D+01
 Coeff:      0.100D+01
 Gap=     0.750 Goal=   None    Shift=    0.000
 RMSDP=1.85D-08 MaxDP=5.88D-07              OVMax= 1.34D-06

 Cycle   2  Pass 1  IDiag  1:
 RMSU=  1.84D-08    CP:  1.00D+00
 E= -345.708113336654     Delta-E=       -0.000000000005 Rises=F Damp=F
 DIIS: error= 1.60D-07 at cycle   2 NSaved=   2.
 NSaved= 2 IEnMin= 2 EnMin= -345.708113336654     IErMin= 2 ErrMin= 1.60D-07
 ErrMax= 1.60D-07  0.00D+00 EMaxC= 1.00D-01 BMatC= 1.63D-12 BMatP= 6.78D-12
 IDIUse=1 WtCom= 1.00D+00 WtEn= 0.00D+00
 Coeff-Com:  0.214D+00 0.786D+00
 Coeff:      0.214D+00 0.786D+00
 Gap=     0.191 Goal=   None    Shift=    0.000
 RMSDP=8.85D-09 MaxDP=7.11D-07 DE=-5.23D-12 OVMax= 1.21D-06

 SCF Done:  E(RB3LYP) =  -345.708113337     A.U. after    2 cycles
            NFock=  2  Conv=0.89D-08     -V/T= 2.0050
 KE= 3.440044134231D+02 PE=-1.448133788210D+03 EE= 4.367269182597D+02
 Leave Link  502 at Wed Feb  7 14:34:10 2024, MaxMem=  6710886400 cpu:              88.2 elap:               5.5
 (Enter /tmpu/scunam/7/gaussian-2016.03/g1/g16/l701.exe)
 ... and contract with generalized density number  0.
 Compute integral first derivatives.
   1 Symmetry operations used in ECPInt.
 ECPInt:  NShTT=    6328 NPrTT=   19500 LenC2=    6194 LenP2D=   15434.
 LDataN:  DoStor=T MaxTD1= 7 Len=  274
 Leave Link  701 at Wed Feb  7 14:34:10 2024, MaxMem=  6710886400 cpu:               3.8 elap:               0.3
 (Enter /tmpu/scunam/7/gaussian-2016.03/g1/g16/l702.exe)
 L702 exits ... SP integral derivatives will be done elsewhere.
 Leave Link  702 at Wed Feb  7 14:34:10 2024, MaxMem=  6710886400 cpu:               0.3 elap:               0.0
 (Enter /tmpu/scunam/7/gaussian-2016.03/g1/g16/l703.exe)
 Integral derivatives from FoFJK, PRISM(SPDF).
 Compute integral first derivatives, UseDBF=F ICtDFT=           0.
 Calling FoFJK, ICntrl=      2127 FMM=F ISym2X=0 I1Cent= 0 IOpClX= 0 NMat=1 NMatS=1 NMatT=0.
 FoFJK:  IHMeth= 1 ICntrl=    2127 DoSepK=F KAlg= 0 I1Cent=           0 FoldK=F
 IRaf=         0 NMat=       1 IRICut=       1 DoRegI=T DoRafI=F ISym2E= 0 IDoP0=0 IntGTp=1.
 FoFCou: FMM=F IPFlag=           0 FMFlag=      100000 FMFlg1=         800
         NFxFlg=           0 DoJE=F BraDBF=F KetDBF=F FulRan=T
         wScrn=  0.000000 ICntrl=      2127 IOpCl=  0 I1Cent=           0 NGrid=           0
         NMat0=    1 NMatS0=      1 NMatT0=    0 NMatD0=    1 NMtDS0=    0 NMtDT0=    0
 Symmetry not used in FoFCou.
 Leave Link  703 at Wed Feb  7 14:34:22 2024, MaxMem=  6710886400 cpu:             183.1 elap:              11.5
 (Enter /tmpu/scunam/7/gaussian-2016.03/g1/g16/l716.exe)
 Dipole        = 1.27202306D+00 4.76819159D-01-3.91119014D-05
 ***** Axes restored to original set *****
 -------------------------------------------------------------------
 Center     Atomic                   Forces (Hartrees/Bohr)
 Number     Number              X              Y              Z
 -------------------------------------------------------------------
      1        8          -0.000000376   -0.000000609    0.000000003
      2        6          -0.000000400    0.000000318    0.000000072
      3        6           0.000000837   -0.000000187    0.000000018
      4        6          -0.000000153   -0.000000095    0.000000009
      5        6           0.000000129    0.000000195   -0.000000014
      6        6          -0.000000029    0.000000184    0.000000005
      7        6          -0.000000197    0.000000864    0.000000009
      8        6           0.000000420   -0.000000627   -0.000000190
      9        1           0.000000023   -0.000000106    0.000000012
     10        1          -0.000000385   -0.000000363    0.000000034
     11        1           0.000000314    0.000000268   -0.000000019
     12        1          -0.000000210    0.000000019    0.000000011
     13        1          -0.000000188    0.000000276   -0.000000033
     14        1           0.000000215   -0.000000137    0.000000081
 -------------------------------------------------------------------
 Cartesian Forces:  Max     0.000000864 RMS     0.000000298
 Leave Link  716 at Wed Feb  7 14:34:22 2024, MaxMem=  6710886400 cpu:               0.3 elap:               0.0
 (Enter /tmpu/scunam/7/gaussian-2016.03/g1/g16/l103.exe)

 GradGradGradGradGradGradGradGradGradGradGradGradGradGradGradGradGradGrad
 Berny optimization.
 Search for a local minimum.
 Step number  14 out of a maximum of  100
 All quantities printed in internal units (Hartrees-Bohrs-Radians)
 Update second derivatives using D2CorN and points    1    2    3    4    5
                                                          6   14
 DE= -6.42D-12 DEPred=-2.18D-12 R= 2.95D+00
 Trust test= 2.95D+00 RLast= 8.90D-06 DXMaxT set to 9.61D-02
 ITU=  0  0  0 -1 -1  0  0  0  0  1  1  1  1  0
     Eigenvalues ---    0.00286   0.00768   0.01138   0.01659   0.02608
     Eigenvalues ---    0.03892   0.05081   0.06875   0.07103   0.07344
     Eigenvalues ---    0.08337   0.08742   0.09860   0.11164   0.11265
     Eigenvalues ---    0.13617   0.16955   0.18366   0.21071   0.29340
     Eigenvalues ---    0.30232   0.31221   0.36532   0.43120   0.44649
     Eigenvalues ---    0.58783   0.68379   0.81634   1.02502   1.10966
     Eigenvalues ---    1.22611   1.25944   1.46876   1.57954   1.60889
     Eigenvalues ---    1.90355
 RFO step:  Lambda= 0.00000000D+00 EMin= 2.85721431D-03
 Skip linear search -- no minimum in search direction.
 B after Tr=     0.000000    0.000000   -0.000001
         Rot=    1.000000   -0.000000   -0.000000   -0.000000 Ang=  -0.00 deg.
 Variable       Old X    -DE/DX   Delta X   Delta X   Delta X     New X
                                 (Linear)    (Quad)   (Total)
    X1        5.43801  -0.00000   0.00000   0.00000   0.00000   5.43801
    Y1       -0.64548  -0.00000   0.00000   0.00000   0.00000  -0.64548
    Z1       -0.00031   0.00000   0.00000  -0.00001  -0.00001  -0.00032
    X2        1.05341  -0.00000   0.00000  -0.00000   0.00000   1.05341
    Y2        0.41212   0.00000   0.00000  -0.00000  -0.00000   0.41212
    Z2       -0.00018   0.00000   0.00000   0.00000   0.00000  -0.00018
    X3       -0.65353   0.00000   0.00000   0.00000   0.00000  -0.65353
    Y3        2.42181  -0.00000   0.00000  -0.00000  -0.00000   2.42181
    Z3       -0.00012   0.00000   0.00000   0.00000   0.00000  -0.00012
    X4        0.15605  -0.00000   0.00000   0.00000   0.00000   0.15606
    Y4       -2.07307  -0.00000   0.00000  -0.00000  -0.00000  -2.07307
    Z4       -0.00013   0.00000   0.00000   0.00000   0.00000  -0.00013
    X5       -3.23775   0.00000   0.00000   0.00000   0.00000  -3.23775
    Y5        1.96261   0.00000   0.00000   0.00000   0.00000   1.96261
    Z5       -0.00001  -0.00000   0.00000  -0.00000  -0.00000  -0.00001
    X6       -2.42096  -0.00000   0.00000  -0.00000   0.00000  -2.42096
    Y6       -2.52955   0.00000   0.00000  -0.00000  -0.00000  -2.52955
    Z6       -0.00003   0.00000   0.00000   0.00000   0.00000  -0.00002
    X7       -4.11830  -0.00000   0.00000  -0.00000  -0.00000  -4.11830
    Y7       -0.51304   0.00000   0.00000   0.00000   0.00000  -0.51304
    Z7        0.00004   0.00000   0.00000  -0.00000  -0.00000   0.00004
    X8        3.79624   0.00000   0.00000   0.00000   0.00000   3.79624
    Y8        0.94115  -0.00000   0.00000   0.00000   0.00000   0.94115
    Z8       -0.00028  -0.00000   0.00000  -0.00000  -0.00000  -0.00028
    X9        0.05421   0.00000   0.00000  -0.00000  -0.00000   0.05421
    Y9        4.34476  -0.00000   0.00000  -0.00000  -0.00000   4.34476
    Z9       -0.00015   0.00000   0.00000   0.00000   0.00000  -0.00015
   X10        1.50928  -0.00000   0.00000  -0.00000  -0.00000   1.50927
   Y10       -3.60656  -0.00000   0.00000  -0.00000  -0.00000  -3.60656
   Z10       -0.00018   0.00000   0.00000   0.00001   0.00000  -0.00018
   X11       -4.56018   0.00000   0.00000   0.00000   0.00000  -4.56017
   Y11        3.52308   0.00000   0.00000   0.00000   0.00000   3.52308
   Z11        0.00004  -0.00000   0.00000  -0.00000  -0.00000   0.00004
   X12       -3.12134  -0.00000   0.00000  -0.00000   0.00000  -3.12134
   Y12       -4.45174   0.00000   0.00000  -0.00000  -0.00000  -4.45174
   Z12        0.00001   0.00000   0.00000   0.00000   0.00000   0.00001
   X13       -6.13191  -0.00000   0.00000  -0.00000  -0.00000  -6.13191
   Y13       -0.87775   0.00000   0.00000   0.00000   0.00000  -0.87775
   Z13        0.00012  -0.00000   0.00000  -0.00001  -0.00000   0.00012
   X14        4.28612   0.00000   0.00000  -0.00000  -0.00000   4.28612
   Y14        2.98120  -0.00000   0.00000   0.00000   0.00000   2.98120
   Z14       -0.00033   0.00000   0.00000   0.00001   0.00001  -0.00032
         Item               Value     Threshold  Converged?
 Maximum Force            0.000001     0.000002     YES
 RMS     Force            0.000000     0.000001     YES
 Maximum Displacement     0.000011     0.000006     NO 
 RMS     Displacement     0.000002     0.000004     YES
 Predicted change in Energy=-1.034336D-12
 Lowest energy point so far.  Saving SCF results.
 GradGradGradGradGradGradGradGradGradGradGradGradGradGradGradGradGradGrad

 Leave Link  103 at Wed Feb  7 14:34:22 2024, MaxMem=  6710886400 cpu:               0.4 elap:               0.0
 (Enter /tmpu/scunam/7/gaussian-2016.03/g1/g16/l202.exe)
                          Input orientation:                          
 ---------------------------------------------------------------------
 Center     Atomic      Atomic             Coordinates (Angstroms)
 Number     Number       Type             X           Y           Z
 ---------------------------------------------------------------------
      1          8           0        2.877669   -0.341571   -0.000172
      2          6           0        0.557443    0.218084   -0.000093
      3          6           0       -0.345832    1.281568   -0.000062
      4          6           0        0.082581   -1.097019   -0.000069
      5          6           0       -1.713345    1.038566   -0.000005
      6          6           0       -1.281118   -1.338582   -0.000013
      7          6           0       -2.179311   -0.271488    0.000019
      8          6           0        2.008885    0.498034   -0.000151
      9          1           0        0.028688    2.299147   -0.000081
     10          1           0        0.798674   -1.908511   -0.000094
     11          1           0       -2.413140    1.864335    0.000020
     12          1           0       -1.651742   -2.355761    0.000006
     13          1           0       -3.244869   -0.464486    0.000064
     14          1           0        2.268119    1.577584   -0.000170
 ---------------------------------------------------------------------
                    Distance matrix (angstroms):
                    1          2          3          4          5
     1  O    0.000000
     2  C    2.386768   0.000000
     3  C    3.609091   1.395315   0.000000
     4  C    2.895379   1.398210   2.416861   0.000000
     5  C    4.793974   2.414471   1.388936   2.790354   0.000000
     6  C    4.276627   2.409048   2.782076   1.384929   2.416123
     7  C    5.057465   2.780198   2.402838   2.407832   1.390455
     8  C    1.208190   1.478193   2.481656   2.500968   3.761273
     9  H    3.884596   2.147185   1.084311   3.396594   2.150289
    10  H    2.603367   2.140234   3.389174   1.082270   3.872403
    11  H    5.732249   3.396249   2.147878   3.872756   1.082408
    12  H    4.957067   3.391928   3.864656   2.142967   3.394887
    13  H    6.123771   3.863091   3.384246   3.387037   2.145863
    14  H    2.013631   2.185098   2.630659   3.453995   4.017786
                    6          7          8          9         10
     6  C    0.000000
     7  C    1.394790   0.000000
     8  C    3.767927   4.258303   0.000000
     9  H    3.866350   3.388719   2.676787   0.000000
    10  H    2.156468   3.398270   2.693710   4.277531   0.000000
    11  H    3.397079   2.148584   4.628292   2.480239   4.954807
    12  H    1.082597   2.150006   4.641587   4.948941   2.490897
    13  H    2.149502   1.082895   5.341195   4.284138   4.293652
    14  H    4.593594   4.816503   1.110239   2.352808   3.783138
                   11         12         13         14
    11  H    0.000000
    12  H    4.288233   0.000000
    13  H    2.472888   2.472848   0.000000
    14  H    4.690034   5.553064   5.879038   0.000000
 Stoichiometry    C7H6O
 Framework group  C1[X(C7H6O)]
 Deg. of freedom    36
 Full point group                 C1      NOp   1
 RotChk:  IX=2 Diff= 2.02D-07
 Largest Abelian subgroup         C1      NOp   1
 Largest concise Abelian subgroup C1      NOp   1
                         Standard orientation:                         
 ---------------------------------------------------------------------
 Center     Atomic      Atomic             Coordinates (Angstroms)
 Number     Number       Type             X           Y           Z
 ---------------------------------------------------------------------
      1          8           0       -2.843540   -0.391373    0.000103
      2          6           0       -0.532505    0.205096    0.000024
      3          6           0        0.353750    1.282805   -0.000008
      4          6           0       -0.036797   -1.102292   -0.000000
      5          6           0        1.724954    1.061573   -0.000064
      6          6           0        1.330570   -1.322145   -0.000056
      7          6           0        2.211686   -0.240908   -0.000088
      8          6           0       -1.988213    0.461937    0.000082
      9          1           0       -0.036899    2.294302    0.000012
     10          1           0       -0.739899   -1.925065    0.000025
     11          1           0        2.411533    1.898362   -0.000089
     12          1           0        1.717317   -2.333305   -0.000075
     13          1           0        3.280177   -0.416943   -0.000133
     14          1           0       -2.264577    1.537230    0.000101
 ---------------------------------------------------------------------
 Rotational constants (GHZ):           5.2803945           1.5666047           1.2081629
 Leave Link  202 at Wed Feb  7 14:34:22 2024, MaxMem=  6710886400 cpu:               0.1 elap:               0.0
 (Enter /tmpu/scunam/7/gaussian-2016.03/g1/g16/l301.exe)
 Standard basis: def2TZVP (5D, 7F)
 Ernie: Thresh=  0.10000D-02 Tol=  0.10000D-05 Strict=F.
 There are   324 symmetry adapted cartesian basis functions of A   symmetry.
 There are   284 symmetry adapted basis functions of A   symmetry.
   284 basis functions,   456 primitive gaussians,   324 cartesian basis functions
    28 alpha electrons       28 beta electrons
       nuclear repulsion energy       321.6943450385 Hartrees.
 IExCor=  402 DFT=T Ex+Corr=B3LYP ExCW=0 ScaHFX=  0.200000
 ScaDFX=  0.800000  0.720000  1.000000  0.810000 ScalE2=  1.000000  1.000000
 IRadAn=      5 IRanWt=     -1 IRanGd=            0 ICorTp=0 IEmpDi=  4
 NAtoms=   14 NActive=   14 NUniq=   14 SFac= 1.00D+00 NAtFMM=   60 NAOKFM=F Big=F
 Integral buffers will be    131072 words long.
 Raffenetti 2 integral format.
 Two-electron integral symmetry is turned on.
 Leave Link  301 at Wed Feb  7 14:34:22 2024, MaxMem=  6710886400 cpu:               1.0 elap:               0.1
 (Enter /tmpu/scunam/7/gaussian-2016.03/g1/g16/l302.exe)
 NPDir=0 NMtPBC=     1 NCelOv=     1 NCel=       1 NClECP=     1 NCelD=      1
         NCelK=      1 NCelE2=     1 NClLst=     1 CellRange=     0.0.
 One-electron integrals computed using PRISM.
 One-electron integral symmetry used in STVInt
   1 Symmetry operations used in ECPInt.
 ECPInt:  NShTT=    6328 NPrTT=   19500 LenC2=    6194 LenP2D=   15434.
 LDataN:  DoStor=T MaxTD1= 6 Len=  172
 NBasis=   284 RedAO= T EigKep=  8.80D-06  NBF=   284
 NBsUse=   284 1.00D-06 EigRej= -1.00D+00 NBFU=   284
 Precomputing XC quadrature grid using
 IXCGrd= 4 IRadAn=           5 IRanWt=          -1 IRanGd=           0 AccXCQ= 0.00D+00.
 Generated NRdTot=       0 NPtTot=           0 NUsed=           0 NTot=          32
 NSgBfM=   323   323   323   323   323 MxSgAt=    14 MxSgA2=    14.
 Leave Link  302 at Wed Feb  7 14:34:22 2024, MaxMem=  6710886400 cpu:               4.6 elap:               0.3
 (Enter /tmpu/scunam/7/gaussian-2016.03/g1/g16/l303.exe)
 DipDrv:  MaxL=1.
 Leave Link  303 at Wed Feb  7 14:34:22 2024, MaxMem=  6710886400 cpu:               0.6 elap:               0.1
 (Enter /tmpu/scunam/7/gaussian-2016.03/g1/g16/l401.exe)
 Initial guess from the checkpoint file:  "Benzaldehyde.chk"
 B after Tr=     0.000000    0.000000    0.000000
         Rot=    1.000000    0.000000   -0.000000   -0.000000 Ang=   0.00 deg.
 Guess basis will be translated and rotated to current coordinates.
 JPrj=2 DoOrth=T DoCkMO=T.
 Leave Link  401 at Wed Feb  7 14:34:22 2024, MaxMem=  6710886400 cpu:               2.5 elap:               0.2
 (Enter /tmpu/scunam/7/gaussian-2016.03/g1/g16/l502.exe)
 Integral symmetry usage will be decided dynamically.
 Closed shell SCF:
 Using DIIS extrapolation, IDIIS=  1040.
 NGot=  6710886400 LenX=  6710668346 LenY=  6710562929
 Requested convergence on RMS density matrix=1.00D-08 within1024 cycles.
 Requested convergence on MAX density matrix=1.00D-06.
 Requested convergence on             energy=1.00D-06.
 No special actions if energy rises.
 Fock matrices will be formed incrementally for  20 cycles.

 Cycle   1  Pass 1  IDiag  1:
 FoFJK:  IHMeth= 1 ICntrl=       0 DoSepK=F KAlg= 0 I1Cent=           0 FoldK=F
 IRaf= 950000000 NMat=       1 IRICut=       1 DoRegI=T DoRafI=F ISym2E= 0 IDoP0=0 IntGTp=1.
 FoFCou: FMM=F IPFlag=           0 FMFlag=      100000 FMFlg1=           0
         NFxFlg=           0 DoJE=F BraDBF=F KetDBF=F FulRan=T
         wScrn=  0.000000 ICntrl=         0 IOpCl=  0 I1Cent=           0 NGrid=           0
         NMat0=    1 NMatS0=      1 NMatT0=    0 NMatD0=    1 NMtDS0=    0 NMtDT0=    0
 Symmetry not used in FoFCou.
 E= -345.708113336645    
 DIIS: error= 2.36D-07 at cycle   1 NSaved=   1.
 NSaved= 1 IEnMin= 1 EnMin= -345.708113336645     IErMin= 1 ErrMin= 2.36D-07
 ErrMax= 2.36D-07  0.00D+00 EMaxC= 1.00D-01 BMatC= 1.16D-11 BMatP= 1.16D-11
 IDIUse=1 WtCom= 1.00D+00 WtEn= 0.00D+00
 Coeff-Com:  0.100D+01
 Coeff:      0.100D+01
 Gap=     0.750 Goal=   None    Shift=    0.000
 RMSDP=2.79D-08 MaxDP=1.34D-06              OVMax= 2.38D-06

 Cycle   2  Pass 1  IDiag  1:
 RMSU=  2.78D-08    CP:  1.00D+00
 E= -345.708113336646     Delta-E=       -0.000000000001 Rises=F Damp=F
 DIIS: error= 4.90D-07 at cycle   2 NSaved=   2.
 NSaved= 2 IEnMin= 2 EnMin= -345.708113336646     IErMin= 1 ErrMin= 2.36D-07
 ErrMax= 4.90D-07  0.00D+00 EMaxC= 1.00D-01 BMatC= 1.66D-11 BMatP= 1.16D-11
 IDIUse=1 WtCom= 1.00D+00 WtEn= 0.00D+00
 Coeff-Com:  0.559D+00 0.441D+00
 Coeff:      0.559D+00 0.441D+00
 Gap=     0.191 Goal=   None    Shift=    0.000
 RMSDP=1.92D-08 MaxDP=2.00D-06 DE=-9.09D-13 OVMax= 2.09D-06

 Cycle   3  Pass 1  IDiag  1:
 RMSU=  1.54D-08    CP:  1.00D+00  6.20D-01
 E= -345.708113336656     Delta-E=       -0.000000000010 Rises=F Damp=F
 DIIS: error= 1.80D-07 at cycle   3 NSaved=   3.
 NSaved= 3 IEnMin= 3 EnMin= -345.708113336656     IErMin= 3 ErrMin= 1.80D-07
 ErrMax= 1.80D-07  0.00D+00 EMaxC= 1.00D-01 BMatC= 3.02D-12 BMatP= 1.16D-11
 IDIUse=1 WtCom= 1.00D+00 WtEn= 0.00D+00
 Coeff-Com: -0.236D-01 0.295D+00 0.729D+00
 Coeff:     -0.236D-01 0.295D+00 0.729D+00
 Gap=     0.191 Goal=   None    Shift=    0.000
 RMSDP=9.13D-09 MaxDP=1.11D-06 DE=-9.89D-12 OVMax= 5.02D-07

 Cycle   4  Pass 1  IDiag  1:
 RMSU=  4.04D-09    CP:  1.00D+00  7.91D-01  6.05D-01
 E= -345.708113336663     Delta-E=       -0.000000000007 Rises=F Damp=F
 DIIS: error= 4.46D-08 at cycle   4 NSaved=   4.
 NSaved= 4 IEnMin= 4 EnMin= -345.708113336663     IErMin= 4 ErrMin= 4.46D-08
 ErrMax= 4.46D-08  0.00D+00 EMaxC= 1.00D-01 BMatC= 3.82D-13 BMatP= 3.02D-12
 IDIUse=1 WtCom= 1.00D+00 WtEn= 0.00D+00
 Coeff-Com: -0.337D-01 0.181D+00 0.483D+00 0.370D+00
 Coeff:     -0.337D-01 0.181D+00 0.483D+00 0.370D+00
 Gap=     0.191 Goal=   None    Shift=    0.000
 RMSDP=3.52D-09 MaxDP=4.15D-07 DE=-7.39D-12 OVMax= 2.23D-07

 SCF Done:  E(RB3LYP) =  -345.708113337     A.U. after    4 cycles
            NFock=  4  Conv=0.35D-08     -V/T= 2.0050
 KE= 3.440044116253D+02 PE=-1.448133788202D+03 EE= 4.367269182016D+02
 Leave Link  502 at Wed Feb  7 14:34:33 2024, MaxMem=  6710886400 cpu:             172.7 elap:              10.8
 (Enter /tmpu/scunam/7/gaussian-2016.03/g1/g16/l701.exe)
 ... and contract with generalized density number  0.
 Compute integral first derivatives.
   1 Symmetry operations used in ECPInt.
 ECPInt:  NShTT=    6328 NPrTT=   19500 LenC2=    6194 LenP2D=   15434.
 LDataN:  DoStor=T MaxTD1= 7 Len=  274
 Leave Link  701 at Wed Feb  7 14:34:33 2024, MaxMem=  6710886400 cpu:               3.9 elap:               0.3
 (Enter /tmpu/scunam/7/gaussian-2016.03/g1/g16/l702.exe)
 L702 exits ... SP integral derivatives will be done elsewhere.
 Leave Link  702 at Wed Feb  7 14:34:33 2024, MaxMem=  6710886400 cpu:               0.3 elap:               0.0
 (Enter /tmpu/scunam/7/gaussian-2016.03/g1/g16/l703.exe)
 Integral derivatives from FoFJK, PRISM(SPDF).
 Compute integral first derivatives, UseDBF=F ICtDFT=           0.
 Calling FoFJK, ICntrl=      2127 FMM=F ISym2X=0 I1Cent= 0 IOpClX= 0 NMat=1 NMatS=1 NMatT=0.
 FoFJK:  IHMeth= 1 ICntrl=    2127 DoSepK=F KAlg= 0 I1Cent=           0 FoldK=F
 IRaf=         0 NMat=       1 IRICut=       1 DoRegI=T DoRafI=F ISym2E= 0 IDoP0=0 IntGTp=1.
 FoFCou: FMM=F IPFlag=           0 FMFlag=      100000 FMFlg1=         800
         NFxFlg=           0 DoJE=F BraDBF=F KetDBF=F FulRan=T
         wScrn=  0.000000 ICntrl=      2127 IOpCl=  0 I1Cent=           0 NGrid=           0
         NMat0=    1 NMatS0=      1 NMatT0=    0 NMatD0=    1 NMtDS0=    0 NMtDT0=    0
 Symmetry not used in FoFCou.
 Leave Link  703 at Wed Feb  7 14:34:45 2024, MaxMem=  6710886400 cpu:             183.3 elap:              11.5
 (Enter /tmpu/scunam/7/gaussian-2016.03/g1/g16/l716.exe)
 Dipole        = 1.27202806D+00 4.76810640D-01-4.25696644D-05
 ***** Axes restored to original set *****
 -------------------------------------------------------------------
 Center     Atomic                   Forces (Hartrees/Bohr)
 Number     Number              X              Y              Z
 -------------------------------------------------------------------
      1        8          -0.000000346   -0.000000640   -0.000000182
      2        6           0.000000001    0.000000160   -0.000000035
      3        6           0.000000522   -0.000000101   -0.000000046
      4        6          -0.000000523   -0.000000423   -0.000000020
      5        6          -0.000000188   -0.000000044    0.000000012
      6        6          -0.000000138    0.000000312    0.000000019
      7        6          -0.000000144    0.000000591   -0.000000002
      8        6           0.000000487   -0.000000843    0.000000366
      9        1           0.000000211    0.000000211   -0.000000006
     10        1          -0.000000337   -0.000000198    0.000000006
     11        1           0.000000316    0.000000332   -0.000000004
     12        1          -0.000000112    0.000000259    0.000000010
     13        1           0.000000057    0.000000357   -0.000000017
     14        1           0.000000194    0.000000027   -0.000000100
 -------------------------------------------------------------------
 Cartesian Forces:  Max     0.000000843 RMS     0.000000295
 Leave Link  716 at Wed Feb  7 14:34:45 2024, MaxMem=  6710886400 cpu:               0.3 elap:               0.0
 (Enter /tmpu/scunam/7/gaussian-2016.03/g1/g16/l103.exe)

 GradGradGradGradGradGradGradGradGradGradGradGradGradGradGradGradGradGrad
 Berny optimization.
 Search for a local minimum.
 Step number  15 out of a maximum of  100
 All quantities printed in internal units (Hartrees-Bohrs-Radians)
 Update second derivatives using D2CorN and points    1    2    3    4    5
                                                          6   15
 DE= -9.78D-12 DEPred=-1.03D-12 R= 9.45D+00
 Trust test= 9.45D+00 RLast= 1.59D-05 DXMaxT set to 9.61D-02
 ITU=  0  0  0  0 -1 -1  0  0  0  0  1  1  1  1  0
     Eigenvalues ---    0.00281   0.00768   0.01139   0.01659   0.02608
     Eigenvalues ---    0.03893   0.05101   0.06872   0.07103   0.07337
     Eigenvalues ---    0.08409   0.08754   0.09858   0.11165   0.11297
     Eigenvalues ---    0.13625   0.16969   0.18370   0.21051   0.29340
     Eigenvalues ---    0.30232   0.31224   0.36529   0.43120   0.44649
     Eigenvalues ---    0.58789   0.68378   0.81633   1.02499   1.10960
     Eigenvalues ---    1.22609   1.25931   1.46857   1.57950   1.60869
     Eigenvalues ---    1.90244
 RFO step:  Lambda= 0.00000000D+00 EMin= 2.81116469D-03
 Skip linear search -- no minimum in search direction.
 B after Tr=     0.000000   -0.000000    0.000000
         Rot=    1.000000   -0.000000    0.000000   -0.000000 Ang=  -0.00 deg.
 Variable       Old X    -DE/DX   Delta X   Delta X   Delta X     New X
                                 (Linear)    (Quad)   (Total)
    X1        5.43801  -0.00000   0.00000   0.00000   0.00000   5.43801
    Y1       -0.64548  -0.00000   0.00000   0.00000   0.00000  -0.64548
    Z1       -0.00032  -0.00000   0.00000   0.00000   0.00000  -0.00032
    X2        1.05341   0.00000   0.00000   0.00000   0.00000   1.05341
    Y2        0.41212   0.00000   0.00000  -0.00000  -0.00000   0.41212
    Z2       -0.00018  -0.00000   0.00000   0.00000   0.00000  -0.00018
    X3       -0.65353   0.00000   0.00000   0.00000   0.00000  -0.65353
    Y3        2.42181  -0.00000   0.00000  -0.00000  -0.00000   2.42181
    Z3       -0.00012  -0.00000   0.00000  -0.00000  -0.00000  -0.00012
    X4        0.15606  -0.00000   0.00000  -0.00000  -0.00000   0.15605
    Y4       -2.07307  -0.00000   0.00000  -0.00000  -0.00000  -2.07307
    Z4       -0.00013  -0.00000   0.00000  -0.00000  -0.00000  -0.00013
    X5       -3.23775  -0.00000   0.00000  -0.00000  -0.00000  -3.23775
    Y5        1.96261  -0.00000   0.00000  -0.00000  -0.00000   1.96260
    Z5       -0.00001   0.00000   0.00000   0.00000   0.00000  -0.00001
    X6       -2.42096  -0.00000   0.00000  -0.00000  -0.00000  -2.42096
    Y6       -2.52955   0.00000   0.00000   0.00000   0.00000  -2.52955
    Z6       -0.00002   0.00000   0.00000  -0.00000  -0.00000  -0.00002
    X7       -4.11830  -0.00000   0.00000  -0.00000  -0.00000  -4.11830
    Y7       -0.51304   0.00000   0.00000  -0.00000  -0.00000  -0.51304
    Z7        0.00004  -0.00000   0.00000   0.00000   0.00000   0.00004
    X8        3.79624   0.00000   0.00000   0.00000   0.00000   3.79624
    Y8        0.94115  -0.00000   0.00000   0.00000   0.00000   0.94115
    Z8       -0.00028   0.00000   0.00000   0.00000   0.00000  -0.00028
    X9        0.05421   0.00000   0.00000  -0.00000  -0.00000   0.05421
    Y9        4.34476   0.00000   0.00000   0.00000   0.00000   4.34476
    Z9       -0.00015  -0.00000   0.00000  -0.00000  -0.00000  -0.00015
   X10        1.50927  -0.00000   0.00000  -0.00000  -0.00000   1.50927
   Y10       -3.60656  -0.00000   0.00000  -0.00000  -0.00000  -3.60657
   Z10       -0.00018   0.00000   0.00000  -0.00000  -0.00000  -0.00018
   X11       -4.56017   0.00000   0.00000   0.00000   0.00000  -4.56017
   Y11        3.52308   0.00000   0.00000   0.00000   0.00000   3.52308
   Z11        0.00004  -0.00000   0.00000   0.00000   0.00000   0.00004
   X12       -3.12134  -0.00000   0.00000   0.00000   0.00000  -3.12134
   Y12       -4.45174   0.00000   0.00000   0.00000   0.00000  -4.45174
   Z12        0.00001   0.00000   0.00000  -0.00000  -0.00000   0.00001
   X13       -6.13191   0.00000   0.00000  -0.00000   0.00000  -6.13191
   Y13       -0.87775   0.00000   0.00000   0.00000  -0.00000  -0.87775
   Z13        0.00012  -0.00000   0.00000   0.00000   0.00000   0.00012
   X14        4.28612   0.00000   0.00000   0.00000   0.00000   4.28612
   Y14        2.98120   0.00000   0.00000   0.00000   0.00000   2.98120
   Z14       -0.00032  -0.00000   0.00000  -0.00000  -0.00000  -0.00032
         Item               Value     Threshold  Converged?
 Maximum Force            0.000001     0.000002     YES
 RMS     Force            0.000000     0.000001     YES
 Maximum Displacement     0.000003     0.000006     YES
 RMS     Displacement     0.000001     0.000004     YES
 Predicted change in Energy=-1.072879D-12
 Optimization completed.
    -- Stationary point found.
 Lowest energy point so far.  Saving SCF results.
 Largest change from initial coordinates is atom    9       0.020 Angstoms.
 GradGradGradGradGradGradGradGradGradGradGradGradGradGradGradGradGradGrad

 Leave Link  103 at Wed Feb  7 14:34:45 2024, MaxMem=  6710886400 cpu:               0.2 elap:               0.0
 (Enter /tmpu/scunam/7/gaussian-2016.03/g1/g16/l202.exe)
                          Input orientation:                          
 ---------------------------------------------------------------------
 Center     Atomic      Atomic             Coordinates (Angstroms)
 Number     Number       Type             X           Y           Z
 ---------------------------------------------------------------------
      1          8           0        2.877669   -0.341571   -0.000172
      2          6           0        0.557443    0.218084   -0.000093
      3          6           0       -0.345832    1.281568   -0.000062
      4          6           0        0.082581   -1.097019   -0.000069
      5          6           0       -1.713345    1.038566   -0.000005
      6          6           0       -1.281118   -1.338582   -0.000013
      7          6           0       -2.179311   -0.271488    0.000019
      8          6           0        2.008885    0.498034   -0.000151
      9          1           0        0.028688    2.299147   -0.000081
     10          1           0        0.798674   -1.908511   -0.000094
     11          1           0       -2.413140    1.864335    0.000020
     12          1           0       -1.651742   -2.355761    0.000006
     13          1           0       -3.244869   -0.464486    0.000064
     14          1           0        2.268119    1.577584   -0.000170
 ---------------------------------------------------------------------
                    Distance matrix (angstroms):
                    1          2          3          4          5
     1  O    0.000000
     2  C    2.386768   0.000000
     3  C    3.609091   1.395315   0.000000
     4  C    2.895379   1.398210   2.416861   0.000000
     5  C    4.793974   2.414471   1.388936   2.790354   0.000000
     6  C    4.276627   2.409048   2.782076   1.384929   2.416123
     7  C    5.057465   2.780198   2.402838   2.407832   1.390455
     8  C    1.208190   1.478193   2.481656   2.500968   3.761273
     9  H    3.884596   2.147185   1.084311   3.396594   2.150289
    10  H    2.603367   2.140234   3.389174   1.082270   3.872403
    11  H    5.732249   3.396249   2.147878   3.872756   1.082408
    12  H    4.957067   3.391928   3.864656   2.142967   3.394887
    13  H    6.123771   3.863091   3.384246   3.387037   2.145863
    14  H    2.013631   2.185098   2.630659   3.453995   4.017786
                    6          7          8          9         10
     6  C    0.000000
     7  C    1.394790   0.000000
     8  C    3.767927   4.258303   0.000000
     9  H    3.866350   3.388719   2.676787   0.000000
    10  H    2.156468   3.398270   2.693710   4.277531   0.000000
    11  H    3.397079   2.148584   4.628292   2.480239   4.954807
    12  H    1.082597   2.150006   4.641587   4.948941   2.490897
    13  H    2.149502   1.082895   5.341195   4.284138   4.293652
    14  H    4.593594   4.816503   1.110239   2.352808   3.783138
                   11         12         13         14
    11  H    0.000000
    12  H    4.288233   0.000000
    13  H    2.472888   2.472848   0.000000
    14  H    4.690034   5.553064   5.879038   0.000000
 Stoichiometry    C7H6O
 Framework group  C1[X(C7H6O)]
 Deg. of freedom    36
 Full point group                 C1      NOp   1
 RotChk:  IX=2 Diff= 5.54D-16
 Largest Abelian subgroup         C1      NOp   1
 Largest concise Abelian subgroup C1      NOp   1
                         Standard orientation:                         
 ---------------------------------------------------------------------
 Center     Atomic      Atomic             Coordinates (Angstroms)
 Number     Number       Type             X           Y           Z
 ---------------------------------------------------------------------
      1          8           0       -2.843540   -0.391373    0.000103
      2          6           0       -0.532505    0.205096    0.000024
      3          6           0        0.353750    1.282805   -0.000008
      4          6           0       -0.036797   -1.102292   -0.000000
      5          6           0        1.724954    1.061573   -0.000064
      6          6           0        1.330570   -1.322145   -0.000056
      7          6           0        2.211686   -0.240908   -0.000088
      8          6           0       -1.988213    0.461937    0.000082
      9          1           0       -0.036899    2.294302    0.000012
     10          1           0       -0.739899   -1.925065    0.000025
     11          1           0        2.411533    1.898362   -0.000089
     12          1           0        1.717317   -2.333305   -0.000075
     13          1           0        3.280177   -0.416943   -0.000133
     14          1           0       -2.264577    1.537230    0.000101
 ---------------------------------------------------------------------
 Rotational constants (GHZ):           5.2803945           1.5666047           1.2081629
 Leave Link  202 at Wed Feb  7 14:34:45 2024, MaxMem=  6710886400 cpu:               0.1 elap:               0.0
 (Enter /tmpu/scunam/7/gaussian-2016.03/g1/g16/l601.exe)
 Copying SCF densities to generalized density rwf, IOpCl= 0 IROHF=0.

 **********************************************************************

            Population analysis using the SCF density.

 **********************************************************************

 Orbital symmetries:
       Occupied  (A) (A) (A) (A) (A) (A) (A) (A) (A) (A) (A) (A)
                 (A) (A) (A) (A) (A) (A) (A) (A) (A) (A) (A) (A)
                 (A) (A) (A) (A)
       Virtual   (A) (A) (A) (A) (A) (A) (A) (A) (A) (A) (A) (A)
                 (A) (A) (A) (A) (A) (A) (A) (A) (A) (A) (A) (A)
                 (A) (A) (A) (A) (A) (A) (A) (A) (A) (A) (A) (A)
                 (A) (A) (A) (A) (A) (A) (A) (A) (A) (A) (A) (A)
                 (A) (A) (A) (A) (A) (A) (A) (A) (A) (A) (A) (A)
                 (A) (A) (A) (A) (A) (A) (A) (A) (A) (A) (A) (A)
                 (A) (A) (A) (A) (A) (A) (A) (A) (A) (A) (A) (A)
                 (A) (A) (A) (A) (A) (A) (A) (A) (A) (A) (A) (A)
                 (A) (A) (A) (A) (A) (A) (A) (A) (A) (A) (A) (A)
                 (A) (A) (A) (A) (A) (A) (A) (A) (A) (A) (A) (A)
                 (A) (A) (A) (A) (A) (A) (A) (A) (A) (A) (A) (A)
                 (A) (A) (A) (A) (A) (A) (A) (A) (A) (A) (A) (A)
                 (A) (A) (A) (A) (A) (A) (A) (A) (A) (A) (A) (A)
                 (A) (A) (A) (A) (A) (A) (A) (A) (A) (A) (A) (A)
                 (A) (A) (A) (A) (A) (A) (A) (A) (A) (A) (A) (A)
                 (A) (A) (A) (A) (A) (A) (A) (A) (A) (A) (A) (A)
                 (A) (A) (A) (A) (A) (A) (A) (A) (A) (A) (A) (A)
                 (A) (A) (A) (A) (A) (A) (A) (A) (A) (A) (A) (A)
                 (A) (A) (A) (A) (A) (A) (A) (A) (A) (A) (A) (A)
                 (A) (A) (A) (A) (A) (A) (A) (A) (A) (A) (A) (A)
                 (A) (A) (A) (A) (A) (A) (A) (A) (A) (A) (A) (A)
                 (A) (A) (A) (A)
 The electronic state is 1-A.
 Alpha  occ. eigenvalues --  -19.12658 -10.26368 -10.19990 -10.19869 -10.19696
 Alpha  occ. eigenvalues --  -10.19499 -10.19443 -10.19367  -1.05239  -0.88034
 Alpha  occ. eigenvalues --   -0.78227  -0.76928  -0.66236  -0.62879  -0.58410
 Alpha  occ. eigenvalues --   -0.53469  -0.49473  -0.47301  -0.45185  -0.44357
 Alpha  occ. eigenvalues --   -0.43735  -0.41900  -0.37886  -0.37776  -0.36443
 Alpha  occ. eigenvalues --   -0.27946  -0.27646  -0.26734
 Alpha virt. eigenvalues --   -0.07679  -0.03162   0.02143   0.03989   0.05743
 Alpha virt. eigenvalues --    0.07811   0.08728   0.10124   0.11967   0.12569
 Alpha virt. eigenvalues --    0.12695   0.15472   0.18393   0.18980   0.19713
 Alpha virt. eigenvalues --    0.20829   0.21463   0.22560   0.23386   0.23930
 Alpha virt. eigenvalues --    0.25856   0.28074   0.28542   0.29399   0.30941
 Alpha virt. eigenvalues --    0.31162   0.32272   0.33998   0.34299   0.35450
 Alpha virt. eigenvalues --    0.38313   0.39079   0.39717   0.40156   0.41366
 Alpha virt. eigenvalues --    0.42349   0.44493   0.44945   0.47118   0.48153
 Alpha virt. eigenvalues --    0.48168   0.48777   0.50246   0.51229   0.52828
 Alpha virt. eigenvalues --    0.53068   0.55241   0.61702   0.63190   0.64691
 Alpha virt. eigenvalues --    0.65438   0.67902   0.70007   0.70973   0.72535
 Alpha virt. eigenvalues --    0.73199   0.74219   0.75318   0.75870   0.79618
 Alpha virt. eigenvalues --    0.82398   0.82677   0.86195   0.87184   0.87944
 Alpha virt. eigenvalues --    0.89262   0.94095   0.96399   0.97244   0.98490
 Alpha virt. eigenvalues --    1.00534   1.04532   1.05829   1.09272   1.10389
 Alpha virt. eigenvalues --    1.15654   1.18513   1.19287   1.20137   1.21586
 Alpha virt. eigenvalues --    1.22788   1.24128   1.24845   1.29224   1.32840
 Alpha virt. eigenvalues --    1.34531   1.35928   1.36574   1.42585   1.42598
 Alpha virt. eigenvalues --    1.43902   1.45696   1.46383   1.47933   1.50602
 Alpha virt. eigenvalues --    1.54008   1.56587   1.58515   1.60961   1.61365
 Alpha virt. eigenvalues --    1.62197   1.64670   1.65902   1.67573   1.68066
 Alpha virt. eigenvalues --    1.69596   1.75179   1.78719   1.78915   1.82812
 Alpha virt. eigenvalues --    1.88574   1.92199   1.92230   1.96559   1.98215
 Alpha virt. eigenvalues --    1.98946   2.02922   2.04960   2.06600   2.07842
 Alpha virt. eigenvalues --    2.12172   2.12546   2.16308   2.17721   2.21637
 Alpha virt. eigenvalues --    2.25017   2.29348   2.34366   2.34575   2.34906
 Alpha virt. eigenvalues --    2.40663   2.42523   2.47900   2.49754   2.55101
 Alpha virt. eigenvalues --    2.55974   2.57727   2.59369   2.62137   2.62812
 Alpha virt. eigenvalues --    2.63266   2.64394   2.65156   2.67809   2.68450
 Alpha virt. eigenvalues --    2.70968   2.73052   2.73180   2.74167   2.75906
 Alpha virt. eigenvalues --    2.76747   2.80600   2.80845   2.82328   2.86351
 Alpha virt. eigenvalues --    2.87406   2.87851   2.88583   2.92054   2.95685
 Alpha virt. eigenvalues --    2.95688   2.98084   3.00819   3.05409   3.08847
 Alpha virt. eigenvalues --    3.11316   3.11547   3.12086   3.12158   3.12776
 Alpha virt. eigenvalues --    3.14607   3.15073   3.17195   3.18526   3.22733
 Alpha virt. eigenvalues --    3.24112   3.24384   3.29807   3.30670   3.31091
 Alpha virt. eigenvalues --    3.33858   3.33891   3.34412   3.34976   3.36504
 Alpha virt. eigenvalues --    3.38155   3.39544   3.44314   3.45633   3.48224
 Alpha virt. eigenvalues --    3.51836   3.52338   3.58215   3.59502   3.61313
 Alpha virt. eigenvalues --    3.65297   3.66152   3.73617   3.77575   3.80889
 Alpha virt. eigenvalues --    3.81361   3.86303   3.87958   3.92211   3.95183
 Alpha virt. eigenvalues --    4.01089   4.03973   4.06000   4.13555   4.14875
 Alpha virt. eigenvalues --    4.16934   4.19896   4.20760   4.20810   4.22603
 Alpha virt. eigenvalues --    4.24970   4.29135   4.29625   4.35534   4.43596
 Alpha virt. eigenvalues --    4.48514   4.60800   4.62922   4.64628   4.68663
 Alpha virt. eigenvalues --    4.72800   4.84899   4.86209   4.95459   4.97750
 Alpha virt. eigenvalues --    5.17796   5.18653   5.20456   5.21465   5.34437
 Alpha virt. eigenvalues --    5.36423   5.40163   5.55806   5.61250   5.69379
 Alpha virt. eigenvalues --    6.08558   6.33266   6.36559   6.46530   6.50453
 Alpha virt. eigenvalues --    6.78424   6.98104   7.05477  21.96854  22.53309
 Alpha virt. eigenvalues --   22.57095  22.69192  22.77580  22.88567  23.20070
 Alpha virt. eigenvalues --   43.79572
          Condensed to atoms (all electrons):
               1          2          3          4          5          6
     1  O    7.783310  -0.195374   0.007870   0.036776  -0.001685   0.000058
     2  C   -0.195374   5.969663   0.416784   0.123907   0.013438   0.005743
     3  C    0.007870   0.416784   5.017284  -0.039067   0.453820  -0.057333
     4  C    0.036776   0.123907  -0.039067   5.174934  -0.062450   0.443568
     5  C   -0.001685   0.013438   0.453820  -0.062450   4.903725  -0.015762
     6  C    0.000058   0.005743  -0.057333   0.443568  -0.015762   4.914233
     7  C    0.000771  -0.080772  -0.009499   0.012440   0.485103   0.450713
     8  C    0.684057  -0.005153  -0.017407   0.038694  -0.011831  -0.002326
     9  H    0.000021  -0.064903   0.416961   0.015189  -0.044340  -0.002694
    10  H    0.022652  -0.073854   0.012460   0.434857  -0.003777  -0.053691
    11  H    0.000004   0.008844  -0.045769  -0.002403   0.423147   0.008656
    12  H   -0.000107   0.010995  -0.001808  -0.049564   0.008819   0.427647
    13  H    0.000000  -0.000977   0.008025   0.006826  -0.043857  -0.044205
    14  H   -0.062264  -0.262831   0.005306   0.043318  -0.004545  -0.002098
               7          8          9         10         11         12
     1  O    0.000771   0.684057   0.000021   0.022652   0.000004  -0.000107
     2  C   -0.080772  -0.005153  -0.064903  -0.073854   0.008844   0.010995
     3  C   -0.009499  -0.017407   0.416961   0.012460  -0.045769  -0.001808
     4  C    0.012440   0.038694   0.015189   0.434857  -0.002403  -0.049564
     5  C    0.485103  -0.011831  -0.044340  -0.003777   0.423147   0.008819
     6  C    0.450713  -0.002326  -0.002694  -0.053691   0.008656   0.427647
     7  C    4.894488   0.005810   0.008423   0.011199  -0.045497  -0.048887
     8  C    0.005810   4.722980   0.002554   0.002481  -0.000283  -0.000619
     9  H    0.008423   0.002554   0.548265  -0.000012  -0.006399   0.000062
    10  H    0.011199   0.002481  -0.000012   0.514041   0.000052  -0.006515
    11  H   -0.045497  -0.000283  -0.006399   0.000052   0.548433  -0.000246
    12  H   -0.048887  -0.000619   0.000062  -0.006515  -0.000246   0.546850
    13  H    0.418857   0.000100  -0.000277  -0.000181  -0.006274  -0.006359
    14  H    0.001141   0.489941   0.011573   0.002704  -0.000054  -0.000015
              13         14
     1  O    0.000000  -0.062264
     2  C   -0.000977  -0.262831
     3  C    0.008025   0.005306
     4  C    0.006826   0.043318
     5  C   -0.043857  -0.004545
     6  C   -0.044205  -0.002098
     7  C    0.418857   0.001141
     8  C    0.000100   0.489941
     9  H   -0.000277   0.011573
    10  H   -0.000181   0.002704
    11  H   -0.006274  -0.000054
    12  H   -0.006359  -0.000015
    13  H    0.548302  -0.000001
    14  H   -0.000001   0.716692
 Mulliken charges:
               1
     1  O   -0.276089
     2  C    0.134489
     3  C   -0.167626
     4  C   -0.177025
     5  C   -0.099805
     6  C   -0.072508
     7  C   -0.104290
     8  C    0.091002
     9  H    0.115578
    10  H    0.137584
    11  H    0.117790
    12  H    0.119747
    13  H    0.120020
    14  H    0.061134
 Sum of Mulliken charges =  -0.00000
 Mulliken charges with hydrogens summed into heavy atoms:
               1
     1  O   -0.276089
     2  C    0.134489
     3  C   -0.052048
     4  C   -0.039441
     5  C    0.017985
     6  C    0.047239
     7  C    0.015730
     8  C    0.152136
 Electronic spatial extent (au):  <R**2>=            933.7828
 Charge=             -0.0000 electrons
 Dipole moment (field-independent basis, Debye):
    X=              3.2332    Y=              1.2119    Z=             -0.0001  Tot=              3.4529
 Quadrupole moment (field-independent basis, Debye-Ang):
   XX=            -51.5679   YY=            -41.0680   ZZ=            -49.1591
   XY=             -3.7745   XZ=              0.0000   YZ=              0.0002
 Traceless Quadrupole moment (field-independent basis, Debye-Ang):
   XX=             -4.3029   YY=              6.1970   ZZ=             -1.8941
   XY=             -3.7745   XZ=              0.0000   YZ=              0.0002
 Octapole moment (field-independent basis, Debye-Ang**2):
  XXX=             38.0720  YYY=             -1.3653  ZZZ=              0.0009  XYY=             -0.1477
  XXY=              9.1276  XXZ=             -0.0020  XZZ=             -7.8397  YZZ=             -0.5440
  YYZ=              0.0000  XYZ=             -0.0003
 Hexadecapole moment (field-independent basis, Debye-Ang**3):
 XXXX=           -927.6757 YYYY=           -299.8350 ZZZZ=            -55.1431 XXXY=            -23.4771
 XXXZ=              0.0170 YYYX=              1.0649 YYYZ=             -0.0004 ZZZX=              0.0163
 ZZZY=             -0.0008 XXYY=           -184.6609 XXZZ=           -158.5441 YYZZ=            -69.9057
 XXYZ=              0.0008 YYXZ=              0.0044 ZZXY=              1.2848
 N-N= 3.216943450385D+02 E-N=-1.448133789302D+03  KE= 3.440044116253D+02
 No NMR shielding tensors so no spin-rotation constants.
 Leave Link  601 at Wed Feb  7 14:34:45 2024, MaxMem=  6710886400 cpu:               3.1 elap:               0.2
 (Enter /tmpu/scunam/7/gaussian-2016.03/g1/g16/l9999.exe)
 1\1\GINC-MN140\FOpt\RB3LYP\def2TZVP\C7H6O1\AGRC_A\07-Feb-2024\0\\#p b3
 lyp/def2TZVP opt=(cartesian,maxcycle=500,vtight) freq=raman scf=(maxcy
 cle=1024,direct)\\Benzaldehyde\\0,1\O,2.8776685015,-0.3415712492,-0.00
 01718719\C,0.5574427176,0.2180841148,-0.0000932673\C,-0.3458319917,1.2
 815684076,-0.0000615119\C,0.0825808317,-1.0970192761,-0.0000686045\C,-
 1.7133454494,1.0385660679,-0.0000049583\C,-1.281118286,-1.3385815345,-
 0.0000130074\C,-2.1793109966,-0.2714875669,0.0000192532\C,2.0088847196
 ,0.4980339443,-0.00015055\H,0.028687557,2.2991469993,-0.0000808273\H,0
 .798673629,-1.9085113637,-0.000093828\H,-2.413140309,1.8643345297,0.00
 00202989\H,-1.6517415408,-2.3557614811,0.0000057329\H,-3.2448687002,-0
 .4644858149,0.0000635044\H,2.2681193174,1.5775842228,-0.0001703627\\Ve
 rsion=ES64L-G16RevA.03\State=1-A\HF=-345.7081133\RMSD=3.523e-09\RMSF=2
 .945e-07\Dipole=-1.2794471,0.4565292,0.0000426\Quadrupole=-3.2863176,4
 .69455,-1.4082324,2.6807207,0.0000195,-0.0001243\PG=C01 [X(C7H6O1)]\\@


 ALMOST ANYTHING IS EASIER TO GET INTO THAN OUT OF.

                         -- AGNES ALLEN'S LAW FROM
                PAUL DICKSON'S "THE OFFICIAL RULES"
 Leave Link 9999 at Wed Feb  7 14:34:45 2024, MaxMem=  6710886400 cpu:               0.4 elap:               0.0
 Job cpu time:       0 days  1 hours 55 minutes 41.7 seconds.
 Elapsed time:       0 days  0 hours  7 minutes 18.5 seconds.
 File lengths (MBytes):  RWF=     56 Int=      0 D2E=      0 Chk=      7 Scr=      1
 Normal termination of Gaussian 16 at Wed Feb  7 14:34:45 2024.
 (Enter /tmpu/scunam/7/gaussian-2016.03/g1/g16/l1.exe)
 Link1:  Proceeding to internal job step number  2.
 --------------------------------------------------------------------
 #P Geom=AllCheck Guess=TCheck SCRF=Check GenChk RB3LYP/def2TZVP Freq
 --------------------------------------------------------------------
 1/6=500,7=1,10=4,29=7,30=1,38=1,40=1/1,3;
 2/12=2,40=1/2;
 3/5=44,7=101,11=2,14=-4,25=1,30=1,70=2,71=2,74=-5,116=1,140=1/1,2,3;
 4/5=101/1;
 5/5=2,7=1024,38=6,98=1/2;
 8/6=4,10=90,11=11/1;
 10/13=10,15=4/2;
 11/6=3,8=1,9=11,15=111,16=1/1,2,10;
 10/6=1/2;
 6/7=2,8=2,9=2,10=2,28=1/1;
 7/8=1,10=1,25=1/1,2,3,16;
 1/6=500,7=1,10=4,30=1/3;
 99//99;
 Leave Link    1 at Wed Feb  7 14:34:46 2024, MaxMem=  6710886400 cpu:               0.4 elap:               0.0
 (Enter /tmpu/scunam/7/gaussian-2016.03/g1/g16/l101.exe)
 Structure from the checkpoint file:  "Benzaldehyde.chk"
 ------------
 Benzaldehyde
 ------------
 Charge =  0 Multiplicity = 1
 No Z-Matrix found in chk file; cartesian coordinates used.
  O                                                 2.877668501528     -0.341571249209     -0.000171871949
  C                                                 0.557442717619      0.218084114812     -0.000093267338
  C                                                -0.345831991685      1.281568407583     -0.000061511892
  C                                                 0.082580831707     -1.097019276131     -0.000068604471
  C                                                -1.713345449450      1.038566067940     -0.000004958350
  C                                                -1.281118286012     -1.338581534516     -0.000013007401
  C                                                -2.179310996626     -0.271487566881      0.000019253168
  C                                                 2.008884719587      0.498033944265     -0.000150550003
  H                                                 0.028687557013      2.299146999325     -0.000080827331
  H                                                 0.798673629006     -1.908511363687     -0.000093827952
  H                                                -2.413140309036      1.864334529704      0.000020298877
  H                                                -1.651741540815     -2.355761481142      0.000005732931
  H                                                -3.244868700237     -0.464485814865      0.000063504411
  H                                                 2.268119317402      1.577584222804     -0.000170362701
 Recover connectivity data from disk.
 ITRead=  0  0  0  0  0  0  0  0  0  0  0  0  0  0
 MicOpt= -1 -1 -1 -1 -1 -1 -1 -1 -1 -1 -1 -1 -1 -1
 NAtoms=     14 NQM=       14 NQMF=       0 NMMI=      0 NMMIF=      0
                NMic=       0 NMicF=      0.
                    Isotopes and Nuclear Properties:
 (Nuclear quadrupole moments (NQMom) in fm**2, nuclear magnetic moments (NMagM)
  in nuclear magnetons)

  Atom         1           2           3           4           5           6           7           8           9          10
 IAtWgt=          16          12          12          12          12          12          12          12           1           1
 AtmWgt=  15.9949146  12.0000000  12.0000000  12.0000000  12.0000000  12.0000000  12.0000000  12.0000000   1.0078250   1.0078250
 NucSpn=           0           0           0           0           0           0           0           0           1           1
 AtZEff=   5.6000000   3.6000000   3.6000000   3.6000000   3.6000000   3.6000000   3.6000000   3.6000000   1.0000000   1.0000000
 NQMom=    0.0000000   0.0000000   0.0000000   0.0000000   0.0000000   0.0000000   0.0000000   0.0000000   0.0000000   0.0000000
 NMagM=    0.0000000   0.0000000   0.0000000   0.0000000   0.0000000   0.0000000   0.0000000   0.0000000   2.7928460   2.7928460
 AtZNuc=   8.0000000   6.0000000   6.0000000   6.0000000   6.0000000   6.0000000   6.0000000   6.0000000   1.0000000   1.0000000

  Atom        11          12          13          14
 IAtWgt=           1           1           1           1
 AtmWgt=   1.0078250   1.0078250   1.0078250   1.0078250
 NucSpn=           1           1           1           1
 AtZEff=   1.0000000   1.0000000   1.0000000   1.0000000
 NQMom=    0.0000000   0.0000000   0.0000000   0.0000000
 NMagM=    2.7928460   2.7928460   2.7928460   2.7928460
 AtZNuc=   1.0000000   1.0000000   1.0000000   1.0000000
 Leave Link  101 at Wed Feb  7 14:34:46 2024, MaxMem=  6710886400 cpu:               1.4 elap:               0.1
 (Enter /tmpu/scunam/7/gaussian-2016.03/g1/g16/l103.exe)

 GradGradGradGradGradGradGradGradGradGradGradGradGradGradGradGradGradGrad
 Berny optimization.
 Initialization pass.
 Trust Radius=3.00D-01 FncErr=1.00D-07 GrdErr=1.00D-07 EigMax=2.50D+02 EigMin=1.00D-04
 Number of steps in this run=      2 maximum allowed number of steps=      2.
 GradGradGradGradGradGradGradGradGradGradGradGradGradGradGradGradGradGrad

 Leave Link  103 at Wed Feb  7 14:34:46 2024, MaxMem=  6710886400 cpu:               0.2 elap:               0.0
 (Enter /tmpu/scunam/7/gaussian-2016.03/g1/g16/l202.exe)
                          Input orientation:                          
 ---------------------------------------------------------------------
 Center     Atomic      Atomic             Coordinates (Angstroms)
 Number     Number       Type             X           Y           Z
 ---------------------------------------------------------------------
      1          8           0        2.877669   -0.341571   -0.000172
      2          6           0        0.557443    0.218084   -0.000093
      3          6           0       -0.345832    1.281568   -0.000062
      4          6           0        0.082581   -1.097019   -0.000069
      5          6           0       -1.713345    1.038566   -0.000005
      6          6           0       -1.281118   -1.338582   -0.000013
      7          6           0       -2.179311   -0.271488    0.000019
      8          6           0        2.008885    0.498034   -0.000151
      9          1           0        0.028688    2.299147   -0.000081
     10          1           0        0.798674   -1.908511   -0.000094
     11          1           0       -2.413140    1.864335    0.000020
     12          1           0       -1.651742   -2.355761    0.000006
     13          1           0       -3.244869   -0.464486    0.000064
     14          1           0        2.268119    1.577584   -0.000170
 ---------------------------------------------------------------------
                    Distance matrix (angstroms):
                    1          2          3          4          5
     1  O    0.000000
     2  C    2.386768   0.000000
     3  C    3.609091   1.395315   0.000000
     4  C    2.895379   1.398210   2.416861   0.000000
     5  C    4.793974   2.414471   1.388936   2.790354   0.000000
     6  C    4.276627   2.409048   2.782076   1.384929   2.416123
     7  C    5.057465   2.780198   2.402838   2.407832   1.390455
     8  C    1.208190   1.478193   2.481656   2.500968   3.761273
     9  H    3.884596   2.147185   1.084311   3.396594   2.150289
    10  H    2.603367   2.140234   3.389174   1.082270   3.872403
    11  H    5.732249   3.396249   2.147878   3.872756   1.082408
    12  H    4.957067   3.391928   3.864656   2.142967   3.394887
    13  H    6.123771   3.863091   3.384246   3.387037   2.145863
    14  H    2.013631   2.185098   2.630659   3.453995   4.017786
                    6          7          8          9         10
     6  C    0.000000
     7  C    1.394790   0.000000
     8  C    3.767927   4.258303   0.000000
     9  H    3.866350   3.388719   2.676787   0.000000
    10  H    2.156468   3.398270   2.693710   4.277531   0.000000
    11  H    3.397079   2.148584   4.628292   2.480239   4.954807
    12  H    1.082597   2.150006   4.641587   4.948941   2.490897
    13  H    2.149502   1.082895   5.341195   4.284138   4.293652
    14  H    4.593594   4.816503   1.110239   2.352808   3.783138
                   11         12         13         14
    11  H    0.000000
    12  H    4.288233   0.000000
    13  H    2.472888   2.472848   0.000000
    14  H    4.690034   5.553064   5.879038   0.000000
 Stoichiometry    C7H6O
 Framework group  C1[X(C7H6O)]
 Deg. of freedom    36
 Full point group                 C1      NOp   1
 RotChk:  IX=2 Diff= 5.40D-16
 Largest Abelian subgroup         C1      NOp   1
 Largest concise Abelian subgroup C1      NOp   1
                         Standard orientation:                         
 ---------------------------------------------------------------------
 Center     Atomic      Atomic             Coordinates (Angstroms)
 Number     Number       Type             X           Y           Z
 ---------------------------------------------------------------------
      1          8           0       -2.843540   -0.391373    0.000103
      2          6           0       -0.532505    0.205096    0.000024
      3          6           0        0.353750    1.282805   -0.000008
      4          6           0       -0.036797   -1.102292   -0.000000
      5          6           0        1.724954    1.061573   -0.000064
      6          6           0        1.330570   -1.322145   -0.000056
      7          6           0        2.211686   -0.240908   -0.000088
      8          6           0       -1.988213    0.461937    0.000082
      9          1           0       -0.036899    2.294302    0.000012
     10          1           0       -0.739899   -1.925065    0.000025
     11          1           0        2.411533    1.898362   -0.000089
     12          1           0        1.717317   -2.333305   -0.000075
     13          1           0        3.280177   -0.416943   -0.000133
     14          1           0       -2.264577    1.537230    0.000101
 ---------------------------------------------------------------------
 Rotational constants (GHZ):           5.2803945           1.5666047           1.2081629
 Leave Link  202 at Wed Feb  7 14:34:46 2024, MaxMem=  6710886400 cpu:               0.1 elap:               0.0
 (Enter /tmpu/scunam/7/gaussian-2016.03/g1/g16/l301.exe)
 Standard basis: def2TZVP (5D, 7F)
 Ernie: Thresh=  0.10000D-02 Tol=  0.10000D-05 Strict=F.
 There are   324 symmetry adapted cartesian basis functions of A   symmetry.
 There are   284 symmetry adapted basis functions of A   symmetry.
   284 basis functions,   456 primitive gaussians,   324 cartesian basis functions
    28 alpha electrons       28 beta electrons
       nuclear repulsion energy       321.6943450385 Hartrees.
 IExCor=  402 DFT=T Ex+Corr=B3LYP ExCW=0 ScaHFX=  0.200000
 ScaDFX=  0.800000  0.720000  1.000000  0.810000 ScalE2=  1.000000  1.000000
 IRadAn=      5 IRanWt=     -1 IRanGd=            0 ICorTp=0 IEmpDi=  4
 NAtoms=   14 NActive=   14 NUniq=   14 SFac= 1.00D+00 NAtFMM=   60 NAOKFM=F Big=F
 Integral buffers will be    131072 words long.
 Raffenetti 2 integral format.
 Two-electron integral symmetry is turned on.
 Leave Link  301 at Wed Feb  7 14:34:46 2024, MaxMem=  6710886400 cpu:               0.9 elap:               0.1
 (Enter /tmpu/scunam/7/gaussian-2016.03/g1/g16/l302.exe)
 NPDir=0 NMtPBC=     1 NCelOv=     1 NCel=       1 NClECP=     1 NCelD=      1
         NCelK=      1 NCelE2=     1 NClLst=     1 CellRange=     0.0.
 One-electron integrals computed using PRISM.
 One-electron integral symmetry used in STVInt
   1 Symmetry operations used in ECPInt.
 ECPInt:  NShTT=    6328 NPrTT=   19500 LenC2=    6194 LenP2D=   15434.
 LDataN:  DoStor=T MaxTD1= 6 Len=  172
 NBasis=   284 RedAO= T EigKep=  8.80D-06  NBF=   284
 NBsUse=   284 1.00D-06 EigRej= -1.00D+00 NBFU=   284
 Precomputing XC quadrature grid using
 IXCGrd= 4 IRadAn=           5 IRanWt=          -1 IRanGd=           0 AccXCQ= 0.00D+00.
 Generated NRdTot=       0 NPtTot=           0 NUsed=           0 NTot=          32
 NSgBfM=   323   323   323   323   323 MxSgAt=    14 MxSgA2=    14.
 Leave Link  302 at Wed Feb  7 14:34:46 2024, MaxMem=  6710886400 cpu:               4.5 elap:               0.3
 (Enter /tmpu/scunam/7/gaussian-2016.03/g1/g16/l303.exe)
 DipDrv:  MaxL=1.
 Leave Link  303 at Wed Feb  7 14:34:46 2024, MaxMem=  6710886400 cpu:               0.6 elap:               0.1
 (Enter /tmpu/scunam/7/gaussian-2016.03/g1/g16/l401.exe)
 Initial guess from the checkpoint file:  "Benzaldehyde.chk"
 B after Tr=    -0.000000   -0.000000   -0.000000
         Rot=    1.000000   -0.000000    0.000000   -0.000000 Ang=   0.00 deg.
 Guess basis will be translated and rotated to current coordinates.
 JPrj=2 DoOrth=T DoCkMO=T.
 Leave Link  401 at Wed Feb  7 14:34:46 2024, MaxMem=  6710886400 cpu:               3.2 elap:               0.2
 (Enter /tmpu/scunam/7/gaussian-2016.03/g1/g16/l502.exe)
 Integral symmetry usage will be decided dynamically.
 Closed shell SCF:
 Using DIIS extrapolation, IDIIS=  1040.
 NGot=  6710886400 LenX=  6710668346 LenY=  6710562929
 Requested convergence on RMS density matrix=1.00D-08 within1024 cycles.
 Requested convergence on MAX density matrix=1.00D-06.
 Requested convergence on             energy=1.00D-06.
 No special actions if energy rises.
 Fock matrices will be formed incrementally for  20 cycles.

 Cycle   1  Pass 1  IDiag  1:
 FoFJK:  IHMeth= 1 ICntrl=       0 DoSepK=F KAlg= 0 I1Cent=           0 FoldK=F
 IRaf= 950000000 NMat=       1 IRICut=       1 DoRegI=T DoRafI=F ISym2E= 0 IDoP0=0 IntGTp=1.
 FoFCou: FMM=F IPFlag=           0 FMFlag=      100000 FMFlg1=           0
         NFxFlg=           0 DoJE=F BraDBF=F KetDBF=F FulRan=T
         wScrn=  0.000000 ICntrl=         0 IOpCl=  0 I1Cent=           0 NGrid=           0
         NMat0=    1 NMatS0=      1 NMatT0=    0 NMatD0=    1 NMtDS0=    0 NMtDT0=    0
 Symmetry not used in FoFCou.
 E= -345.708113336661    
 DIIS: error= 6.46D-09 at cycle   1 NSaved=   1.
 NSaved= 1 IEnMin= 1 EnMin= -345.708113336661     IErMin= 1 ErrMin= 6.46D-09
 ErrMax= 6.46D-09  0.00D+00 EMaxC= 1.00D-01 BMatC= 5.92D-15 BMatP= 5.92D-15
 IDIUse=1 WtCom= 1.00D+00 WtEn= 0.00D+00
 Coeff-Com:  0.100D+01
 Coeff:      0.100D+01
 Gap=     0.191 Goal=   None    Shift=    0.000
 RMSDP=1.25D-09 MaxDP=1.40D-07              OVMax= 9.22D-08

 SCF Done:  E(RB3LYP) =  -345.708113337     A.U. after    1 cycles
            NFock=  1  Conv=0.13D-08     -V/T= 2.0050
 KE= 3.440044110400D+02 PE=-1.448133788716D+03 EE= 4.367269193012D+02
 Leave Link  502 at Wed Feb  7 14:34:49 2024, MaxMem=  6710886400 cpu:              46.1 elap:               2.9
 (Enter /tmpu/scunam/7/gaussian-2016.03/g1/g16/l801.exe)
 DoSCS=F DFT=T ScalE2(SS,OS)=  1.000000  1.000000
 Range of M.O.s used for correlation:     1   284
 NBasis=   284 NAE=    28 NBE=    28 NFC=     0 NFV=     0
 NROrb=    284 NOA=    28 NOB=    28 NVA=   256 NVB=   256

 **** Warning!!: The largest alpha MO coefficient is  0.57227324D+02

 Leave Link  801 at Wed Feb  7 14:34:49 2024, MaxMem=  6710886400 cpu:               0.3 elap:               0.0
 (Enter /tmpu/scunam/7/gaussian-2016.03/g1/g16/l1002.exe)
 Minotr:  Closed shell wavefunction.
          Direct CPHF calculation.
          Differentiating once with respect to electric field.
                with respect to dipole field.
          Electric field/nuclear overlap derivatives assumed to be zero.
          Requested convergence is 1.0D-08 RMS, and 1.0D-07 maximum.
          Secondary convergence is 1.0D-12 RMS, and 1.0D-12 maximum.
          NewPWx=F KeepS1=T KeepF1=T KeepIn=T MapXYZ=F SortEE=F KeepMc=T.
         4173 words used for storage of precomputed grid.
 Two-electron integral symmetry used by symmetrizing perturbed Fock matrices.
          MDV=    6710886400 using IRadAn=       1.
          Solving linear equations simultaneously, MaxMat=     384.
          There are     3 degrees of freedom in the 1st order CPHF.  IDoFFX=0 NUNeed=     3.
      3 vectors produced by pass  0 Test12= 2.39D-13 3.33D-08 XBig12= 1.59D+02 6.96D+00.
 AX will form     3 AO Fock derivatives at one time.
 FoFJK:  IHMeth= 1 ICntrl=       0 DoSepK=F KAlg= 0 I1Cent=           0 FoldK=F
 IRaf= 940000000 NMat=       3 IRICut=       1 DoRegI=T DoRafI=F ISym2E=-1 IDoP0=0 IntGTp=1.
 FoFCou: FMM=F IPFlag=           0 FMFlag=      100000 FMFlg1=           0
         NFxFlg=           0 DoJE=F BraDBF=F KetDBF=F FulRan=T
         wScrn=  0.000000 ICntrl=         0 IOpCl=  0 I1Cent=           0 NGrid=           0
         NMat0=    3 NMatS0=      3 NMatT0=    0 NMatD0=    3 NMtDS0=    0 NMtDT0=    0
 Petite list used in FoFCou.
      3 vectors produced by pass  1 Test12= 2.39D-13 3.33D-08 XBig12= 5.49D+01 1.93D+00.
      3 vectors produced by pass  2 Test12= 2.39D-13 3.33D-08 XBig12= 7.60D+00 6.75D-01.
      3 vectors produced by pass  3 Test12= 2.39D-13 3.33D-08 XBig12= 3.64D+00 6.00D-01.
      3 vectors produced by pass  4 Test12= 2.39D-13 3.33D-08 XBig12= 3.37D-01 1.22D-01.
      3 vectors produced by pass  5 Test12= 2.39D-13 3.33D-08 XBig12= 6.18D-02 7.82D-02.
      3 vectors produced by pass  6 Test12= 2.39D-13 3.33D-08 XBig12= 1.50D-02 3.52D-02.
      3 vectors produced by pass  7 Test12= 2.39D-13 3.33D-08 XBig12= 1.39D-03 1.26D-02.
      3 vectors produced by pass  8 Test12= 2.39D-13 3.33D-08 XBig12= 1.89D-04 3.50D-03.
      3 vectors produced by pass  9 Test12= 2.39D-13 3.33D-08 XBig12= 1.14D-05 7.79D-04.
      3 vectors produced by pass 10 Test12= 2.39D-13 3.33D-08 XBig12= 6.69D-07 1.71D-04.
      2 vectors produced by pass 11 Test12= 2.39D-13 3.33D-08 XBig12= 2.13D-08 2.10D-05.
      2 vectors produced by pass 12 Test12= 2.39D-13 3.33D-08 XBig12= 6.81D-10 3.70D-06.
      2 vectors produced by pass 13 Test12= 2.39D-13 3.33D-08 XBig12= 2.28D-11 9.02D-07.
      2 vectors produced by pass 14 Test12= 2.39D-13 3.33D-08 XBig12= 6.20D-13 1.17D-07.
 InvSVY:  IOpt=1 It=  1 EMax= 7.11D-15
 Solved reduced A of dimension    41 with     3 vectors.
 End of Minotr F.D. properties file   721 does not exist.
 End of Minotr F.D. properties file   722 does not exist.
 End of Minotr F.D. properties file   788 does not exist.
 Leave Link 1002 at Wed Feb  7 14:35:48 2024, MaxMem=  6710886400 cpu:             929.1 elap:              58.2
 (Enter /tmpu/scunam/7/gaussian-2016.03/g1/g16/l1101.exe)
 Using compressed storage, NAtomX=    14.
 Will process     15 centers per pass.
   1 Symmetry operations used in ECPInt.
 ECPInt:  NShTT=    6328 NPrTT=   19500 LenC2=    6194 LenP2D=   15434.
 LDataN:  DoStor=T MaxTD1= 7 Len=  274
 Leave Link 1101 at Wed Feb  7 14:35:48 2024, MaxMem=  6710886400 cpu:               6.1 elap:               0.4
 (Enter /tmpu/scunam/7/gaussian-2016.03/g1/g16/l1102.exe)
 Symmetrizing basis deriv contribution to polar:
 IMax=3 JMax=2 DiffMx= 0.00D+00
 Leave Link 1102 at Wed Feb  7 14:35:48 2024, MaxMem=  6710886400 cpu:               0.5 elap:               0.1
 (Enter /tmpu/scunam/7/gaussian-2016.03/g1/g16/l1110.exe)
 Forming Gx(P) for the SCF density, NAtomX=    14.
 Integral derivatives from FoFJK, PRISM(SPDF).
 Do as many integral derivatives as possible in FoFJK.
 G2DrvN: MDV=    6710885284.
 G2DrvN: will do    15 centers at a time, making    1 passes.
 PxScal for G2LodP:  IOpCl= 0 ISclPx=1 IMOff=     1 NMtTot=     4 NTT=   40470 ScalPx= 3.93D+00
 Calling FoFCou, ICntrl=  3107 FMM=F I1Cent=   0 AccDes= 0.00D+00.
 FoFJK:  IHMeth= 1 ICntrl=    3107 DoSepK=F KAlg= 0 I1Cent=           0 FoldK=F
 IRaf=         0 NMat=       1 IRICut=       1 DoRegI=T DoRafI=F ISym2E= 0 IDoP0=0 IntGTp=1.
 FoFCou: FMM=F IPFlag=           0 FMFlag=      100000 FMFlg1=           0
         NFxFlg=           0 DoJE=F BraDBF=F KetDBF=F FulRan=T
         wScrn=  0.000000 ICntrl=      3107 IOpCl=  0 I1Cent=           0 NGrid=           0
         NMat0=    1 NMatS0=      1 NMatT0=    0 NMatD0=    4 NMtDS0=    3 NMtDT0=    0
 Symmetry not used in FoFCou.
 End of G2Drv F.D. properties file   721 does not exist.
 End of G2Drv F.D. properties file   722 does not exist.
 End of G2Drv F.D. properties file   788 does not exist.
 Leave Link 1110 at Wed Feb  7 14:36:59 2024, MaxMem=  6710886400 cpu:            1133.3 elap:              71.0
 (Enter /tmpu/scunam/7/gaussian-2016.03/g1/g16/l1002.exe)
 Minotr:  Closed shell wavefunction.
          IDoAtm=11111111111111
          Direct CPHF calculation.
          Differentiating once with respect to electric field.
                with respect to dipole field.
          Differentiating once with respect to nuclear coordinates.
          Requested convergence is 1.0D-08 RMS, and 1.0D-07 maximum.
          Secondary convergence is 1.0D-12 RMS, and 1.0D-12 maximum.
          NewPWx=T KeepS1=F KeepF1=F KeepIn=T MapXYZ=F SortEE=F KeepMc=T.
         4173 words used for storage of precomputed grid.
 Keep R1 ints in memory in canonical form, NReq=837349950.
 FoFCou: FMM=F IPFlag=           0 FMFlag=           0 FMFlg1=           0
         NFxFlg=           0 DoJE=F BraDBF=F KetDBF=F FulRan=T
         wScrn=  0.000000 ICntrl=       600 IOpCl=  0 I1Cent=           0 NGrid=           0
         NMat0=    1 NMatS0=  40470 NMatT0=    0 NMatD0=    1 NMtDS0=    0 NMtDT0=    0
 Symmetry not used in FoFCou.
 Two-electron integral symmetry not used.
          MDV=    6710886400 using IRadAn=       1.
          Solving linear equations simultaneously, MaxMat=       0.
          There are    45 degrees of freedom in the 1st order CPHF.  IDoFFX=5 NUNeed=    45.
 Will reuse    3 saved solutions.
     39 vectors produced by pass  0 Test12= 1.59D-14 2.22D-09 XBig12= 1.60D-01 1.81D-01.
 AX will form    39 AO Fock derivatives at one time.
     39 vectors produced by pass  1 Test12= 1.59D-14 2.22D-09 XBig12= 3.10D-02 6.20D-02.
     39 vectors produced by pass  2 Test12= 1.59D-14 2.22D-09 XBig12= 4.41D-04 4.12D-03.
     39 vectors produced by pass  3 Test12= 1.59D-14 2.22D-09 XBig12= 4.97D-06 2.76D-04.
     39 vectors produced by pass  4 Test12= 1.59D-14 2.22D-09 XBig12= 1.96D-08 2.35D-05.
     38 vectors produced by pass  5 Test12= 1.59D-14 2.22D-09 XBig12= 2.91D-11 6.92D-07.
     14 vectors produced by pass  6 Test12= 1.59D-14 2.22D-09 XBig12= 2.52D-14 1.78D-08.
 InvSVY:  IOpt=1 It=  1 EMax= 1.78D-15
 Solved reduced A of dimension   247 with    39 vectors.
 FullF1:  Do perturbations      1 to       3.
 Isotropic polarizability for W=    0.000000       82.15 Bohr**3.
 FullF1:  Do perturbations      1 to       6.
 End of Minotr F.D. properties file   721 does not exist.
 End of Minotr F.D. properties file   722 does not exist.
 End of Minotr F.D. properties file   788 does not exist.
 Leave Link 1002 at Wed Feb  7 14:38:11 2024, MaxMem=  6710886400 cpu:            1136.8 elap:              71.2
 (Enter /tmpu/scunam/7/gaussian-2016.03/g1/g16/l601.exe)
 Copying SCF densities to generalized density rwf, IOpCl= 0 IROHF=0.

 **********************************************************************

            Population analysis using the SCF density.

 **********************************************************************

 Orbital symmetries:
       Occupied  (A) (A) (A) (A) (A) (A) (A) (A) (A) (A) (A) (A)
                 (A) (A) (A) (A) (A) (A) (A) (A) (A) (A) (A) (A)
                 (A) (A) (A) (A)
       Virtual   (A) (A) (A) (A) (A) (A) (A) (A) (A) (A) (A) (A)
                 (A) (A) (A) (A) (A) (A) (A) (A) (A) (A) (A) (A)
                 (A) (A) (A) (A) (A) (A) (A) (A) (A) (A) (A) (A)
                 (A) (A) (A) (A) (A) (A) (A) (A) (A) (A) (A) (A)
                 (A) (A) (A) (A) (A) (A) (A) (A) (A) (A) (A) (A)
                 (A) (A) (A) (A) (A) (A) (A) (A) (A) (A) (A) (A)
                 (A) (A) (A) (A) (A) (A) (A) (A) (A) (A) (A) (A)
                 (A) (A) (A) (A) (A) (A) (A) (A) (A) (A) (A) (A)
                 (A) (A) (A) (A) (A) (A) (A) (A) (A) (A) (A) (A)
                 (A) (A) (A) (A) (A) (A) (A) (A) (A) (A) (A) (A)
                 (A) (A) (A) (A) (A) (A) (A) (A) (A) (A) (A) (A)
                 (A) (A) (A) (A) (A) (A) (A) (A) (A) (A) (A) (A)
                 (A) (A) (A) (A) (A) (A) (A) (A) (A) (A) (A) (A)
                 (A) (A) (A) (A) (A) (A) (A) (A) (A) (A) (A) (A)
                 (A) (A) (A) (A) (A) (A) (A) (A) (A) (A) (A) (A)
                 (A) (A) (A) (A) (A) (A) (A) (A) (A) (A) (A) (A)
                 (A) (A) (A) (A) (A) (A) (A) (A) (A) (A) (A) (A)
                 (A) (A) (A) (A) (A) (A) (A) (A) (A) (A) (A) (A)
                 (A) (A) (A) (A) (A) (A) (A) (A) (A) (A) (A) (A)
                 (A) (A) (A) (A) (A) (A) (A) (A) (A) (A) (A) (A)
                 (A) (A) (A) (A) (A) (A) (A) (A) (A) (A) (A) (A)
                 (A) (A) (A) (A)
 The electronic state is 1-A.
 Alpha  occ. eigenvalues --  -19.12658 -10.26368 -10.19990 -10.19869 -10.19696
 Alpha  occ. eigenvalues --  -10.19499 -10.19443 -10.19367  -1.05239  -0.88034
 Alpha  occ. eigenvalues --   -0.78227  -0.76928  -0.66236  -0.62879  -0.58410
 Alpha  occ. eigenvalues --   -0.53469  -0.49473  -0.47301  -0.45185  -0.44357
 Alpha  occ. eigenvalues --   -0.43735  -0.41900  -0.37886  -0.37776  -0.36443
 Alpha  occ. eigenvalues --   -0.27946  -0.27646  -0.26734
 Alpha virt. eigenvalues --   -0.07679  -0.03162   0.02143   0.03989   0.05743
 Alpha virt. eigenvalues --    0.07811   0.08728   0.10124   0.11967   0.12569
 Alpha virt. eigenvalues --    0.12695   0.15472   0.18393   0.18980   0.19713
 Alpha virt. eigenvalues --    0.20829   0.21463   0.22560   0.23386   0.23930
 Alpha virt. eigenvalues --    0.25856   0.28074   0.28542   0.29399   0.30941
 Alpha virt. eigenvalues --    0.31162   0.32272   0.33998   0.34299   0.35450
 Alpha virt. eigenvalues --    0.38313   0.39079   0.39717   0.40156   0.41366
 Alpha virt. eigenvalues --    0.42349   0.44493   0.44945   0.47118   0.48153
 Alpha virt. eigenvalues --    0.48168   0.48777   0.50246   0.51229   0.52828
 Alpha virt. eigenvalues --    0.53068   0.55241   0.61702   0.63190   0.64691
 Alpha virt. eigenvalues --    0.65438   0.67902   0.70007   0.70973   0.72535
 Alpha virt. eigenvalues --    0.73199   0.74219   0.75318   0.75870   0.79618
 Alpha virt. eigenvalues --    0.82398   0.82677   0.86195   0.87184   0.87944
 Alpha virt. eigenvalues --    0.89262   0.94095   0.96399   0.97244   0.98490
 Alpha virt. eigenvalues --    1.00534   1.04532   1.05829   1.09272   1.10389
 Alpha virt. eigenvalues --    1.15654   1.18513   1.19287   1.20137   1.21586
 Alpha virt. eigenvalues --    1.22788   1.24128   1.24845   1.29224   1.32840
 Alpha virt. eigenvalues --    1.34531   1.35928   1.36574   1.42585   1.42598
 Alpha virt. eigenvalues --    1.43902   1.45696   1.46383   1.47933   1.50602
 Alpha virt. eigenvalues --    1.54008   1.56587   1.58515   1.60961   1.61365
 Alpha virt. eigenvalues --    1.62197   1.64670   1.65902   1.67573   1.68066
 Alpha virt. eigenvalues --    1.69596   1.75179   1.78719   1.78915   1.82812
 Alpha virt. eigenvalues --    1.88574   1.92199   1.92230   1.96559   1.98215
 Alpha virt. eigenvalues --    1.98946   2.02922   2.04960   2.06600   2.07842
 Alpha virt. eigenvalues --    2.12172   2.12546   2.16308   2.17721   2.21637
 Alpha virt. eigenvalues --    2.25017   2.29348   2.34366   2.34575   2.34906
 Alpha virt. eigenvalues --    2.40663   2.42523   2.47900   2.49754   2.55101
 Alpha virt. eigenvalues --    2.55974   2.57727   2.59369   2.62137   2.62812
 Alpha virt. eigenvalues --    2.63266   2.64394   2.65156   2.67809   2.68450
 Alpha virt. eigenvalues --    2.70968   2.73052   2.73180   2.74167   2.75906
 Alpha virt. eigenvalues --    2.76747   2.80600   2.80845   2.82328   2.86351
 Alpha virt. eigenvalues --    2.87406   2.87851   2.88583   2.92054   2.95685
 Alpha virt. eigenvalues --    2.95688   2.98084   3.00819   3.05409   3.08847
 Alpha virt. eigenvalues --    3.11316   3.11547   3.12086   3.12158   3.12776
 Alpha virt. eigenvalues --    3.14607   3.15073   3.17195   3.18526   3.22733
 Alpha virt. eigenvalues --    3.24112   3.24384   3.29807   3.30670   3.31091
 Alpha virt. eigenvalues --    3.33858   3.33891   3.34412   3.34976   3.36504
 Alpha virt. eigenvalues --    3.38155   3.39544   3.44314   3.45633   3.48224
 Alpha virt. eigenvalues --    3.51836   3.52338   3.58215   3.59502   3.61313
 Alpha virt. eigenvalues --    3.65297   3.66152   3.73617   3.77575   3.80889
 Alpha virt. eigenvalues --    3.81361   3.86303   3.87958   3.92211   3.95183
 Alpha virt. eigenvalues --    4.01089   4.03973   4.06000   4.13555   4.14875
 Alpha virt. eigenvalues --    4.16934   4.19896   4.20760   4.20810   4.22603
 Alpha virt. eigenvalues --    4.24970   4.29135   4.29625   4.35534   4.43596
 Alpha virt. eigenvalues --    4.48514   4.60800   4.62922   4.64628   4.68663
 Alpha virt. eigenvalues --    4.72800   4.84899   4.86209   4.95459   4.97750
 Alpha virt. eigenvalues --    5.17796   5.18653   5.20456   5.21465   5.34437
 Alpha virt. eigenvalues --    5.36423   5.40163   5.55806   5.61250   5.69379
 Alpha virt. eigenvalues --    6.08558   6.33266   6.36559   6.46530   6.50453
 Alpha virt. eigenvalues --    6.78424   6.98104   7.05477  21.96854  22.53309
 Alpha virt. eigenvalues --   22.57095  22.69192  22.77580  22.88567  23.20070
 Alpha virt. eigenvalues --   43.79572
          Condensed to atoms (all electrons):
               1          2          3          4          5          6
     1  O    7.783309  -0.195374   0.007870   0.036776  -0.001685   0.000058
     2  C   -0.195374   5.969663   0.416784   0.123907   0.013438   0.005743
     3  C    0.007870   0.416784   5.017284  -0.039067   0.453820  -0.057333
     4  C    0.036776   0.123907  -0.039067   5.174934  -0.062450   0.443568
     5  C   -0.001685   0.013438   0.453820  -0.062450   4.903724  -0.015762
     6  C    0.000058   0.005743  -0.057333   0.443568  -0.015762   4.914233
     7  C    0.000771  -0.080772  -0.009499   0.012440   0.485103   0.450713
     8  C    0.684057  -0.005153  -0.017407   0.038694  -0.011831  -0.002326
     9  H    0.000021  -0.064903   0.416961   0.015189  -0.044340  -0.002694
    10  H    0.022652  -0.073854   0.012460   0.434857  -0.003777  -0.053691
    11  H    0.000004   0.008844  -0.045769  -0.002403   0.423147   0.008656
    12  H   -0.000107   0.010995  -0.001808  -0.049564   0.008819   0.427647
    13  H    0.000000  -0.000977   0.008025   0.006826  -0.043857  -0.044205
    14  H   -0.062264  -0.262831   0.005306   0.043318  -0.004545  -0.002098
               7          8          9         10         11         12
     1  O    0.000771   0.684057   0.000021   0.022652   0.000004  -0.000107
     2  C   -0.080772  -0.005153  -0.064903  -0.073854   0.008844   0.010995
     3  C   -0.009499  -0.017407   0.416961   0.012460  -0.045769  -0.001808
     4  C    0.012440   0.038694   0.015189   0.434857  -0.002403  -0.049564
     5  C    0.485103  -0.011831  -0.044340  -0.003777   0.423147   0.008819
     6  C    0.450713  -0.002326  -0.002694  -0.053691   0.008656   0.427647
     7  C    4.894488   0.005810   0.008423   0.011199  -0.045497  -0.048887
     8  C    0.005810   4.722980   0.002554   0.002481  -0.000283  -0.000619
     9  H    0.008423   0.002554   0.548265  -0.000012  -0.006399   0.000062
    10  H    0.011199   0.002481  -0.000012   0.514041   0.000052  -0.006515
    11  H   -0.045497  -0.000283  -0.006399   0.000052   0.548433  -0.000246
    12  H   -0.048887  -0.000619   0.000062  -0.006515  -0.000246   0.546850
    13  H    0.418857   0.000100  -0.000277  -0.000181  -0.006274  -0.006359
    14  H    0.001141   0.489941   0.011573   0.002704  -0.000054  -0.000015
              13         14
     1  O    0.000000  -0.062264
     2  C   -0.000977  -0.262831
     3  C    0.008025   0.005306
     4  C    0.006826   0.043318
     5  C   -0.043857  -0.004545
     6  C   -0.044205  -0.002098
     7  C    0.418857   0.001141
     8  C    0.000100   0.489941
     9  H   -0.000277   0.011573
    10  H   -0.000181   0.002704
    11  H   -0.006274  -0.000054
    12  H   -0.006359  -0.000015
    13  H    0.548302  -0.000001
    14  H   -0.000001   0.716692
 Mulliken charges:
               1
     1  O   -0.276089
     2  C    0.134489
     3  C   -0.167626
     4  C   -0.177025
     5  C   -0.099805
     6  C   -0.072508
     7  C   -0.104290
     8  C    0.091002
     9  H    0.115578
    10  H    0.137584
    11  H    0.117790
    12  H    0.119747
    13  H    0.120020
    14  H    0.061134
 Sum of Mulliken charges =  -0.00000
 Mulliken charges with hydrogens summed into heavy atoms:
               1
     1  O   -0.276089
     2  C    0.134489
     3  C   -0.052048
     4  C   -0.039441
     5  C    0.017985
     6  C    0.047239
     7  C    0.015730
     8  C    0.152136
 APT charges:
               1
     1  O   -0.721862
     2  C   -0.302306
     3  C    0.027287
     4  C    0.009438
     5  C   -0.077401
     6  C   -0.075704
     7  C    0.025442
     8  C    0.952216
     9  H    0.044125
    10  H    0.072241
    11  H    0.037429
    12  H    0.036242
    13  H    0.039990
    14  H   -0.067137
 Sum of APT charges =  -0.00000
 APT charges with hydrogens summed into heavy atoms:
               1
     1  O   -0.721862
     2  C   -0.302306
     3  C    0.071412
     4  C    0.081679
     5  C   -0.039972
     6  C   -0.039462
     7  C    0.065432
     8  C    0.885079
 Electronic spatial extent (au):  <R**2>=            933.7828
 Charge=              0.0000 electrons
 Dipole moment (field-independent basis, Debye):
    X=              3.2332    Y=              1.2119    Z=             -0.0001  Tot=              3.4528
 Quadrupole moment (field-independent basis, Debye-Ang):
   XX=            -51.5679   YY=            -41.0680   ZZ=            -49.1591
   XY=             -3.7745   XZ=              0.0000   YZ=              0.0002
 Traceless Quadrupole moment (field-independent basis, Debye-Ang):
   XX=             -4.3029   YY=              6.1970   ZZ=             -1.8941
   XY=             -3.7745   XZ=              0.0000   YZ=              0.0002
 Octapole moment (field-independent basis, Debye-Ang**2):
  XXX=             38.0720  YYY=             -1.3653  ZZZ=              0.0009  XYY=             -0.1477
  XXY=              9.1276  XXZ=             -0.0020  XZZ=             -7.8397  YZZ=             -0.5440
  YYZ=              0.0000  XYZ=             -0.0003
 Hexadecapole moment (field-independent basis, Debye-Ang**3):
 XXXX=           -927.6757 YYYY=           -299.8350 ZZZZ=            -55.1431 XXXY=            -23.4771
 XXXZ=              0.0170 YYYX=              1.0649 YYYZ=             -0.0004 ZZZX=              0.0163
 ZZZY=             -0.0008 XXYY=           -184.6609 XXZZ=           -158.5441 YYZZ=            -69.9057
 XXYZ=              0.0008 YYXZ=              0.0044 ZZXY=              1.2848
 N-N= 3.216943450385D+02 E-N=-1.448133788244D+03  KE= 3.440044110400D+02
  Exact polarizability: 112.881  -0.112  89.226  -0.003   0.000  44.346
 Approx polarizability: 183.101   6.506 151.784  -0.004   0.000  70.149
 No NMR shielding tensors so no spin-rotation constants.
 Leave Link  601 at Wed Feb  7 14:38:11 2024, MaxMem=  6710886400 cpu:               3.4 elap:               0.3
 (Enter /tmpu/scunam/7/gaussian-2016.03/g1/g16/l701.exe)
 ... and contract with generalized density number  0.
 Compute integral second derivatives.
   1 Symmetry operations used in ECPInt.
 ECPInt:  NShTT=    6328 NPrTT=   19500 LenC2=    6194 LenP2D=   15434.
 LDataN:  DoStor=T MaxTD1= 8 Len=  415
 Leave Link  701 at Wed Feb  7 14:38:11 2024, MaxMem=  6710886400 cpu:               4.7 elap:               0.3
 (Enter /tmpu/scunam/7/gaussian-2016.03/g1/g16/l702.exe)
 L702 exits ... SP integral derivatives will be done elsewhere.
 Leave Link  702 at Wed Feb  7 14:38:11 2024, MaxMem=  6710886400 cpu:               0.3 elap:               0.0
 (Enter /tmpu/scunam/7/gaussian-2016.03/g1/g16/l703.exe)
 Integral derivatives from FoFJK, PRISM(SPDF).
 Compute integral second derivatives, UseDBF=F ICtDFT=           0.
 Calling FoFJK, ICntrl=    100127 FMM=F ISym2X=0 I1Cent= 0 IOpClX= 0 NMat=1 NMatS=1 NMatT=0.
 FoFJK:  IHMeth= 1 ICntrl=  100127 DoSepK=F KAlg= 0 I1Cent=           0 FoldK=F
 IRaf=         0 NMat=       1 IRICut=       1 DoRegI=T DoRafI=F ISym2E= 0 IDoP0=0 IntGTp=1.
 FoFCou: FMM=F IPFlag=           0 FMFlag=      100000 FMFlg1=         800
         NFxFlg=           0 DoJE=F BraDBF=F KetDBF=F FulRan=T
         wScrn=  0.000000 ICntrl=    100127 IOpCl=  0 I1Cent=           0 NGrid=           0
         NMat0=    1 NMatS0=      1 NMatT0=    0 NMatD0=    1 NMtDS0=    0 NMtDT0=    0
 Symmetry not used in FoFCou.
 Leave Link  703 at Wed Feb  7 14:40:07 2024, MaxMem=  6710886400 cpu:            1843.2 elap:             115.4
 (Enter /tmpu/scunam/7/gaussian-2016.03/g1/g16/l716.exe)
 Dipole        = 1.27202696D+00 4.76811024D-01-4.25330620D-05
 Polarizability= 1.12881183D+02-1.11776669D-01 8.92261811D+01
                -2.68403559D-03 2.07060038D-04 4.43457974D+01
 HyperPolar    =-2.13631503D+02 6.64251839D+01 1.22195962D+01
                 6.66169897D+01 1.01333422D-02-2.63605056D-03
                 2.23720533D-04 1.76225613D+01 3.27137216D+00
                -1.81124677D-03
 Full mass-weighted force constant matrix:
 Low frequencies ---   -4.2593   -3.3730    0.0006    0.0008    0.0009    3.7625
 Low frequencies ---  117.0008  220.3010  236.4305
 Diagonal vibrational polarizability:
        9.7360189       2.8853813      17.2446982
 Diagonal vibrational hyperpolarizability:
      113.8998483      -2.2751007       0.0116650
 Harmonic frequencies (cm**-1), IR intensities (KM/Mole), Raman scattering
 activities (A**4/AMU), depolarization ratios for plane and unpolarized
 incident light, reduced masses (AMU), force constants (mDyne/A),
 and normal coordinates:
                      1                      2                      3
                      A                      A                      A
 Frequencies --    117.0006               220.3009               236.4303
 Red. masses --      4.9883                 5.6766                 2.4178
 Frc consts  --      0.0402                 0.1623                 0.0796
 IR Inten    --      4.5185                 7.7346                 7.4192
 Raman Activ --      1.5390                 0.6396                 0.8956
 Depolar (P) --      0.7500                 0.5083                 0.7500
 Depolar (U) --      0.8571                 0.6740                 0.8571
  Atom  AN      X      Y      Z        X      Y      Z        X      Y      Z
     1   8     0.00  -0.00   0.35    -0.25   0.30   0.00     0.00  -0.00  -0.05
     2   6    -0.00   0.00  -0.23    -0.00  -0.23  -0.00    -0.00   0.00  -0.10
     3   6    -0.00   0.00  -0.10    -0.10  -0.15  -0.00    -0.00   0.00  -0.13
     4   6    -0.00   0.00  -0.23     0.15  -0.19  -0.00    -0.00   0.00  -0.14
     5   6     0.00  -0.00   0.15    -0.08   0.04   0.00    -0.00  -0.00  -0.05
     6   6    -0.00   0.00  -0.05     0.20   0.01  -0.00    -0.00  -0.00   0.04
     7   6     0.00  -0.00   0.18     0.08   0.11   0.00     0.00  -0.00   0.14
     8   6    -0.00   0.00  -0.16     0.03   0.01   0.00     0.00  -0.00   0.23
     9   1    -0.00   0.00  -0.12    -0.23  -0.21   0.00    -0.00   0.00  -0.15
    10   1    -0.00   0.00  -0.34     0.28  -0.30  -0.00    -0.00   0.00  -0.17
    11   1     0.00  -0.00   0.31    -0.19   0.14   0.00     0.00  -0.00  -0.05
    12   1    -0.00   0.00  -0.05     0.33   0.06  -0.00    -0.00  -0.00   0.14
    13   1     0.00  -0.00   0.38     0.10   0.23   0.00     0.00  -0.00   0.34
    14   1    -0.00   0.00  -0.56     0.35   0.10   0.00     0.00  -0.00   0.83
                      4                      5                      6
                      A                      A                      A
 Frequencies --    417.8122               442.9868               467.1773
 Red. masses --      2.9203                 6.9612                 2.9253
 Frc consts  --      0.3004                 0.8049                 0.3762
 IR Inten    --      0.0850                 0.3016                 6.6815
 Raman Activ --      0.0228                 5.9252                 0.1632
 Depolar (P) --      0.7500                 0.2691                 0.7500
 Depolar (U) --      0.8571                 0.4241                 0.8571
  Atom  AN      X      Y      Z        X      Y      Z        X      Y      Z
     1   8     0.00  -0.00   0.02     0.36   0.09  -0.00    -0.00  -0.00  -0.01
     2   6    -0.00   0.00  -0.03     0.09  -0.12   0.00     0.00   0.00   0.30
     3   6     0.00  -0.00   0.23    -0.16  -0.00   0.00     0.00  -0.00  -0.02
     4   6    -0.00   0.00  -0.19    -0.10  -0.19  -0.00    -0.00   0.00  -0.07
     5   6    -0.00   0.00  -0.18    -0.20   0.10   0.00    -0.00  -0.00  -0.16
     6   6     0.00  -0.00   0.22    -0.11  -0.07  -0.00    -0.00   0.00  -0.11
     7   6    -0.00   0.00  -0.04    -0.27   0.08   0.00     0.00  -0.00   0.21
     8   6    -0.00   0.00  -0.04     0.32   0.09  -0.00    -0.00  -0.00  -0.01
     9   1     0.00  -0.00   0.51    -0.39  -0.10   0.00    -0.00   0.00  -0.23
    10   1    -0.00   0.00  -0.42    -0.17  -0.13  -0.00    -0.00   0.00  -0.38
    11   1    -0.00   0.00  -0.39    -0.18   0.08  -0.00    -0.00   0.00  -0.44
    12   1     0.00  -0.00   0.47     0.07  -0.00  -0.00    -0.00   0.00  -0.36
    13   1    -0.00   0.00  -0.09    -0.26   0.14   0.00     0.00  -0.00   0.38
    14   1    -0.00   0.00  -0.08     0.40   0.11  -0.00    -0.00   0.00  -0.41
                      7                      8                      9
                      A                      A                      A
 Frequencies --    631.9857               663.6057               705.8797
 Red. masses --      6.4286                 6.4622                 2.0605
 Frc consts  --      1.5128                 1.6767                 0.6049
 IR Inten    --      0.3700                24.0192                31.1125
 Raman Activ --      5.6557                 2.9483                 0.0156
 Depolar (P) --      0.7473                 0.3250                 0.7500
 Depolar (U) --      0.8554                 0.4906                 0.8571
  Atom  AN      X      Y      Z        X      Y      Z        X      Y      Z
     1   8     0.01  -0.03  -0.00     0.25  -0.02  -0.00     0.00  -0.00   0.00
     2   6    -0.04  -0.14   0.00    -0.25   0.00   0.00    -0.00   0.00  -0.12
     3   6     0.19  -0.27  -0.00    -0.14  -0.26   0.00     0.00  -0.00   0.10
     4   6    -0.27  -0.16   0.00     0.02   0.07  -0.00     0.00  -0.00   0.10
     5   6     0.29   0.18  -0.00    -0.13  -0.21   0.00    -0.00   0.00  -0.16
     6   6    -0.21   0.29   0.00     0.08   0.12  -0.00    -0.00   0.00  -0.16
     7   6     0.05   0.15  -0.00     0.25  -0.02  -0.00     0.00  -0.00   0.09
     8   6    -0.02   0.01   0.00    -0.13   0.31   0.00    -0.00   0.00  -0.02
     9   1     0.05  -0.32  -0.00     0.01  -0.20  -0.00     0.00  -0.00   0.53
    10   1    -0.12  -0.28   0.00     0.25  -0.12  -0.00     0.00  -0.00   0.51
    11   1     0.13   0.31  -0.00    -0.40   0.01   0.00     0.00  -0.00   0.13
    12   1    -0.06   0.35   0.00    -0.09   0.06   0.00     0.00  -0.00   0.11
    13   1    -0.02  -0.27   0.00     0.26   0.09  -0.00     0.00  -0.00   0.58
    14   1    -0.02   0.01   0.00    -0.31   0.26   0.00     0.00   0.00   0.04
                     10                     11                     12
                      A                      A                      A
 Frequencies --    766.2233               840.1313               866.6676
 Red. masses --      1.5276                 4.6432                 1.2478
 Frc consts  --      0.5284                 1.9309                 0.5522
 IR Inten    --     48.0706                32.9150                 0.0278
 Raman Activ --      0.1363                12.5200                 0.0161
 Depolar (P) --      0.7500                 0.0946                 0.7500
 Depolar (U) --      0.8571                 0.1728                 0.8571
  Atom  AN      X      Y      Z        X      Y      Z        X      Y      Z
     1   8    -0.00   0.00  -0.01    -0.05   0.06   0.00    -0.00  -0.00   0.00
     2   6     0.00  -0.00   0.13     0.02  -0.01   0.00     0.00   0.00   0.01
     3   6    -0.00   0.00  -0.09    -0.07  -0.07   0.00     0.00  -0.00   0.08
     4   6    -0.00   0.00  -0.09    -0.04   0.23   0.00    -0.00   0.00  -0.07
     5   6     0.00   0.00  -0.00    -0.11  -0.15   0.00     0.00  -0.00   0.07
     6   6     0.00  -0.00   0.01    -0.12   0.24   0.00    -0.00   0.00  -0.08
     7   6    -0.00   0.00  -0.11     0.13  -0.05  -0.00    -0.00   0.00  -0.01
     8   6     0.00  -0.00   0.03     0.27  -0.26  -0.00    -0.00  -0.00  -0.01
     9   1     0.00  -0.00   0.19    -0.01  -0.05  -0.00    -0.00   0.00  -0.52
    10   1     0.00  -0.00   0.12    -0.03   0.24   0.00     0.00  -0.00   0.45
    11   1     0.00  -0.00   0.59    -0.26  -0.04   0.00    -0.00   0.00  -0.46
    12   1     0.00  -0.00   0.54    -0.43   0.12   0.00     0.00  -0.00   0.54
    13   1     0.00  -0.00   0.46     0.11  -0.11  -0.00     0.00  -0.00   0.07
    14   1    -0.00   0.00  -0.22     0.53  -0.19  -0.00     0.00  -0.00   0.01
                     13                     14                     15
                      A                      A                      A
 Frequencies --    941.5443               981.2990              1000.3026
 Red. masses --      1.3414                 1.3534                 1.3057
 Frc consts  --      0.7006                 0.7679                 0.7698
 IR Inten    --      1.3163                 0.0750                 0.0047
 Raman Activ --      0.1600                 0.1902                 0.0911
 Depolar (P) --      0.7500                 0.7500                 0.7500
 Depolar (U) --      0.8571                 0.8571                 0.8571
  Atom  AN      X      Y      Z        X      Y      Z        X      Y      Z
     1   8    -0.00   0.00  -0.02    -0.00   0.00  -0.01     0.00  -0.00   0.01
     2   6     0.00  -0.00   0.02     0.00  -0.00   0.01     0.00  -0.00   0.02
     3   6    -0.00   0.00  -0.11     0.00  -0.00   0.07    -0.00   0.00   0.00
     4   6    -0.00   0.00  -0.06    -0.00   0.00  -0.09     0.00  -0.00   0.07
     5   6     0.00  -0.00   0.04    -0.00   0.00  -0.11    -0.00   0.00  -0.04
     6   6    -0.00   0.00  -0.02     0.00  -0.00   0.04    -0.00   0.00  -0.11
     7   6     0.00  -0.00   0.10     0.00  -0.00   0.07     0.00  -0.00   0.08
     8   6     0.00  -0.00   0.05     0.00  -0.00   0.02    -0.00   0.00  -0.04
     9   1     0.00  -0.00   0.61    -0.00   0.00  -0.41    -0.00   0.00  -0.08
    10   1     0.00  -0.00   0.39     0.00  -0.00   0.47    -0.00   0.00  -0.47
    11   1    -0.00   0.00  -0.25     0.00  -0.00   0.60     0.00  -0.00   0.29
    12   1     0.00  -0.00   0.13    -0.00   0.00  -0.21     0.00  -0.00   0.63
    13   1    -0.00   0.00  -0.54    -0.00   0.00  -0.40    -0.00   0.00  -0.47
    14   1    -0.00   0.00  -0.26    -0.00   0.00  -0.08     0.00  -0.00   0.19
                     16                     17                     18
                      A                      A                      A
 Frequencies --   1020.5527              1036.1313              1045.9679
 Red. masses --      6.2851                 1.8208                 2.1406
 Frc consts  --      3.8569                 1.1517                 1.3798
 IR Inten    --      0.8172                 1.0410                 2.6836
 Raman Activ --     35.9406                 3.1073                 9.4458
 Depolar (P) --      0.0596                 0.7500                 0.0564
 Depolar (U) --      0.1125                 0.8571                 0.1068
  Atom  AN      X      Y      Z        X      Y      Z        X      Y      Z
     1   8     0.00   0.01  -0.00     0.00  -0.00   0.05    -0.00  -0.00  -0.00
     2   6     0.00   0.00  -0.00     0.00  -0.00   0.12     0.01  -0.00  -0.00
     3   6    -0.15   0.37   0.00    -0.00   0.00  -0.04     0.05   0.08  -0.00
     4   6    -0.25  -0.31   0.00    -0.00  -0.00  -0.06     0.03  -0.09  -0.00
     5   6    -0.02  -0.02   0.00    -0.00  -0.00   0.00    -0.05  -0.17   0.00
     6   6    -0.02   0.02   0.00     0.00   0.00   0.02     0.01   0.19   0.00
     7   6     0.40  -0.06  -0.00    -0.00   0.00   0.01    -0.12   0.01   0.00
     8   6     0.02  -0.01  -0.00    -0.00   0.00  -0.22    -0.01   0.01   0.00
     9   1    -0.12   0.39   0.00     0.00   0.00   0.21     0.38   0.20  -0.00
    10   1    -0.26  -0.32   0.00     0.00  -0.00   0.32     0.33  -0.35  -0.00
    11   1    -0.03   0.01   0.00    -0.00  -0.00  -0.02     0.23  -0.42  -0.00
    12   1    -0.04  -0.01  -0.00    -0.00   0.00  -0.12     0.34   0.33  -0.00
    13   1     0.42  -0.05  -0.00    -0.00   0.00  -0.02    -0.14  -0.00   0.00
    14   1    -0.00  -0.02  -0.00     0.00  -0.00   0.88    -0.03   0.00  -0.00
                     19                     20                     21
                      A                      A                      A
 Frequencies --   1103.0820              1186.2057              1190.1455
 Red. masses --      1.5455                 1.1345                 1.2302
 Frc consts  --      1.1080                 0.9405                 1.0267
 IR Inten    --      4.5873                 3.6417                25.9532
 Raman Activ --      0.5974                 7.0104                 9.9565
 Depolar (P) --      0.1694                 0.6586                 0.1226
 Depolar (U) --      0.2897                 0.7942                 0.2184
  Atom  AN      X      Y      Z        X      Y      Z        X      Y      Z
     1   8    -0.02  -0.00   0.00    -0.00   0.00   0.00     0.01   0.00  -0.00
     2   6     0.04   0.04  -0.00    -0.02   0.01   0.00    -0.09   0.01   0.00
     3   6     0.10  -0.06  -0.00     0.01  -0.01  -0.00     0.05   0.02  -0.00
     4   6    -0.10  -0.02   0.00     0.01  -0.01  -0.00     0.02  -0.02  -0.00
     5   6    -0.08  -0.06   0.00     0.03  -0.02  -0.00    -0.03   0.06   0.00
     6   6     0.04  -0.04  -0.00    -0.05  -0.03   0.00    -0.01  -0.04   0.00
     7   6     0.01   0.08  -0.00     0.01   0.07  -0.00    -0.01  -0.01   0.00
     8   6     0.01  -0.01   0.00     0.01  -0.01  -0.00     0.03  -0.02  -0.00
     9   1     0.46   0.07  -0.00    -0.01  -0.01   0.00     0.59   0.23  -0.00
    10   1    -0.47   0.28   0.00     0.21  -0.18  -0.00     0.35  -0.30  -0.00
    11   1    -0.28   0.09   0.00     0.29  -0.24  -0.00    -0.38   0.35   0.00
    12   1     0.28   0.04  -0.00    -0.50  -0.21   0.00    -0.22  -0.12   0.00
    13   1     0.08   0.51  -0.00     0.11   0.68  -0.00    -0.03  -0.13   0.00
    14   1    -0.03  -0.02  -0.00     0.03  -0.00  -0.00     0.11  -0.00  -0.00
                     22                     23                     24
                      A                      A                      A
 Frequencies --   1225.0209              1337.8551              1355.6770
 Red. masses --      2.6262                 2.4581                 2.1654
 Frc consts  --      2.3220                 2.5922                 2.3448
 IR Inten    --     54.8880                17.5254                 5.2775
 Raman Activ --     23.4804                 1.1303                 1.3560
 Depolar (P) --      0.2413                 0.4198                 0.7032
 Depolar (U) --      0.3888                 0.5913                 0.8257
  Atom  AN      X      Y      Z        X      Y      Z        X      Y      Z
     1   8    -0.03  -0.02   0.00    -0.02   0.02   0.00     0.00   0.00   0.00
     2   6     0.31  -0.01  -0.00    -0.00   0.26   0.00    -0.01  -0.01   0.00
     3   6     0.06  -0.00  -0.00    -0.06  -0.06   0.00     0.16   0.03  -0.00
     4   6     0.07  -0.05  -0.00     0.02  -0.05  -0.00    -0.16   0.09   0.00
     5   6    -0.10  -0.04   0.00     0.10  -0.10  -0.00    -0.08   0.05   0.00
     6   6    -0.10   0.06   0.00    -0.11  -0.08   0.00     0.09   0.01  -0.00
     7   6     0.01  -0.01  -0.00     0.01   0.08  -0.00    -0.02  -0.16   0.00
     8   6    -0.09   0.07   0.00     0.07  -0.06  -0.00     0.01  -0.01  -0.00
     9   1    -0.15  -0.09   0.00    -0.35  -0.17   0.00    -0.53  -0.23   0.00
    10   1     0.14  -0.10  -0.00     0.33  -0.31  -0.00     0.41  -0.39  -0.00
    11   1    -0.50   0.28   0.00    -0.32   0.24   0.00    -0.13   0.09   0.00
    12   1    -0.55  -0.10   0.00     0.49   0.15  -0.00     0.22   0.06  -0.00
    13   1     0.00  -0.05  -0.00     0.01   0.04   0.00     0.07   0.39  -0.00
    14   1    -0.39  -0.00   0.00    -0.25  -0.14   0.00    -0.05  -0.03   0.00
                     25                     26                     27
                      A                      A                      A
 Frequencies --   1422.9245              1490.8635              1526.5433
 Red. masses --      1.2591                 2.1225                 2.1970
 Frc consts  --      1.5020                 2.7795                 3.0165
 IR Inten    --      5.7195                12.8184                 0.5928
 Raman Activ --      2.2757                 2.0271                 1.4407
 Depolar (P) --      0.4596                 0.2598                 0.4094
 Depolar (U) --      0.6298                 0.4124                 0.5810
  Atom  AN      X      Y      Z        X      Y      Z        X      Y      Z
     1   8    -0.02  -0.07  -0.00     0.03   0.03  -0.00    -0.00  -0.00   0.00
     2   6     0.03   0.01  -0.00    -0.02  -0.16   0.00     0.14  -0.04  -0.00
     3   6     0.00   0.02   0.00    -0.07   0.07   0.00    -0.09  -0.08   0.00
     4   6     0.02   0.00  -0.00     0.09   0.04  -0.00    -0.05   0.12   0.00
     5   6     0.03  -0.03  -0.00     0.14  -0.02  -0.00    -0.08   0.11   0.00
     6   6    -0.05  -0.01   0.00    -0.12   0.04   0.00    -0.13  -0.09   0.00
     7   6     0.00  -0.00  -0.00    -0.03  -0.13   0.00     0.10  -0.01  -0.00
     8   6    -0.07   0.06   0.00    -0.01  -0.00   0.00    -0.03   0.01   0.00
     9   1    -0.12  -0.02   0.00     0.12   0.16  -0.00     0.44   0.11  -0.00
    10   1     0.04  -0.01  -0.00    -0.07   0.19   0.00     0.37  -0.22  -0.00
    11   1    -0.16   0.12   0.00    -0.27   0.34   0.00     0.39  -0.26  -0.00
    12   1     0.14   0.07  -0.00     0.29   0.21  -0.00     0.49   0.14  -0.00
    13   1     0.02   0.13  -0.00     0.09   0.62  -0.00     0.12  -0.02  -0.00
    14   1     0.88   0.33  -0.00    -0.32  -0.10   0.00    -0.02   0.01   0.00
                     28                     29                     30
                      A                      A                      A
 Frequencies --   1624.8221              1641.7278              1772.5967
 Red. masses --      5.4667                 5.4020                10.1428
 Frc consts  --      8.5033                 8.5784                18.7770
 IR Inten    --     12.3750                31.9397               270.4454
 Raman Activ --     10.0664                87.5278                92.2079
 Depolar (P) --      0.5361                 0.5297                 0.3544
 Depolar (U) --      0.6980                 0.6925                 0.5234
  Atom  AN      X      Y      Z        X      Y      Z        X      Y      Z
     1   8     0.05   0.04  -0.00    -0.01  -0.01   0.00    -0.34  -0.33   0.00
     2   6    -0.02  -0.30  -0.00    -0.21  -0.02   0.00    -0.02  -0.10   0.00
     3   6     0.11   0.17  -0.00     0.31   0.06  -0.00    -0.05   0.02   0.00
     4   6    -0.11   0.21   0.00     0.27  -0.09  -0.00    -0.03   0.06   0.00
     5   6     0.06  -0.23  -0.00    -0.24   0.08   0.00     0.04  -0.03  -0.00
     6   6    -0.04  -0.18   0.00    -0.29  -0.04   0.00     0.02  -0.02  -0.00
     7   6     0.03   0.35   0.00     0.14   0.02  -0.00    -0.01   0.02   0.00
     8   6    -0.06  -0.02   0.00     0.05   0.02  -0.00     0.53   0.48  -0.00
     9   1    -0.29   0.02   0.00    -0.39  -0.21   0.00     0.03   0.04  -0.00
    10   1     0.28  -0.12  -0.00    -0.21   0.32   0.00     0.09  -0.01  -0.00
    11   1    -0.30   0.04   0.00     0.15  -0.26  -0.00    -0.03   0.03   0.00
    12   1     0.15  -0.13  -0.00     0.31   0.20  -0.00     0.04  -0.01  -0.00
    13   1    -0.12  -0.50   0.00     0.14  -0.07  -0.00    -0.02  -0.02   0.00
    14   1    -0.14  -0.05   0.00    -0.09  -0.03   0.00    -0.47   0.13   0.00
                     31                     32                     33
                      A                      A                      A
 Frequencies --   2881.7384              3162.5579              3172.4388
 Red. masses --      1.0825                 1.0872                 1.0872
 Frc consts  --      5.2965                 6.4070                 6.4467
 IR Inten    --    115.6128                 3.6739                 1.0824
 Raman Activ --    138.7401                43.6769                82.9436
 Depolar (P) --      0.2892                 0.4178                 0.6909
 Depolar (U) --      0.4487                 0.5894                 0.8172
  Atom  AN      X      Y      Z        X      Y      Z        X      Y      Z
     1   8    -0.00  -0.00   0.00    -0.00  -0.00   0.00     0.00  -0.00  -0.00
     2   6    -0.00  -0.00   0.00     0.00   0.00  -0.00    -0.00  -0.00   0.00
     3   6    -0.00   0.00   0.00     0.03  -0.07  -0.00    -0.01   0.03   0.00
     4   6    -0.00   0.00   0.00     0.00   0.00  -0.00     0.01   0.01  -0.00
     5   6     0.00   0.00  -0.00     0.02   0.02  -0.00     0.01   0.01  -0.00
     6   6    -0.00  -0.00   0.00     0.00  -0.01  -0.00     0.02  -0.05  -0.00
     7   6     0.00   0.00  -0.00    -0.02   0.00   0.00    -0.06   0.01   0.00
     8   6     0.03  -0.08  -0.00     0.00  -0.00  -0.00    -0.00   0.00   0.00
     9   1     0.01  -0.01  -0.00    -0.32   0.83   0.00     0.12  -0.32  -0.00
    10   1     0.00   0.00  -0.00    -0.03  -0.04   0.00    -0.12  -0.14   0.00
    11   1     0.00  -0.00  -0.00    -0.24  -0.29   0.00    -0.14  -0.17   0.00
    12   1     0.00   0.00  -0.00    -0.04   0.11   0.00    -0.21   0.53   0.00
    13   1     0.00   0.00  -0.00     0.20  -0.03  -0.00     0.67  -0.11  -0.00
    14   1    -0.27   0.96   0.00    -0.01   0.01   0.00     0.00  -0.00  -0.00
                     34                     35                     36
                      A                      A                      A
 Frequencies --   3183.6753              3193.5080              3199.9507
 Red. masses --      1.0904                 1.0945                 1.0956
 Frc consts  --      6.5118                 6.5767                 6.6099
 IR Inten    --     11.5129                11.0697                 7.7988
 Raman Activ --     80.6811               105.4794               216.9758
 Depolar (P) --      0.7499                 0.1400                 0.1151
 Depolar (U) --      0.8571                 0.2457                 0.2065
  Atom  AN      X      Y      Z        X      Y      Z        X      Y      Z
     1   8    -0.00  -0.00   0.00    -0.00   0.00   0.00     0.00   0.00  -0.00
     2   6     0.00   0.00  -0.00     0.00   0.00   0.00    -0.00   0.00   0.00
     3   6     0.01  -0.02  -0.00     0.01  -0.02  -0.00    -0.00   0.00   0.00
     4   6     0.02   0.02  -0.00    -0.03  -0.03   0.00    -0.05  -0.05   0.00
     5   6    -0.03  -0.04   0.00    -0.04  -0.05   0.00     0.01   0.02  -0.00
     6   6     0.02  -0.05  -0.00    -0.00   0.01   0.00     0.02  -0.04  -0.00
     7   6     0.03  -0.00  -0.00    -0.05   0.01   0.00     0.03  -0.00  -0.00
     8   6     0.00  -0.00  -0.00    -0.00  -0.00  -0.00    -0.00  -0.00   0.00
     9   1    -0.07   0.19   0.00    -0.07   0.18   0.00     0.02  -0.05  -0.00
    10   1    -0.23  -0.28   0.00     0.30   0.36  -0.00     0.50   0.60  -0.00
    11   1     0.35   0.42  -0.00     0.42   0.52  -0.00    -0.14  -0.17   0.00
    12   1    -0.22   0.59   0.00     0.03  -0.09  -0.00    -0.18   0.46   0.00
    13   1    -0.34   0.05   0.00     0.52  -0.09  -0.00    -0.30   0.05   0.00
    14   1    -0.00   0.00   0.00    -0.00   0.00   0.00     0.00  -0.00  -0.00

 -------------------
 - Thermochemistry -
 -------------------
 Temperature   298.150 Kelvin.  Pressure   1.00000 Atm.
 Atom     1 has atomic number  8 and mass  15.99491
 Atom     2 has atomic number  6 and mass  12.00000
 Atom     3 has atomic number  6 and mass  12.00000
 Atom     4 has atomic number  6 and mass  12.00000
 Atom     5 has atomic number  6 and mass  12.00000
 Atom     6 has atomic number  6 and mass  12.00000
 Atom     7 has atomic number  6 and mass  12.00000
 Atom     8 has atomic number  6 and mass  12.00000
 Atom     9 has atomic number  1 and mass   1.00783
 Atom    10 has atomic number  1 and mass   1.00783
 Atom    11 has atomic number  1 and mass   1.00783
 Atom    12 has atomic number  1 and mass   1.00783
 Atom    13 has atomic number  1 and mass   1.00783
 Atom    14 has atomic number  1 and mass   1.00783
 Molecular mass:   106.04186 amu.
 Principal axes and moments of inertia in atomic units:
                           1         2         3
     Eigenvalues --   341.781511152.008061493.78957
           X            0.99992  -0.01264   0.00004
           Y            0.01264   0.99992  -0.00000
           Z           -0.00004   0.00000   1.00000
 This molecule is an asymmetric top.
 Rotational symmetry number  1.
 Rotational temperatures (Kelvin)      0.25342     0.07519     0.05798
 Rotational constants (GHZ):           5.28039     1.56660     1.20816
 Zero-point vibrational energy     287542.4 (Joules/Mol)
                                   68.72428 (Kcal/Mol)
 Warning -- explicit consideration of   6 degrees of freedom as
           vibrations may cause significant error
 Vibrational temperatures:    168.34   316.96   340.17   601.14   637.36
          (Kelvin)            672.16   909.29   954.78  1015.60  1102.42
                             1208.76  1246.94  1354.67  1411.87  1439.21
                             1468.35  1490.76  1504.91  1587.09  1706.69
                             1712.35  1762.53  1924.88  1950.52  2047.27
                             2145.02  2196.36  2337.76  2362.08  2550.37
                             4146.18  4550.22  4564.43  4580.60  4594.75
                             4604.02
 
 Zero-point correction=                           0.109519 (Hartree/Particle)
 Thermal correction to Energy=                    0.115837
 Thermal correction to Enthalpy=                  0.116781
 Thermal correction to Gibbs Free Energy=         0.078950
 Sum of electronic and zero-point Energies=           -345.598594
 Sum of electronic and thermal Energies=              -345.592276
 Sum of electronic and thermal Enthalpies=            -345.591332
 Sum of electronic and thermal Free Energies=         -345.629164
 
                     E (Thermal)             CV                S
                      KCal/Mol        Cal/Mol-Kelvin    Cal/Mol-Kelvin
 Total                   72.689             23.904             79.623
 Electronic               0.000              0.000              0.000
 Translational            0.889              2.981             39.893
 Rotational               0.889              2.981             27.866
 Vibrational             70.911             17.942             11.864
 Vibration     1          0.608              1.935              3.149
 Vibration     2          0.647              1.810              1.957
 Vibration     3          0.655              1.785              1.830
 Vibration     4          0.781              1.432              0.899
 Vibration     5          0.803              1.376              0.817
 Vibration     6          0.824              1.323              0.745
                       Q            Log10(Q)             Ln(Q)
 Total Bot       0.484954D-36        -36.314299        -83.616764
 Total V=0       0.115067D+15         14.060950         32.376534
 Vib (Bot)       0.411565D-49        -49.385561       -113.714457
 Vib (Bot)    1  0.174783D+01          0.242500          0.558377
 Vib (Bot)    2  0.897765D+00         -0.046837         -0.107847
 Vib (Bot)    3  0.830678D+00         -0.080567         -0.185513
 Vib (Bot)    4  0.420960D+00         -0.375759         -0.865217
 Vib (Bot)    5  0.389310D+00         -0.409704         -0.943379
 Vib (Bot)    6  0.361906D+00         -0.441404         -1.016370
 Vib (V=0)       0.976535D+01          0.989688          2.278840
 Vib (V=0)    1  0.231794D+01          0.365103          0.840681
 Vib (V=0)    2  0.152761D+01          0.184013          0.423704
 Vib (V=0)    3  0.146955D+01          0.167184          0.384956
 Vib (V=0)    4  0.115361D+01          0.062059          0.142897
 Vib (V=0)    5  0.113369D+01          0.054494          0.125477
 Vib (V=0)    6  0.111723D+01          0.048144          0.110855
 Electronic      0.100000D+01          0.000000          0.000000
 Translational   0.429210D+08          7.632670         17.574872
 Rotational      0.274532D+06          5.438592         12.522822
 
                                                             Benzaldehyde
                                                             IR Spectrum
 
   33333          2                                           1    11   11  1 11   111   11111                                       
   21111          8                                           7    66   54  4 33   211   1000099  88  7 7 66      444      22   1    
   09876          8                                           7    42   29  2 53   298   0432084  64  6 0 63      641      32   1    
   04423          2                                           3    25   71  3 68   506   3661012  70  6 6 42      738      60   7    
 
   XXXXX          X                                           X    XX   XX  X XX   XXX   XXXX XX   X  X X XX      XXX      XX   X    
                  X                                           X    X               XX              X  X X X                          
                  X                                           X                    X                  X                              
                  X                                           X                    X                  X                              
                  X                                           X                                                                      
                  X                                           X                                                                      
                  X                                           X                                                                      
                  X                                           X                                                                      
                  X                                           X                                                                      
                                                              X                                                                      
                                                              X                                                                      
                                                              X                                                                      
                                                              X                                                                      
                                                              X                                                                      
                                                              X                                                                      
                                                              X                                                                      
                                                              X                                                                      
                                                              X                                                                      
                                                              X                                                                      
                                                              X                                                                      
 
 
                                                             Benzaldehyde
                                                            Raman Spectrum
 
   33333          2                                           1    11   11  1 11   111   11111                                       
   21111          8                                           7    66   54  4 33   211   1000099  88  7 7 66      444      22   1    
   09876          8                                           7    42   29  2 53   298   0432084  64  6 0 63      641      32   1    
   04423          2                                           3    25   71  3 68   506   3661012  70  6 6 42      738      60   7    
 
   XXXXX          X                                           X    XX   XX  X XX   XXX   XXXXXXX   X  X   XX      XX       XX   X    
   XXXXX          X                                           X    X               X        X                                        
   XXXXX          X                                           X    X                        X                                        
   XXXXX          X                                           X    X                                                                 
   XXXX           X                                           X    X                                                                 
   XXXX           X                                           X    X                                                                 
   XXXX           X                                           X    X                                                                 
   XX X           X                                           X    X                                                                 
   XX             X                                                                                                                  
   XX             X                                                                                                                  
   X              X                                                                                                                  
   X              X                                                                                                                  
   X              X                                                                                                                  
   X                                                                                                                                 
   X                                                                                                                                 
   X                                                                                                                                 
   X                                                                                                                                 
   X                                                                                                                                 
   X                                                                                                                                 
   X                                                                                                                                 
 
 ***** Axes restored to original set *****
 -------------------------------------------------------------------
 Center     Atomic                   Forces (Hartrees/Bohr)
 Number     Number              X              Y              Z
 -------------------------------------------------------------------
      1        8          -0.000000383   -0.000000607   -0.000000186
      2        6          -0.000000028    0.000000177   -0.000000038
      3        6           0.000000527   -0.000000106   -0.000000045
      4        6          -0.000000491   -0.000000416   -0.000000020
      5        6          -0.000000178   -0.000000025    0.000000012
      6        6          -0.000000132    0.000000307    0.000000019
      7        6          -0.000000150    0.000000609   -0.000000002
      8        6           0.000000539   -0.000000892    0.000000368
      9        1           0.000000207    0.000000202   -0.000000006
     10        1          -0.000000338   -0.000000199    0.000000007
     11        1           0.000000316    0.000000327   -0.000000005
     12        1          -0.000000121    0.000000241    0.000000010
     13        1           0.000000039    0.000000351   -0.000000018
     14        1           0.000000190    0.000000030   -0.000000096
 -------------------------------------------------------------------
 Cartesian Forces:  Max     0.000000892 RMS     0.000000298
 Leave Link  716 at Wed Feb  7 14:40:07 2024, MaxMem=  6710886400 cpu:               0.4 elap:               0.0
 (Enter /tmpu/scunam/7/gaussian-2016.03/g1/g16/l103.exe)

 GradGradGradGradGradGradGradGradGradGradGradGradGradGradGradGradGradGrad
 Berny optimization.
 Search for a local minimum.
 Step number   1 out of a maximum of    2
 All quantities printed in internal units (Hartrees-Bohrs-Radians)
 Second derivative matrix not updated -- analytic derivatives used.
 ITU=  0
     Eigenvalues ---    0.00300   0.00565   0.01089   0.01497   0.02180
     Eigenvalues ---    0.03047   0.04336   0.05296   0.05497   0.05849
     Eigenvalues ---    0.07021   0.07374   0.07979   0.09443   0.10204
     Eigenvalues ---    0.13633   0.17215   0.18431   0.19465   0.20467
     Eigenvalues ---    0.23543   0.25480   0.30988   0.35419   0.41304
     Eigenvalues ---    0.56076   0.67786   0.73538   0.81644   0.90882
     Eigenvalues ---    0.98623   1.06830   1.10785   1.25364   1.25901
     Eigenvalues ---    1.61713
 Angle between quadratic step and forces=  82.32 degrees.
 Linear search not attempted -- first point.
 B after Tr=     0.000000    0.000000   -0.000001
         Rot=    1.000000   -0.000000   -0.000000   -0.000000 Ang=  -0.00 deg.
 Variable       Old X    -DE/DX   Delta X   Delta X   Delta X     New X
                                 (Linear)    (Quad)   (Total)
    X1        5.43801  -0.00000   0.00000   0.00000   0.00000   5.43801
    Y1       -0.64548  -0.00000   0.00000   0.00000   0.00000  -0.64547
    Z1       -0.00032  -0.00000   0.00000  -0.00001  -0.00002  -0.00034
    X2        1.05341  -0.00000   0.00000   0.00000   0.00000   1.05341
    Y2        0.41212   0.00000   0.00000  -0.00000  -0.00000   0.41212
    Z2       -0.00018  -0.00000   0.00000   0.00000   0.00000  -0.00017
    X3       -0.65353   0.00000   0.00000   0.00000   0.00000  -0.65353
    Y3        2.42181  -0.00000   0.00000  -0.00000  -0.00000   2.42181
    Z3       -0.00012  -0.00000   0.00000   0.00000   0.00000  -0.00012
    X4        0.15606  -0.00000   0.00000  -0.00000  -0.00000   0.15605
    Y4       -2.07307  -0.00000   0.00000  -0.00000  -0.00000  -2.07307
    Z4       -0.00013  -0.00000   0.00000   0.00000   0.00000  -0.00013
    X5       -3.23775  -0.00000   0.00000  -0.00000  -0.00000  -3.23775
    Y5        1.96261  -0.00000   0.00000  -0.00000  -0.00000   1.96260
    Z5       -0.00001   0.00000   0.00000  -0.00000  -0.00000  -0.00001
    X6       -2.42096  -0.00000   0.00000  -0.00000   0.00000  -2.42096
    Y6       -2.52955   0.00000   0.00000   0.00000   0.00000  -2.52955
    Z6       -0.00002   0.00000   0.00000   0.00000   0.00000  -0.00002
    X7       -4.11830  -0.00000   0.00000  -0.00000  -0.00000  -4.11830
    Y7       -0.51304   0.00000   0.00000   0.00000  -0.00000  -0.51304
    Z7        0.00004  -0.00000   0.00000  -0.00000  -0.00000   0.00004
    X8        3.79624   0.00000   0.00000   0.00000   0.00000   3.79624
    Y8        0.94115  -0.00000   0.00000   0.00000   0.00000   0.94115
    Z8       -0.00028   0.00000   0.00000   0.00000   0.00000  -0.00028
    X9        0.05421   0.00000   0.00000  -0.00000  -0.00000   0.05421
    Y9        4.34476   0.00000   0.00000   0.00000   0.00000   4.34476
    Z9       -0.00015  -0.00000   0.00000   0.00000   0.00000  -0.00015
   X10        1.50927  -0.00000   0.00000  -0.00000  -0.00000   1.50927
   Y10       -3.60656  -0.00000   0.00000  -0.00000  -0.00000  -3.60657
   Z10       -0.00018   0.00000   0.00000   0.00001   0.00000  -0.00017
   X11       -4.56017   0.00000   0.00000   0.00000   0.00000  -4.56017
   Y11        3.52308   0.00000   0.00000   0.00000   0.00000   3.52308
   Z11        0.00004  -0.00000   0.00000  -0.00001  -0.00000   0.00003
   X12       -3.12134  -0.00000   0.00000   0.00000   0.00000  -3.12134
   Y12       -4.45174   0.00000   0.00000   0.00000   0.00000  -4.45174
   Z12        0.00001   0.00000   0.00000   0.00000   0.00000   0.00001
   X13       -6.13191   0.00000   0.00000  -0.00000  -0.00000  -6.13191
   Y13       -0.87775   0.00000   0.00000   0.00000   0.00000  -0.87775
   Z13        0.00012  -0.00000   0.00000  -0.00001  -0.00000   0.00012
   X14        4.28612   0.00000   0.00000   0.00000   0.00000   4.28612
   Y14        2.98120   0.00000   0.00000   0.00000   0.00000   2.98120
   Z14       -0.00032  -0.00000   0.00000   0.00001   0.00001  -0.00031
         Item               Value     Threshold  Converged?
 Maximum Force            0.000001     0.000002     YES
 RMS     Force            0.000000     0.000001     YES
 Maximum Displacement     0.000016     0.000006     NO 
 RMS     Displacement     0.000003     0.000004     YES
 Predicted change in Energy=-1.860153D-12
 GradGradGradGradGradGradGradGradGradGradGradGradGradGradGradGradGradGrad

 Leave Link  103 at Wed Feb  7 14:40:07 2024, MaxMem=  6710886400 cpu:               0.3 elap:               0.0
 (Enter /tmpu/scunam/7/gaussian-2016.03/g1/g16/l9999.exe)

 ----------------------------------------------------------------------

 Electric dipole moment (input orientation):
 (Debye = 10**-18 statcoulomb cm , SI units = C m)
                  (au)            (Debye)         (10**-30 SI)
   Tot        0.135846D+01      0.345285D+01      0.115175D+02
   x         -0.127945D+01     -0.325203D+01     -0.108476D+02
   y          0.456530D+00      0.116038D+01      0.387062D+01
   z          0.425331D-04      0.108108D-03      0.360610D-03

 Dipole polarizability, Alpha (input orientation).
 (esu units = cm**3 , SI units = C**2 m**2 J**-1)
 Alpha(0;0):
               (au)            (10**-24 esu)      (10**-40 SI)
   iso        0.821511D+02      0.121735D+02      0.135449D+02
   aniso      0.602950D+02      0.893480D+01      0.994131D+01
   xx         0.112872D+03      0.167259D+02      0.186100D+02
   yx         0.487712D+00      0.722715D-01      0.804129D-01
   yy         0.892357D+02      0.132234D+02      0.147130D+02
   zx        -0.268040D-02     -0.397195D-03     -0.441939D-03
   zy        -0.249702D-03     -0.370020D-04     -0.411702D-04
   zz         0.443458D+02      0.657137D+01      0.731163D+01

 First dipole hyperpolarizability, Beta (input orientation).
 ||, _|_  parallel and perpendicular components, (z) with respect to z axis,
 vector components x,y,z.  Values do not include the 1/n! factor of 1/2.
 (esu units = statvolt**-1 cm**4 , SI units = C**3 m**3 J**-2)
 Beta(0;0,0):
               (au)            (10**-30 esu)      (10**-50 SI)
   || (z)    -0.512749D-02     -0.442975D-04     -0.164406D-04
   _|_(z)    -0.170916D-02     -0.147658D-04     -0.548019D-05
   x          0.544798D+03      0.470663D+01      0.174682D+01
   y          0.417654D+03      0.360820D+01      0.133915D+01
   z         -0.256374D-01     -0.221488D-03     -0.822029D-04
   ||         0.137294D+03      0.118611D+01      0.440213D+00
   xxx        0.210374D+03      0.181747D+01      0.674535D+00
   xxy        0.701668D+02      0.606187D+00      0.224980D+00
   yxy       -0.111024D+02     -0.959164D-01     -0.355984D-01
   yyy        0.660603D+02      0.570710D+00      0.211813D+00
   xxz       -0.100470D-01     -0.867986D-04     -0.322144D-04
   yxz       -0.279223D-02     -0.241227D-04     -0.895290D-05
   yyz       -0.310024D-03     -0.267837D-05     -0.994049D-06
   zxz       -0.176723D+02     -0.152675D+00     -0.566639D-01
   zyz        0.299082D+01      0.258383D-01      0.958964D-02
   zzz        0.181125D-02      0.156478D-04      0.580751D-05

 ----------------------------------------------------------------------

 Dipole orientation:
     8          0.40971315          1.14870984         -5.33864613
     6          0.24927519          0.69905060         -0.85364726
     6          0.69258946          1.94149424          1.42940482
     6         -0.63863755         -1.78950520         -0.84366405
     6          0.25541285          0.71618020          3.70900512
     6         -1.07414025         -3.01012320          1.43006198
     6         -0.62758118         -1.75858933          3.70636143
     6          0.72646626          2.03649945         -3.25916075
     1          1.38113656          3.87128724          1.40906324
     1         -0.97117884         -2.72149302         -2.63353356
     1          0.59997237          1.68184765          5.47893380
     1         -1.76161817         -4.93691715          1.44372204
     1         -0.97041061         -2.71946880          5.48029182
     1          1.42746795          4.00122262         -3.03495976

 Electric dipole moment (dipole orientation):
 (Debye = 10**-18 statcoulomb cm , SI units = C m)
                  (au)            (Debye)         (10**-30 SI)
   Tot        0.135846D+01      0.345285D+01      0.115175D+02
   x          0.000000D+00      0.000000D+00      0.000000D+00
   y          0.000000D+00      0.000000D+00      0.000000D+00
   z          0.135846D+01      0.345285D+01      0.115175D+02

 Dipole polarizability, Alpha (dipole orientation).
 (esu units = cm**3 , SI units = C**2 m**2 J**-1)
 Alpha(0;0):
               (au)            (10**-24 esu)      (10**-40 SI)
   iso        0.821511D+02      0.121735D+02      0.135449D+02
   aniso      0.602950D+02      0.893480D+01      0.994131D+01
   xx         0.497514D+02      0.737240D+01      0.820291D+01
   yx         0.151505D+02      0.224507D+01      0.249798D+01
   yy         0.868082D+02      0.128637D+02      0.143127D+02
   zx        -0.264070D+01     -0.391311D+00     -0.435392D+00
   zy        -0.740183D+01     -0.109684D+01     -0.122040D+01
   zz         0.109893D+03      0.162845D+02      0.181190D+02

 First dipole hyperpolarizability, Beta (dipole orientation).
 ||, _|_  parallel and perpendicular components, (z) with respect to z axis,
 vector components x,y,z.  Values do not include the 1/n! factor of 1/2.
 (esu units = statvolt**-1 cm**4 , SI units = C**3 m**3 J**-2)
 Beta(0;0,0):
               (au)            (10**-30 esu)      (10**-50 SI)
   || (z)    -0.745505D+02     -0.644058D+00     -0.239036D+00
   _|_(z)    -0.248502D+02     -0.214686D+00     -0.796786D-01
   x          0.193712D+03      0.167352D+01      0.621110D+00
   y          0.542928D+03      0.469047D+01      0.174082D+01
   z         -0.372752D+03     -0.322029D+01     -0.119518D+01
   ||         0.137294D+03      0.118611D+01      0.440213D+00
   xxx        0.780423D-01      0.674225D-03      0.250232D-03
   xxy        0.610021D+01      0.527011D-01      0.195595D-01
   yxy        0.242902D+02      0.209848D+00      0.778830D-01
   yyy        0.621986D+02      0.537347D+00      0.199431D+00
   xxz        0.117108D+02      0.101172D+00      0.375489D-01
   yxz       -0.166453D+02     -0.143802D+00     -0.533708D-01
   yyz       -0.290035D+02     -0.250568D+00     -0.929958D-01
   zxz        0.402023D+02      0.347317D+00      0.128903D+00
   zyz        0.112677D+03      0.973442D+00      0.361284D+00
   zzz       -0.106958D+03     -0.924034D+00     -0.342946D+00

 ----------------------------------------------------------------------
 1\1\GINC-MN140\Freq\RB3LYP\def2TZVP\C7H6O1\AGRC_A\07-Feb-2024\0\\#P Ge
 om=AllCheck Guess=TCheck SCRF=Check GenChk RB3LYP/def2TZVP Freq\\Benza
 ldehyde\\0,1\O,2.8776685015,-0.3415712492,-0.0001718719\C,0.5574427176
 ,0.2180841148,-0.0000932673\C,-0.3458319917,1.2815684076,-0.0000615119
 \C,0.0825808317,-1.0970192761,-0.0000686045\C,-1.7133454494,1.03856606
 79,-0.0000049583\C,-1.281118286,-1.3385815345,-0.0000130074\C,-2.17931
 09966,-0.2714875669,0.0000192532\C,2.0088847196,0.4980339443,-0.000150
 55\H,0.028687557,2.2991469993,-0.0000808273\H,0.798673629,-1.908511363
 7,-0.000093828\H,-2.413140309,1.8643345297,0.0000202989\H,-1.651741540
 8,-2.3557614811,0.0000057329\H,-3.2448687002,-0.4644858149,0.000063504
 4\H,2.2681193174,1.5775842228,-0.0001703627\\Version=ES64L-G16RevA.03\
 State=1-A\HF=-345.7081133\RMSD=1.254e-09\RMSF=2.982e-07\ZeroPoint=0.10
 95191\Thermal=0.115837\Dipole=-1.279446,0.4565296,0.0000425\DipoleDeri
 v=-1.2248613,0.1712811,0.000032,0.464196,-0.6109345,-0.0000143,0.00002
 83,-0.0000027,-0.3297898,-0.7462347,-0.0800436,0.0000285,-0.2613976,-0
 .1421075,0.0000113,0.0000316,0.0000044,-0.018576,0.1264429,0.1416974,-
 0.0000098,-0.0797422,0.0535643,0.0000023,-0.0000073,-0.0000062,-0.0981
 476,0.0982225,-0.1225761,-0.0000065,0.1242275,0.0075757,-0.0000052,-0.
 0000084,0.0000043,-0.077484,-0.0569083,-0.1918657,-0.0000026,-0.185081
 9,-0.0341316,0.0000071,-0.0000032,0.0000074,-0.1411636,-0.1895719,0.15
 17696,0.0000016,0.1170199,0.0923315,-0.0000054,0.0000019,-0.000007,-0.
 1298702,0.1179458,0.0103053,-0.0000092,-0.0039274,0.0623829,-0.0000007
 ,-0.0000092,-0.000001,-0.1040038,1.8086194,-0.0357083,-0.0000609,-0.04
 70231,0.8696273,-0.0000062,-0.0000611,-0.0000063,0.1784001,0.0525695,-
 0.0725246,0.0000035,-0.0417664,-0.0505197,0.0000025,0.0000034,0.000003
 6,0.1303261,0.0606582,0.0642083,0.0000025,0.0336912,0.0289032,-0.00000
 1,0.0000027,-0.0000021,0.127162,-0.0040584,0.0725115,0.0000054,0.08249
 12,-0.0206078,-0.0000027,0.0000054,-0.0000024,0.1369533,0.0412067,-0.0
 504129,0.0000039,-0.0587504,-0.0667669,0.0000031,0.0000041,0.0000028,0
 .1342856,-0.0807077,-0.0276229,0.0000087,-0.0286743,0.0688558,0.000001
 4,0.0000089,0.0000013,0.1318221,-0.0033228,-0.0310192,0.0000029,-0.115
 2624,-0.2581725,0.0000078,0.0000029,0.0000037,0.0600857\Polar=112.8716
 521,0.4877124,89.2357123,-0.0026804,-0.0002497,44.3457974\PolarDeriv=2
 4.9711951,-3.7120354,-1.3261706,-0.0007049,0.0000946,1.2715964,-16.797
 1526,4.6946685,-1.0272768,0.0005674,-0.0001859,-1.3595216,-0.0004524,0
 .0000555,0.0000213,3.6718923,-1.7192498,-0.0002514,25.3136578,1.067665
 2,-0.0882295,-0.0008277,-0.0000117,0.4864548,4.7958173,-0.2678326,0.62
 68876,-0.0001741,0.0000036,-0.1072704,-0.0007572,0.0000019,-0.0000122,
 3.4461782,0.6853805,-0.0003051,-12.0673225,-3.3765018,1.9514445,0.0005
 115,0.0002483,0.8764817,6.1239907,0.4006328,1.1402019,-0.0001818,-0.00
 00011,1.4878554,0.0004099,0.0002546,-0.000051,-0.220421,3.0746001,-0.0
 000551,-8.4935505,-0.0306923,2.8364237,0.0004243,-0.0001195,1.2458626,
 -9.3643748,-0.4022633,-0.8449488,0.0003328,0.0000041,-1.0124461,0.0004
 967,-0.0001094,-0.0001256,1.1362918,-2.8918748,-0.000116,5.6967708,2.5
 704502,-1.5282678,-0.0003903,0.0000343,-1.3085871,6.8410561,2.6372946,
 -0.3856746,-0.0002388,-0.0000821,1.3366406,-0.000457,0.000006,0.000085
 9,-2.4413667,3.2006138,0.0002162,8.7326664,-0.1656916,-1.6782014,-0.00
 04298,-0.0001411,-0.6968032,-4.9356751,0.0928457,0.627775,0.0001197,-0
 .0000255,-1.7062591,-0.0004619,-0.000149,0.0000251,-1.5915694,-3.68894
 96,0.0001862,-5.384118,0.0258146,-2.1447069,-0.0000752,-0.0000366,-1.9
 056885,0.2035332,-2.0799222,-0.7684136,-0.0000271,0.0000756,-0.2878509
 ,-0.000187,-0.0000487,0.0000895,-5.0889732,-0.8723097,0.0004955,-24.58
 02435,2.491151,1.8639757,0.000928,-0.0000741,0.2934201,10.9149207,-4.4
 809926,-7.2435512,-0.0003156,0.0002506,1.0699098,0.0007979,-0.0000128,
 0.000023,0.5819628,0.7198702,-0.0001073,1.2671837,1.4058447,2.2357824,
 -0.0000416,-0.0000403,0.1777537,1.0047416,1.608231,8.7814872,-0.000026
 5,-0.0000979,0.5093638,-0.0000452,-0.000039,-0.0001228,0.1873175,0.615
 7797,-0.0000279,2.9616801,-2.1234226,3.2410832,-0.0000792,0.0000566,0.
 4277167,-1.8358093,2.7663648,-5.4710318,0.0000468,-0.0000944,-0.448380
 1,-0.0000839,0.0000567,-0.0001121,0.3886471,-0.5150119,-0.0000441,-5.1
 895204,3.8106076,-3.4006558,0.0001636,-0.0001255,-0.3515423,3.6327044,
 -4.2050966,5.9854227,-0.0001156,0.0001493,0.3945358,0.0001709,-0.00012
 24,0.0001184,-0.4085288,0.4058774,0.0000424,-1.9754159,-2.3597412,-2.7
 159034,0.0000731,0.0000819,-0.1897902,-2.0718686,-3.5204669,-9.9132703
 ,0.0000751,0.0001735,-0.5081563,0.0000683,0.0000863,0.0001436,-0.17367
 79,-0.543148,0.0000274,-12.3158249,-1.7882131,-0.9962466,0.0004678,0.0
 000703,-0.5311273,-1.6843532,-1.7255191,-0.6816169,0.0000693,0.0000716
 ,-0.0987005,0.0004712,0.0000741,0.000042,-0.4304515,-0.0991605,0.00005
 91,1.0628418,2.1847645,1.7496725,-0.0000197,-0.0000372,0.2042528,3.172
 4695,4.4820562,9.1740097,-0.0001317,-0.0002416,0.7302795,0.0000296,-0.
 000054,-0.000125,0.9426989,1.6275827,-0.0001198\HyperPolar=210.3739466
 ,70.1668361,-11.102441,66.0603383,-0.010047,-0.0027922,-0.00031,-17.67
 23389,2.9908158,0.0018112\Quadrupole=-3.2863169,4.6945497,-1.4082327,2
 .6807181,0.0000194,-0.0001244\PG=C01 [X(C7H6O1)]\NImag=0\\0.46852152,-
 0.36934424,0.44295788,-0.00001172,0.00000849,0.02383353,-0.06520779,0.
 03353737,0.00000273,0.62787788,0.03727725,0.01815693,-0.00000130,-0.01
 570289,0.69228973,0.00000265,-0.00000122,0.01870924,-0.00001895,-0.000
 00200,0.14306928,-0.00067850,-0.00517069,0.00000017,-0.19717754,0.0672
 5949,0.00000508,0.67607431,-0.01053665,0.00346666,0.00000034,0.1171357
 5,-0.24401738,-0.00000390,0.02919762,0.71479869,0.00000020,0.00000020,
 0.00332461,0.00000489,-0.00000191,-0.06558719,-0.00002190,-0.00000365,
 0.13777680,0.00394297,-0.00350922,-0.00000012,-0.13806283,-0.02626143,
 0.00000278,0.05682217,0.00099154,-0.00000190,0.71483141,0.00754565,-0.
 00835797,-0.00000021,-0.07355885,-0.29050217,0.00000389,0.04104120,-0.
 05296200,-0.00000142,-0.04232099,0.68664272,-0.00000023,0.00000015,-0.
 00027906,0.00000300,0.00000195,-0.06964381,-0.00000206,0.00000025,0.00
 996205,-0.00002271,-0.00000056,0.14215716,-0.00375184,-0.00003176,0.00
 000004,-0.04573110,0.05695928,0.00000194,-0.32694989,-0.06472492,0.000
 01109,-0.03891690,-0.03362955,0.00000143,0.69259951,-0.00006151,0.0016
 8826,0.,0.01370128,0.04517243,-0.00000073,-0.00026881,-0.13395195,0.00
 000034,-0.03168955,-0.02722307,0.00000135,-0.04383939,0.70482268,0.000
 00009,-0.00000002,-0.00220861,0.00000215,-0.00000241,0.00907652,0.0000
 1081,0.00000293,-0.06154243,0.00000142,0.00000144,-0.00695452,-0.00002
 276,-0.00000054,0.12960365,-0.00106992,0.00340953,-0.00000002,-0.01349
 593,-0.07905461,0.00000127,-0.05955386,0.02044069,0.00000201,-0.336891
 78,-0.00529499,0.00001097,0.06209158,0.04417716,-0.00000240,0.67163836
 ,0.00150429,0.00141465,-0.00000007,-0.03515962,0.01262852,0.00000135,0
 .02026903,-0.00759286,-0.00000083,-0.06966898,-0.13778100,0.00000314,-
 0.00071719,-0.05382588,0.00000028,0.03400294,0.72587503,0.00000002,-0.
 00000015,-0.00090510,0.00000105,0.00000321,0.00911766,0.00000199,-0.00
 000083,-0.00795523,0.00001128,0.00000051,-0.06248980,-0.00000219,-0.00
 000152,0.00734657,-0.00002184,-0.00000362,0.13237864,-0.00054692,-0.00
 084445,0.00000003,-0.00214926,0.01018647,-0.00000026,-0.00759362,-0.03
 814233,0.00000072,-0.04506311,0.01718417,0.00000201,-0.15303746,-0.095
 37740,0.00000415,-0.20887662,0.12663047,0.00000550,0.73286286,0.001098
 63,0.00121882,-0.00000005,0.01026823,-0.06133239,-0.00000014,-0.085812
 22,0.01153211,0.00000344,0.06271038,0.05094933,-0.00000274,-0.02900832
 ,-0.30896720,0.00000218,0.06016119,-0.24387111,-0.00000175,0.01849016,
 0.65765986,0.00000002,0.00000003,0.00004797,-0.00000027,-0.00000021,-0
 .00759560,0.00000092,0.00000154,0.00646419,0.00000180,-0.00000086,0.00
 610494,0.00000388,0.00000487,-0.06079719,0.00000578,-0.00000443,-0.061
 21510,-0.00002441,-0.00000284,0.13526986,-0.41065518,0.30567097,0.0000
 0888,-0.17432498,-0.03012499,0.00000410,-0.03409179,0.01213755,0.00000
 122,-0.02088936,-0.02496205,0.00000108,0.00372872,0.00422112,0.0000001
 8,0.00815100,-0.00188438,-0.00000005,-0.00010517,0.00153820,-0.0000000
 3,0.70967294,0.31114111,-0.42136082,-0.00000708,-0.05881557,-0.1258610
 0,0.00000263,0.02947409,0.00821452,-0.00000120,-0.03247484,0.00329559,
 0.00000128,0.00628118,-0.00385554,-0.00000021,-0.00562746,-0.00682553,
 0.00000027,0.00200001,-0.00465960,-0.00000007,-0.19273693,0.78529327,0
 .00000885,-0.00000689,-0.06297345,0.00000423,0.00000142,-0.07629300,0.
 00000120,-0.00000047,-0.00003822,0.00000107,0.00000092,0.00293408,0.00
 000020,-0.00000012,0.00885893,0.00000002,0.00000016,0.00739143,-0.0000
 0006,-0.00000005,-0.00106263,-0.00001658,0.00000067,0.18946170,0.00066
 461,-0.00140947,0.00000003,0.01192928,0.01725262,-0.00000042,-0.092160
 98,-0.08580841,0.00000260,-0.00257995,0.00313921,0.00000033,-0.0054872
 6,-0.03080971,0.00000046,-0.00096197,0.00048896,0.00000002,-0.00575045
 ,0.00000716,0.00000054,0.00028371,0.00328550,-0.00000023,0.09303738,0.
 00087000,0.00050273,-0.00000003,-0.00876218,-0.01988194,0.00000045,-0.
 08708448,-0.29923210,0.00000461,0.00421722,-0.00192116,-0.00000013,0.0
 0004096,-0.00113973,0.,0.00059849,0.00040360,-0.00000003,-0.00076568,0
 .00185497,0.00000006,-0.00403017,-0.00027030,0.00000015,0.09472783,0.3
 1917250,0.,0.00000007,0.00085310,-0.00000035,-0.00000061,0.00294765,0.
 00000262,0.00000453,-0.03628621,0.00000032,-0.00000009,0.00585721,0.00
 000034,0.00000127,0.00296126,0.00000002,-0.00000003,-0.00044412,0.0000
 0054,0.00000002,0.00742727,-0.00000016,-0.00000015,-0.00449883,-0.0000
 0311,-0.00000504,0.02538004,-0.00062449,-0.00008685,0.00000003,0.01227
 170,-0.00673040,-0.00000030,-0.00030005,-0.00259289,0.00000025,-0.1795
 8129,0.13822566,0.00000504,-0.00044589,-0.00090331,0.,-0.01425432,0.02
 391866,0.00000063,-0.00469866,-0.00228294,0.00000052,0.00003049,-0.000
 29751,-0.00000016,0.00031214,-0.00077519,0.00000002,0.18667877,-0.0006
 5713,0.00272044,0.,0.02025848,-0.01943718,-0.00000071,-0.00350030,-0.0
 0418172,0.00000019,0.13780041,-0.21856287,-0.00000476,-0.00070476,0.00
 002033,0.00000002,-0.00594111,0.00933088,0.00000022,-0.00198103,0.0008
 0111,0.00000011,0.00350340,-0.00129269,-0.00000013,0.00105333,-0.00093
 767,-0.00000004,-0.14989948,0.23027929,0.00000002,0.,-0.00010553,-0.00
 000037,0.00000039,0.00415219,0.00000026,0.00000014,0.00573479,0.000005
 01,-0.00000480,-0.03972299,0.,0.00000003,-0.00055380,0.00000077,-0.000
 00098,0.00405268,0.00000052,0.00000012,0.00801949,-0.00000017,0.000000
 02,-0.00382114,0.,0.00000004,0.00069426,-0.00000579,0.00000513,0.02690
 381,-0.00111183,0.00010348,0.00000002,-0.00500816,-0.00295134,0.000000
 53,-0.01575676,0.02569573,0.00000061,-0.00041232,-0.00097512,0.,-0.175
 35833,0.13656705,0.00000516,0.00026712,-0.00257461,0.00000030,0.010902
 30,-0.00977450,-0.00000031,0.00055310,0.00163003,0.,0.00117390,-0.0002
 7999,-0.00000020,0.00001623,0.00010011,-0.00000005,0.18368753,-0.00004
 671,-0.00006831,0.,-0.00163978,0.00120023,0.00000009,-0.00531562,0.008
 31610,0.00000019,-0.00101102,-0.00019319,0.00000004,0.13652911,-0.2210
 4555,-0.00000482,-0.00341660,-0.00412213,0.00000018,0.02138289,-0.0180
 7898,-0.00000079,-0.00041436,0.00031373,0.00000002,0.00046520,0.000770
 36,-0.00000004,0.00008210,0.00003784,0.,-0.14736244,0.23269406,0.00000
 004,0.,-0.00031608,0.00000052,0.00000014,0.00769621,0.00000073,-0.0000
 0108,0.00181286,0.,0.00000004,-0.00067068,0.00000517,-0.00000482,-0.03
 547318,0.00000030,0.00000015,0.00741207,-0.00000044,0.00000047,0.00223
 789,0.,-0.00000007,0.00049356,-0.00000020,0.,-0.00372035,-0.00000005,0
 .,-0.00124292,-0.00000587,0.00000518,0.02527746,-0.00022906,0.00048909
 ,0.,-0.00577419,-0.00002049,0.00000055,-0.00111759,0.00066163,0.000000
 03,-0.00641513,-0.03109555,0.00000049,-0.00221003,0.00332839,0.0000003
 6,-0.09192966,-0.08873367,0.00000256,0.01104943,0.02071411,-0.00000043
 ,0.00070760,-0.00186251,0.,0.00007769,-0.00008826,-0.00000005,0.001199
 77,0.00047882,-0.00000022,0.00034462,0.00103307,-0.00000001,0.09392979
 ,-0.00027831,0.00016772,0.,-0.00089096,0.00181097,0.00000006,0.0006911
 2,0.00051200,-0.00000003,-0.00030908,-0.00119856,0.00000003,0.00409986
 ,-0.00166921,-0.00000013,-0.08861672,-0.30402050,0.00000457,-0.0104628
 2,-0.01831392,0.00000050,0.00059594,-0.00026787,-0.00000002,-0.0000705
 7,-0.00004140,0.,-0.00024719,0.00073194,0.,-0.00055332,-0.00091632,0.0
 0000003,0.09591163,0.32228156,0.00000001,-0.00000002,0.00014348,0.0000
 0056,0.00000003,0.00815756,0.00000003,-0.00000003,-0.00043545,0.000000
 37,0.00000127,0.00272465,0.00000036,-0.00000010,0.00699286,0.00000256,
 0.00000457,-0.03673928,-0.00000032,-0.00000075,0.00228954,-0.00000002,
 0.00000008,0.00021516,-0.00000005,0.,-0.00124150,-0.00000021,-0.000000
 04,-0.00414627,0.,-0.00000004,0.00021038,-0.00000310,-0.00000498,0.025
 71273,-0.00014114,-0.00005900,0.00000002,0.00075756,0.00041104,-0.0000
 0007,0.00128099,-0.00204898,0.00000027,-0.00075749,0.00385314,0.000000
 32,-0.00643443,0.00037011,0.00000039,-0.01548992,-0.00613935,0.0000007
 8,-0.32710736,-0.04831120,0.00001199,-0.00003006,0.00001555,-0.0000000
 5,-0.00038411,0.00013999,0.00000001,-0.00069069,-0.00042254,0.00000002
 ,0.00079241,-0.00028264,-0.00000018,0.00089794,0.00022430,-0.00000018,
 0.34732507,-0.00005981,0.00026055,0.,0.00034882,-0.00131821,-0.0000000
 1,-0.00154989,-0.00533043,0.00000012,0.00328818,-0.00346298,-0.0000000
 9,-0.03057686,-0.00039916,0.00000126,0.02480520,0.00885996,-0.00000103
 ,-0.04823724,-0.06911641,0.00000209,0.00005369,-0.00016750,0.,-0.00146
 211,-0.00017405,0.00000006,0.00111280,0.00029113,-0.00000005,0.0005118
 9,0.00108151,-0.00000004,-0.00058718,0.00095515,0.,0.05226748,0.068434
 01,0.00000002,0.,0.00031135,-0.00000007,-0.00000003,-0.00096148,0.0000
 0027,0.00000014,0.00778922,0.00000032,-0.00000011,0.00752795,0.0000005
 2,0.,0.00327546,0.00000065,0.00000023,0.00304181,0.00001201,0.00000209
 ,-0.03756817,-0.00000005,0.,-0.00137047,0.00000002,0.,-0.00002488,0.00
 000002,0.00000002,-0.00021835,-0.00000019,0.,-0.00376963,-0.00000018,-
 0.00000002,-0.00349465,-0.00001333,-0.00000230,0.02545797,0.01088756,0
 .03724525,-0.00000010,-0.00590464,-0.02850001,0.00000109,0.00120311,-0
 .00240634,-0.00000008,-0.00602640,0.00084807,0.00000034,-0.00009669,0.
 00058457,-0.00000002,0.00037591,-0.00193655,-0.00000005,0.00011405,0.0
 0020111,0.,-0.08303101,-0.06201265,0.00000153,-0.00015398,0.00119146,0
 .,0.00008629,-0.00008821,0.,-0.00008980,-0.00000318,0.,-0.00053119,-0.
 00009389,0.,-0.00001876,0.00008502,0.,0.08318556,0.02154744,-0.0427675
 6,-0.00000011,-0.00072010,-0.00890855,0.00000025,0.00076947,0.00042837
 ,-0.00000004,-0.00176263,0.00127735,0.00000009,-0.00067763,0.00037358,
 0.00000002,0.00035629,-0.00047363,-0.00000002,-0.00006325,0.00032340,0
 .,-0.07356798,-0.23255626,0.00000434,-0.00085955,0.00089418,0.00000004
 ,0.00047654,0.00019917,-0.00000001,-0.00013696,0.00001064,0.,-0.000229
 08,-0.00003156,0.,-0.00001791,0.00008643,0.,0.05488535,0.28114446,0.00
 000005,-0.00000063,0.01956453,0.00000088,0.00000132,0.01715475,-0.0000
 0011,0.00000008,-0.00101978,0.00000037,-0.00000003,0.00249281,-0.00000
 001,-0.00000002,-0.00058550,-0.00000008,0.00000008,-0.00099223,0.00000
 002,-0.00000002,0.00037755,0.00000161,0.00000383,-0.05929713,0.,-0.000
 00006,0.00009508,0.,0.,0.00025378,0.,0.,0.00005241,0.,0.,-0.00038922,0
 .,0.,0.00000388,-0.00000274,-0.00000456,0.02228905\\0.00000038,0.00000
 061,0.00000019,0.00000003,-0.00000018,0.00000004,-0.00000053,0.0000001
 1,0.00000005,0.00000049,0.00000042,0.00000002,0.00000018,0.00000003,-0
 .00000001,0.00000013,-0.00000031,-0.00000002,0.00000015,-0.00000061,0.
 ,-0.00000054,0.00000089,-0.00000037,-0.00000021,-0.00000020,0.,0.00000
 034,0.00000020,0.,-0.00000032,-0.00000033,0.,0.00000012,-0.00000024,0.
 ,-0.00000004,-0.00000035,0.00000002,-0.00000019,-0.00000003,0.00000010
 \\\@


 "MATHEMATICS IS THE ART OF GIVING THE SAME NAME
 TO DIFFERENT THINGS."
                    - H. POINCARE
 Job cpu time:       0 days  1 hours 25 minutes 16.7 seconds.
 Elapsed time:       0 days  0 hours  5 minutes 20.7 seconds.
 File lengths (MBytes):  RWF=    123 Int=      0 D2E=      0 Chk=      8 Scr=      1
 Normal termination of Gaussian 16 at Wed Feb  7 14:40:07 2024.


PS:

Read file <Benzaldehyde.err> for stderr output of this job.

