Sender: LSF System <lsfadmin@mn429>
Subject: Job 504863: <#!/bin/bash;#BSUB -q q_hpc;#BSUB -oo indole.out;#BSUB -eo indole.err;#BSUB -n 32; #BSUB -R "span[hosts=1]";#BSUB -m "g3_a g3_b"; module load gaussian/2016.03;input=indole.com; sed -i "s/\( % nprocshared =\).*/\1 $LSB_DJOB_NUMPROC /g" $input;echo " Ejecucion de Gaussian ";g16 < $input> in cluster <cluster1> Done

Job <#!/bin/bash;#BSUB -q q_hpc;#BSUB -oo indole.out;#BSUB -eo indole.err;#BSUB -n 32; #BSUB -R "span[hosts=1]";#BSUB -m "g3_a g3_b"; module load gaussian/2016.03;input=indole.com; sed -i "s/\( % nprocshared =\).*/\1 $LSB_DJOB_NUMPROC /g" $input;echo " Ejecucion de Gaussian ";g16 < $input> was submitted from host <mn325> by user <andfag_a> in cluster <cluster1>.
Job was executed on host(s) <32*mn429>, in queue <q_hpc>, as user <andfag_a> in cluster <cluster1>.
</home/ilgs_g/andfag_a> was used as the home directory.
</home/ilgs_g/andfag_a/work/Jobs/Georgina/Structures> was used as the working directory.
Started at Sat May  4 11:03:09 2024
Results reported on Sat May  4 11:10:42 2024

Your job looked like:

------------------------------------------------------------
# LSBATCH: User input
#!/bin/bash
#BSUB -q q_hpc
#BSUB -oo indole.out
#BSUB -eo indole.err
#BSUB -n 32

#BSUB -R "span[hosts=1]"
#BSUB -m "g3_a g3_b"

module load gaussian/2016.03
input=indole.com

sed -i "s/\( % nprocshared =\).*/\1 $LSB_DJOB_NUMPROC /g" $input
echo " Ejecucion de Gaussian "
g16 < $input


------------------------------------------------------------

Successfully completed.

Resource usage summary:

    CPU time :                                   14370.12 sec.
    Max Memory :                                 15551.73 MB
    Average Memory :                             4929.83 MB
    Total Requested Memory :                     -
    Delta Memory :                               -
    Max Swap :                                   107089 MB
    Max Processes :                              5
    Max Threads :                                37

The output (if any) follows:

 Ejecucion de Gaussian 
 Entering Gaussian System, Link 0=g16
 Initial command:
 /tmpu/scunam/7/gaussian-2016.03/g1/g16/l1.exe "/tmpu/ilgs_g/andfag_a/g16scrdir/Gau-16787.inp" -scrdir="/tmpu/ilgs_g/andfag_a/g16scrdir/"
 Entering Link 1 = /tmpu/scunam/7/gaussian-2016.03/g1/g16/l1.exe PID=     16788.
  
 Copyright (c) 1988,1990,1992,1993,1995,1998,2003,2009,2016,
            Gaussian, Inc.  All Rights Reserved.
  
 This is part of the Gaussian(R) 16 program.  It is based on
 the Gaussian(R) 09 system (copyright 2009, Gaussian, Inc.),
 the Gaussian(R) 03 system (copyright 2003, Gaussian, Inc.),
 the Gaussian(R) 98 system (copyright 1998, Gaussian, Inc.),
 the Gaussian(R) 94 system (copyright 1995, Gaussian, Inc.),
 the Gaussian 92(TM) system (copyright 1992, Gaussian, Inc.),
 the Gaussian 90(TM) system (copyright 1990, Gaussian, Inc.),
 the Gaussian 88(TM) system (copyright 1988, Gaussian, Inc.),
 the Gaussian 86(TM) system (copyright 1986, Carnegie Mellon
 University), and the Gaussian 82(TM) system (copyright 1983,
 Carnegie Mellon University). Gaussian is a federally registered
 trademark of Gaussian, Inc.
  
 This software contains proprietary and confidential information,
 including trade secrets, belonging to Gaussian, Inc.
  
 This software is provided under written license and may be
 used, copied, transmitted, or stored only in accord with that
 written license.
  
 The following legend is applicable only to US Government
 contracts under FAR:
  
                    RESTRICTED RIGHTS LEGEND
  
 Use, reproduction and disclosure by the US Government is
 subject to restrictions as set forth in subparagraphs (a)
 and (c) of the Commercial Computer Software - Restricted
 Rights clause in FAR 52.227-19.
  
 Gaussian, Inc.
 340 Quinnipiac St., Bldg. 40, Wallingford CT 06492
  
  
 ---------------------------------------------------------------
 Warning -- This program may not be used in any manner that
 competes with the business of Gaussian, Inc. or will provide
 assistance to any competitor of Gaussian, Inc.  The licensee
 of this program is prohibited from giving any competitor of
 Gaussian, Inc. access to this program.  By using this program,
 the user acknowledges that Gaussian, Inc. is engaged in the
 business of creating and licensing software in the field of
 computational chemistry and represents and warrants to the
 licensee that it is not a competitor of Gaussian, Inc. and that
 it will not use this program in any manner prohibited above.
 ---------------------------------------------------------------
  

 Cite this work as:
 Gaussian 16, Revision A.03,
 M. J. Frisch, G. W. Trucks, H. B. Schlegel, G. E. Scuseria, 
 M. A. Robb, J. R. Cheeseman, G. Scalmani, V. Barone, 
 G. A. Petersson, H. Nakatsuji, X. Li, M. Caricato, A. V. Marenich, 
 J. Bloino, B. G. Janesko, R. Gomperts, B. Mennucci, H. P. Hratchian, 
 J. V. Ortiz, A. F. Izmaylov, J. L. Sonnenberg, D. Williams-Young, 
 F. Ding, F. Lipparini, F. Egidi, J. Goings, B. Peng, A. Petrone, 
 T. Henderson, D. Ranasinghe, V. G. Zakrzewski, J. Gao, N. Rega, 
 G. Zheng, W. Liang, M. Hada, M. Ehara, K. Toyota, R. Fukuda, 
 J. Hasegawa, M. Ishida, T. Nakajima, Y. Honda, O. Kitao, H. Nakai, 
 T. Vreven, K. Throssell, J. A. Montgomery, Jr., J. E. Peralta, 
 F. Ogliaro, M. J. Bearpark, J. J. Heyd, E. N. Brothers, K. N. Kudin, 
 V. N. Staroverov, T. A. Keith, R. Kobayashi, J. Normand, 
 K. Raghavachari, A. P. Rendell, J. C. Burant, S. S. Iyengar, 
 J. Tomasi, M. Cossi, J. M. Millam, M. Klene, C. Adamo, R. Cammi, 
 J. W. Ochterski, R. L. Martin, K. Morokuma, O. Farkas, 
 J. B. Foresman, and D. J. Fox, Gaussian, Inc., Wallingford CT, 2016.
 
 ******************************************
 Gaussian 16:  ES64L-G16RevA.03 25-Dec-2016
                 4-May-2024 
 ******************************************
 %nprocshared=32
 Will use up to   32 processors via shared memory.
 %mem=100GB
 %chk=indole.chk
 ----------------------------------------------------------------------
 #p opt=(maxcycle=2000) freq=raman b3lyp/def2tzvp scf=(maxcycle=2000,di
 rect,NoInCore, xqc)
 ----------------------------------------------------------------------
 1/6=2000,18=20,19=15,26=3,38=1/1,3;
 2/9=110,12=2,17=6,18=5,40=1/2;
 3/5=44,7=101,11=2,25=1,30=1,71=1,74=-5/1,2,3;
 4//1;
 5/5=2,7=2000,8=3,13=1,38=5/2,8;
 6/7=2,8=2,9=2,10=2,28=1/1;
 7//1,2,3,16;
 1/6=2000,18=20,19=15,26=3/3(2);
 2/9=110/2;
 99//99;
 2/9=110/2;
 3/5=44,7=101,11=2,25=1,30=1,71=1,74=-5/1,2,3;
 4/5=5,16=3,69=1/1;
 5/5=2,7=2000,8=3,13=1,38=5/2,8;
 7//1,2,3,16;
 1/6=2000,18=20,19=15,26=3/3(-5);
 2/9=110/2;
 6/7=2,8=2,9=2,10=2,19=2,28=1/1;
 99/9=1/99;
 Leave Link    1 at Sat May  4 11:03:10 2024, MaxMem= 13421772800 cpu:               1.5 elap:               0.1
 (Enter /tmpu/scunam/7/gaussian-2016.03/g1/g16/l101.exe)
 ------
 indole
 ------
 Symbolic Z-matrix:
 Charge =  0 Multiplicity = 1
 N                     1.561     1.1123   -0.0001 
 C                     0.2536    0.6808    0. 
 C                     0.2815   -0.7155    0. 
 C                     1.65     -1.1056    0.0002 
 C                    -0.9394    1.4123   -0.0001 
 C                    -0.9396   -1.4182   -0.0003 
 C                     2.4121    0.0399    0. 
 C                    -2.1383    0.6938    0.0001 
 C                    -2.1409   -0.6998    0.0001 
 H                     1.8497    2.0807   -0.0002 
 H                     2.0368   -2.1155    0.0002 
 H                    -0.9385    2.4972   -0.0002 
 H                    -0.9561   -2.5043   -0.0003 
 H                     3.4829    0.1869    0. 
 H                    -3.0829    1.2317    0.0003 
 H                    -3.0859   -1.2365    0.0002 
 
 ITRead=  0  0  0  0  0  0  0  0  0  0  0  0  0  0  0  0
 MicOpt= -1 -1 -1 -1 -1 -1 -1 -1 -1 -1 -1 -1 -1 -1 -1 -1
 NAtoms=     16 NQM=       16 NQMF=       0 NMMI=      0 NMMIF=      0
                NMic=       0 NMicF=      0.
                    Isotopes and Nuclear Properties:
 (Nuclear quadrupole moments (NQMom) in fm**2, nuclear magnetic moments (NMagM)
  in nuclear magnetons)

  Atom         1           2           3           4           5           6           7           8           9          10
 IAtWgt=          14          12          12          12          12          12          12          12          12           1
 AtmWgt=  14.0030740  12.0000000  12.0000000  12.0000000  12.0000000  12.0000000  12.0000000  12.0000000  12.0000000   1.0078250
 NucSpn=           2           0           0           0           0           0           0           0           0           1
 AtZEff=  -0.0000000  -0.0000000  -0.0000000  -0.0000000  -0.0000000  -0.0000000  -0.0000000  -0.0000000  -0.0000000  -0.0000000
 NQMom=    2.0440000   0.0000000   0.0000000   0.0000000   0.0000000   0.0000000   0.0000000   0.0000000   0.0000000   0.0000000
 NMagM=    0.4037610   0.0000000   0.0000000   0.0000000   0.0000000   0.0000000   0.0000000   0.0000000   0.0000000   2.7928460
 AtZNuc=   7.0000000   6.0000000   6.0000000   6.0000000   6.0000000   6.0000000   6.0000000   6.0000000   6.0000000   1.0000000

  Atom        11          12          13          14          15          16
 IAtWgt=           1           1           1           1           1           1
 AtmWgt=   1.0078250   1.0078250   1.0078250   1.0078250   1.0078250   1.0078250
 NucSpn=           1           1           1           1           1           1
 AtZEff=  -0.0000000  -0.0000000  -0.0000000  -0.0000000  -0.0000000  -0.0000000
 NQMom=    0.0000000   0.0000000   0.0000000   0.0000000   0.0000000   0.0000000
 NMagM=    2.7928460   2.7928460   2.7928460   2.7928460   2.7928460   2.7928460
 AtZNuc=   1.0000000   1.0000000   1.0000000   1.0000000   1.0000000   1.0000000
 Leave Link  101 at Sat May  4 11:03:10 2024, MaxMem= 13421772800 cpu:              10.6 elap:               0.4
 (Enter /tmpu/scunam/7/gaussian-2016.03/g1/g16/l103.exe)

 GradGradGradGradGradGradGradGradGradGradGradGradGradGradGradGradGradGrad
 Berny optimization.
 Initialization pass.
                           ----------------------------
                           !    Initial Parameters    !
                           ! (Angstroms and Degrees)  !
 --------------------------                            --------------------------
 ! Name  Definition              Value          Derivative Info.                !
 --------------------------------------------------------------------------------
 ! R1    R(1,2)                  1.3768         estimate D2E/DX2                !
 ! R2    R(1,7)                  1.3691         estimate D2E/DX2                !
 ! R3    R(1,10)                 1.0105         estimate D2E/DX2                !
 ! R4    R(2,3)                  1.3966         estimate D2E/DX2                !
 ! R5    R(2,5)                  1.3994         estimate D2E/DX2                !
 ! R6    R(3,4)                  1.423          estimate D2E/DX2                !
 ! R7    R(3,6)                  1.4089         estimate D2E/DX2                !
 ! R8    R(4,7)                  1.3759         estimate D2E/DX2                !
 ! R9    R(4,11)                 1.0814         estimate D2E/DX2                !
 ! R10   R(5,8)                  1.3977         estimate D2E/DX2                !
 ! R11   R(5,12)                 1.0849         estimate D2E/DX2                !
 ! R12   R(6,9)                  1.3997         estimate D2E/DX2                !
 ! R13   R(6,13)                 1.0862         estimate D2E/DX2                !
 ! R14   R(7,14)                 1.0808         estimate D2E/DX2                !
 ! R15   R(8,9)                  1.3936         estimate D2E/DX2                !
 ! R16   R(8,15)                 1.087          estimate D2E/DX2                !
 ! R17   R(9,16)                 1.0868         estimate D2E/DX2                !
 ! A1    A(2,1,7)              110.1718         estimate D2E/DX2                !
 ! A2    A(2,1,10)             124.8656         estimate D2E/DX2                !
 ! A3    A(7,1,10)             124.9627         estimate D2E/DX2                !
 ! A4    A(1,2,3)              107.1205         estimate D2E/DX2                !
 ! A5    A(1,2,5)              130.2199         estimate D2E/DX2                !
 ! A6    A(3,2,5)              122.6597         estimate D2E/DX2                !
 ! A7    A(2,3,4)              107.0552         estimate D2E/DX2                !
 ! A8    A(2,3,6)              118.7742         estimate D2E/DX2                !
 ! A9    A(4,3,6)              134.1705         estimate D2E/DX2                !
 ! A10   A(3,4,7)              107.7252         estimate D2E/DX2                !
 ! A11   A(3,4,11)             126.8678         estimate D2E/DX2                !
 ! A12   A(7,4,11)             125.407          estimate D2E/DX2                !
 ! A13   A(2,5,8)              117.5508         estimate D2E/DX2                !
 ! A14   A(2,5,12)             121.4674         estimate D2E/DX2                !
 ! A15   A(8,5,12)             120.9818         estimate D2E/DX2                !
 ! A16   A(3,6,9)              119.2009         estimate D2E/DX2                !
 ! A17   A(3,6,13)             120.7893         estimate D2E/DX2                !
 ! A18   A(9,6,13)             120.0098         estimate D2E/DX2                !
 ! A19   A(1,7,4)              107.9273         estimate D2E/DX2                !
 ! A20   A(1,7,14)             120.6202         estimate D2E/DX2                !
 ! A21   A(4,7,14)             131.4525         estimate D2E/DX2                !
 ! A22   A(5,8,9)              121.0411         estimate D2E/DX2                !
 ! A23   A(5,8,15)             119.4065         estimate D2E/DX2                !
 ! A24   A(9,8,15)             119.5523         estimate D2E/DX2                !
 ! A25   A(6,9,8)              120.7733         estimate D2E/DX2                !
 ! A26   A(6,9,16)             119.526          estimate D2E/DX2                !
 ! A27   A(8,9,16)             119.7007         estimate D2E/DX2                !
 ! D1    D(7,1,2,3)             -0.0073         estimate D2E/DX2                !
 ! D2    D(7,1,2,5)           -179.9971         estimate D2E/DX2                !
 ! D3    D(10,1,2,3)           179.9947         estimate D2E/DX2                !
 ! D4    D(10,1,2,5)             0.0049         estimate D2E/DX2                !
 ! D5    D(2,1,7,4)             -0.0014         estimate D2E/DX2                !
 ! D6    D(2,1,7,14)          -179.9965         estimate D2E/DX2                !
 ! D7    D(10,1,7,4)           179.9966         estimate D2E/DX2                !
 ! D8    D(10,1,7,14)            0.0015         estimate D2E/DX2                !
 ! D9    D(1,2,3,4)              0.0128         estimate D2E/DX2                !
 ! D10   D(1,2,3,6)           -179.9817         estimate D2E/DX2                !
 ! D11   D(5,2,3,4)           -179.9964         estimate D2E/DX2                !
 ! D12   D(5,2,3,6)              0.0091         estimate D2E/DX2                !
 ! D13   D(1,2,5,8)           -179.9975         estimate D2E/DX2                !
 ! D14   D(1,2,5,12)            -0.0052         estimate D2E/DX2                !
 ! D15   D(3,2,5,8)              0.014          estimate D2E/DX2                !
 ! D16   D(3,2,5,12)          -179.9937         estimate D2E/DX2                !
 ! D17   D(2,3,4,7)             -0.0138         estimate D2E/DX2                !
 ! D18   D(2,3,4,11)          -179.9964         estimate D2E/DX2                !
 ! D19   D(6,3,4,7)            179.9795         estimate D2E/DX2                !
 ! D20   D(6,3,4,11)            -0.0031         estimate D2E/DX2                !
 ! D21   D(2,3,6,9)             -0.0323         estimate D2E/DX2                !
 ! D22   D(2,3,6,13)          -179.9994         estimate D2E/DX2                !
 ! D23   D(4,3,6,9)            179.975          estimate D2E/DX2                !
 ! D24   D(4,3,6,13)             0.0079         estimate D2E/DX2                !
 ! D25   D(3,4,7,1)              0.0094         estimate D2E/DX2                !
 ! D26   D(3,4,7,14)          -179.9962         estimate D2E/DX2                !
 ! D27   D(11,4,7,1)           179.9924         estimate D2E/DX2                !
 ! D28   D(11,4,7,14)           -0.0133         estimate D2E/DX2                !
 ! D29   D(2,5,8,9)             -0.0138         estimate D2E/DX2                !
 ! D30   D(2,5,8,15)           179.9836         estimate D2E/DX2                !
 ! D31   D(12,5,8,9)           179.9938         estimate D2E/DX2                !
 ! D32   D(12,5,8,15)           -0.0087         estimate D2E/DX2                !
 ! D33   D(3,6,9,8)              0.0329         estimate D2E/DX2                !
 ! D34   D(3,6,9,16)          -179.9801         estimate D2E/DX2                !
 ! D35   D(13,6,9,8)          -179.9997         estimate D2E/DX2                !
 ! D36   D(13,6,9,16)           -0.0127         estimate D2E/DX2                !
 ! D37   D(5,8,9,6)             -0.0095         estimate D2E/DX2                !
 ! D38   D(5,8,9,16)          -179.9965         estimate D2E/DX2                !
 ! D39   D(15,8,9,6)           179.9931         estimate D2E/DX2                !
 ! D40   D(15,8,9,16)            0.006          estimate D2E/DX2                !
 --------------------------------------------------------------------------------
 Trust Radius=3.00D-01 FncErr=1.00D-07 GrdErr=1.00D-06 EigMax=2.50D+02 EigMin=1.00D-04
 Number of steps in this run=    100 maximum allowed number of steps=    100.
 GradGradGradGradGradGradGradGradGradGradGradGradGradGradGradGradGradGrad

 Leave Link  103 at Sat May  4 11:03:10 2024, MaxMem= 13421772800 cpu:               0.4 elap:               0.0
 (Enter /tmpu/scunam/7/gaussian-2016.03/g1/g16/l202.exe)
                          Input orientation:                          
 ---------------------------------------------------------------------
 Center     Atomic      Atomic             Coordinates (Angstroms)
 Number     Number       Type             X           Y           Z
 ---------------------------------------------------------------------
      1          7           0        1.561000    1.112300   -0.000100
      2          6           0        0.253600    0.680800    0.000000
      3          6           0        0.281500   -0.715500    0.000000
      4          6           0        1.650000   -1.105600    0.000200
      5          6           0       -0.939400    1.412300   -0.000100
      6          6           0       -0.939600   -1.418200   -0.000300
      7          6           0        2.412100    0.039900    0.000000
      8          6           0       -2.138300    0.693800    0.000100
      9          6           0       -2.140900   -0.699800    0.000100
     10          1           0        1.849700    2.080700   -0.000200
     11          1           0        2.036800   -2.115500    0.000200
     12          1           0       -0.938500    2.497200   -0.000200
     13          1           0       -0.956100   -2.504300   -0.000300
     14          1           0        3.482900    0.186900    0.000000
     15          1           0       -3.082900    1.231700    0.000300
     16          1           0       -3.085900   -1.236500    0.000200
 ---------------------------------------------------------------------
                    Distance matrix (angstroms):
                    1          2          3          4          5
     1  N    0.000000
     2  C    1.376767   0.000000
     3  C    2.231137   1.396579   0.000000
     4  C    2.219685   2.267412   1.423015   0.000000
     5  C    2.518333   1.399407   2.453188   3.611760   0.000000
     6  C    3.557588   2.414441   1.408855   2.608399   2.830500
     7  C    1.369092   2.251638   2.260550   1.375851   3.621607
     8  C    3.722897   2.391935   2.800278   4.193931   1.397714
     9  C    4.121622   2.763998   2.422451   3.812558   2.429932
    10  H    1.010518   2.123030   3.205930   3.192552   2.868072
    11  H    3.262680   3.316488   2.245235   1.081440   4.615532
    12  H    2.857525   2.172651   3.436545   4.436271   1.084900
    13  H    4.406312   3.407086   2.175192   2.957722   3.916636
    14  H    2.133088   3.266851   3.326152   2.242784   4.588937
    15  H    4.645435   3.381675   3.887258   5.278571   2.151095
    16  H    5.206778   3.850753   3.407466   4.737709   3.409341
                    6          7          8          9         10
     6  C    0.000000
     7  C    3.655126   0.000000
     8  C    2.428462   4.597143   0.000000
     9  C    1.399722   4.612696   1.393602   0.000000
    10  H    4.474650   2.116875   4.222278   4.863750   0.000000
    11  H    3.056989   2.187830   5.032259   4.411052   4.200369
    12  H    3.915400   4.155099   2.166050   3.415637   2.819137
    13  H    1.086225   4.221105   3.409610   2.158697   5.375383
    14  H    4.704769   1.080843   5.644009   5.693274   2.500764
    15  H    3.408182   5.622758   1.087017   2.148966   5.005132
    16  H    2.153977   5.644218   2.150350   1.086771   5.946761
                   11         12         13         14         15
    11  H    0.000000
    12  H    5.489026   0.000000
    13  H    3.018048   5.001531   0.000000
    14  H    2.718869   4.988613   5.191077   0.000000
    15  H    6.116786   2.489968   4.298950   6.648409   0.000000
    16  H    5.197566   4.307185   2.478581   6.721250   2.468202
                   16
    16  H    0.000000
 Stoichiometry    C8H7N
 Framework group  C1[X(C8H7N)]
 Deg. of freedom    42
 Full point group                 C1      NOp   1
 Largest Abelian subgroup         C1      NOp   1
 Largest concise Abelian subgroup C1      NOp   1
                         Standard orientation:                         
 ---------------------------------------------------------------------
 Center     Atomic      Atomic             Coordinates (Angstroms)
 Number     Number       Type             X           Y           Z
 ---------------------------------------------------------------------
      1          7           0       -1.568500   -1.061012   -0.000089
      2          6           0       -0.252750   -0.655686    0.000011
      3          6           0       -0.252783    0.740893    0.000011
      4          6           0       -1.613226    1.158223    0.000211
      5          6           0        0.925416   -1.410845   -0.000089
      6          6           0        0.982096    1.419087   -0.000289
      7          6           0       -2.398032    0.028158    0.000011
      8          6           0        2.138414   -0.716411    0.000111
      9          6           0        2.168822    0.676859    0.000111
     10          1           0       -1.876466   -2.023458   -0.000189
     11          1           0       -1.979797    2.175640    0.000211
     12          1           0        0.902868   -2.495511   -0.000189
     13          1           0        1.020265    2.504642   -0.000289
     14          1           0       -3.471552   -0.097446    0.000011
     15          1           0        3.072093   -1.273053    0.000311
     16          1           0        3.124343    1.194596    0.000211
 ---------------------------------------------------------------------
 Rotational constants (GHZ):           3.9512966           1.6289403           1.1534325
 Leave Link  202 at Sat May  4 11:03:10 2024, MaxMem= 13421772800 cpu:               0.3 elap:               0.0
 (Enter /tmpu/scunam/7/gaussian-2016.03/g1/g16/l301.exe)
 Standard basis: def2TZVP (5D, 7F)
 Ernie: Thresh=  0.10000D-02 Tol=  0.10000D-05 Strict=F.
 There are   366 symmetry adapted cartesian basis functions of A   symmetry.
 There are   321 symmetry adapted basis functions of A   symmetry.
   321 basis functions,   515 primitive gaussians,   366 cartesian basis functions
    31 alpha electrons       31 beta electrons
       nuclear repulsion energy       401.1438442947 Hartrees.
 IExCor=  402 DFT=T Ex+Corr=B3LYP ExCW=0 ScaHFX=  0.200000
 ScaDFX=  0.800000  0.720000  1.000000  0.810000 ScalE2=  1.000000  1.000000
 IRadAn=      5 IRanWt=     -1 IRanGd=            0 ICorTp=0 IEmpDi=  4
 NAtoms=   16 NActive=   16 NUniq=   16 SFac= 1.00D+00 NAtFMM=   60 NAOKFM=F Big=F
 Integral buffers will be    131072 words long.
 Raffenetti 2 integral format.
 Two-electron integral symmetry is turned on.
 Leave Link  301 at Sat May  4 11:03:10 2024, MaxMem= 13421772800 cpu:               1.6 elap:               0.1
 (Enter /tmpu/scunam/7/gaussian-2016.03/g1/g16/l302.exe)
 NPDir=0 NMtPBC=     1 NCelOv=     1 NCel=       1 NClECP=     1 NCelD=      1
         NCelK=      1 NCelE2=     1 NClLst=     1 CellRange=     0.0.
 One-electron integrals computed using PRISM.
 One-electron integral symmetry used in STVInt
   1 Symmetry operations used in ECPInt.
 ECPInt:  NShTT=    8128 NPrTT=   24972 LenC2=    7966 LenP2D=   19674.
 LDataN:  DoStor=T MaxTD1= 6 Len=  172
 NBasis=   321 RedAO= T EigKep=  8.51D-06  NBF=   321
 NBsUse=   321 1.00D-06 EigRej= -1.00D+00 NBFU=   321
 Precomputing XC quadrature grid using
 IXCGrd= 4 IRadAn=           5 IRanWt=          -1 IRanGd=           0 AccXCQ= 0.00D+00.
 Generated NRdTot=       0 NPtTot=           0 NUsed=           0 NTot=          32
 NSgBfM=   365   365   365   365   365 MxSgAt=    16 MxSgA2=    16.
 Leave Link  302 at Sat May  4 11:03:10 2024, MaxMem= 13421772800 cpu:               9.3 elap:               0.3
 (Enter /tmpu/scunam/7/gaussian-2016.03/g1/g16/l303.exe)
 DipDrv:  MaxL=1.
 Leave Link  303 at Sat May  4 11:03:11 2024, MaxMem= 13421772800 cpu:               2.3 elap:               0.1
 (Enter /tmpu/scunam/7/gaussian-2016.03/g1/g16/l401.exe)
 ExpMin= 9.52D-02 ExpMax= 1.97D+04 ExpMxC= 6.73D+02 IAcc=3 IRadAn=         5 AccDes= 0.00D+00
 Harris functional with IExCor=  402 and IRadAn=       5 diagonalized for initial guess.
 HarFok:  IExCor=  402 AccDes= 0.00D+00 IRadAn=         5 IDoV= 1 UseB2=F ITyADJ=14
 ICtDFT=  3500011 ScaDFX=  1.000000  1.000000  1.000000  1.000000
 FoFCou: FMM=F IPFlag=           0 FMFlag=      100000 FMFlg1=           0
         NFxFlg=           0 DoJE=T BraDBF=F KetDBF=T FulRan=T
         wScrn=  0.000000 ICntrl=       500 IOpCl=  0 I1Cent=   200000004 NGrid=           0
         NMat0=    1 NMatS0=      1 NMatT0=    0 NMatD0=    1 NMtDS0=    0 NMtDT0=    0
 Petite list used in FoFCou.
 Harris En= -363.988523669410    
 JPrj=0 DoOrth=F DoCkMO=F.
 Leave Link  401 at Sat May  4 11:03:11 2024, MaxMem= 13421772800 cpu:              26.1 elap:               0.8
 (Enter /tmpu/scunam/7/gaussian-2016.03/g1/g16/l502.exe)
 Integral symmetry usage will be decided dynamically.
 Closed shell SCF:
 Using DIIS extrapolation, IDIIS=  1040.
 NGot= 13421772800 LenX= 13421489896 LenY= 13421355499
 Requested convergence on RMS density matrix=1.00D-08 within 128 cycles.
 Requested convergence on MAX density matrix=1.00D-06.
 Requested convergence on             energy=1.00D-06.
 No special actions if energy rises.
 Fock matrices will be formed incrementally for  20 cycles.
 Integral accuracy reduced to 1.0D-05 until final iterations.

 Cycle   1  Pass 0  IDiag  1:
 FoFJK:  IHMeth= 1 ICntrl=       0 DoSepK=F KAlg= 0 I1Cent=           0 FoldK=F
 IRaf= 950000000 NMat=       1 IRICut=       1 DoRegI=T DoRafI=F ISym2E= 0 IDoP0=0 IntGTp=1.
 FoFCou: FMM=F IPFlag=           0 FMFlag=      100000 FMFlg1=           0
         NFxFlg=           0 DoJE=F BraDBF=F KetDBF=F FulRan=T
         wScrn=  0.000000 ICntrl=         0 IOpCl=  0 I1Cent=           0 NGrid=           0
         NMat0=    1 NMatS0=      1 NMatT0=    0 NMatD0=    1 NMtDS0=    0 NMtDT0=    0
 Symmetry not used in FoFCou.
 E= -363.704091972465    
 DIIS: error= 2.90D-02 at cycle   1 NSaved=   1.
 NSaved= 1 IEnMin= 1 EnMin= -363.704091972465     IErMin= 1 ErrMin= 2.90D-02
 ErrMax= 2.90D-02  0.00D+00 EMaxC= 1.00D-01 BMatC= 2.45D-01 BMatP= 2.45D-01
 IDIUse=3 WtCom= 7.10D-01 WtEn= 2.90D-01
 Coeff-Com:  0.100D+01
 Coeff-En:   0.100D+01
 Coeff:      0.100D+01
 Gap=     0.195 Goal=   None    Shift=    0.000
 GapD=    0.195 DampG=1.000 DampE=0.500 DampFc=0.5000 IDamp=-1.
 Damping current iteration by 5.00D-01
 RMSDP=4.06D-03 MaxDP=1.57D-01              OVMax= 2.70D-01

 Cycle   2  Pass 0  IDiag  1:
 RMSU=  2.02D-03    CP:  9.77D-01
 E= -363.801264462058     Delta-E=       -0.097172489593 Rises=F Damp=T
 DIIS: error= 8.27D-03 at cycle   2 NSaved=   2.
 NSaved= 2 IEnMin= 2 EnMin= -363.801264462058     IErMin= 2 ErrMin= 8.27D-03
 ErrMax= 8.27D-03  0.00D+00 EMaxC= 1.00D-01 BMatC= 1.97D-02 BMatP= 2.45D-01
 IDIUse=3 WtCom= 9.17D-01 WtEn= 8.27D-02
 Coeff-Com:  0.781D-01 0.922D+00
 Coeff-En:   0.198D+00 0.802D+00
 Coeff:      0.881D-01 0.912D+00
 Gap=     0.247 Goal=   None    Shift=    0.000
 RMSDP=1.55D-03 MaxDP=8.26D-02 DE=-9.72D-02 OVMax= 2.44D-01

 Cycle   3  Pass 0  IDiag  1:
 RMSU=  1.09D-03    CP:  9.55D-01  4.65D-01
 E= -363.931330232681     Delta-E=       -0.130065770624 Rises=F Damp=F
 DIIS: error= 1.27D-02 at cycle   3 NSaved=   3.
 NSaved= 3 IEnMin= 3 EnMin= -363.931330232681     IErMin= 2 ErrMin= 8.27D-03
 ErrMax= 1.27D-02  0.00D+00 EMaxC= 1.00D-01 BMatC= 2.11D-02 BMatP= 1.97D-02
 IDIUse=3 WtCom= 8.73D-01 WtEn= 1.27D-01
 Coeff-Com: -0.207D-01 0.516D+00 0.505D+00
 Coeff-En:   0.000D+00 0.000D+00 0.100D+01
 Coeff:     -0.181D-01 0.450D+00 0.568D+00
 Gap=     0.188 Goal=   None    Shift=    0.000
 RMSDP=5.46D-04 MaxDP=2.18D-02 DE=-1.30D-01 OVMax= 1.08D-01

 Cycle   4  Pass 0  IDiag  1:
 RMSU=  4.67D-04    CP:  9.57D-01  5.66D-01  8.21D-01
 E= -363.945562032133     Delta-E=       -0.014231799452 Rises=F Damp=F
 DIIS: error= 7.62D-03 at cycle   4 NSaved=   4.
 NSaved= 4 IEnMin= 4 EnMin= -363.945562032133     IErMin= 4 ErrMin= 7.62D-03
 ErrMax= 7.62D-03  0.00D+00 EMaxC= 1.00D-01 BMatC= 7.88D-03 BMatP= 1.97D-02
 IDIUse=3 WtCom= 9.24D-01 WtEn= 7.62D-02
 Coeff-Com: -0.261D-01 0.144D+00 0.393D+00 0.489D+00
 Coeff-En:   0.000D+00 0.000D+00 0.305D+00 0.695D+00
 Coeff:     -0.241D-01 0.133D+00 0.386D+00 0.504D+00
 Gap=     0.186 Goal=   None    Shift=    0.000
 RMSDP=2.40D-04 MaxDP=8.96D-03 DE=-1.42D-02 OVMax= 4.65D-02

 Cycle   5  Pass 0  IDiag  1:
 RMSU=  1.13D-04    CP:  9.55D-01  5.44D-01  9.00D-01  6.01D-01
 E= -363.953372395101     Delta-E=       -0.007810362968 Rises=F Damp=F
 DIIS: error= 1.10D-03 at cycle   5 NSaved=   5.
 NSaved= 5 IEnMin= 5 EnMin= -363.953372395101     IErMin= 5 ErrMin= 1.10D-03
 ErrMax= 1.10D-03  0.00D+00 EMaxC= 1.00D-01 BMatC= 2.08D-04 BMatP= 7.88D-03
 IDIUse=3 WtCom= 9.89D-01 WtEn= 1.10D-02
 Coeff-Com: -0.109D-01 0.358D-01 0.151D+00 0.245D+00 0.579D+00
 Coeff-En:   0.000D+00 0.000D+00 0.000D+00 0.000D+00 0.100D+01
 Coeff:     -0.108D-01 0.354D-01 0.149D+00 0.242D+00 0.584D+00
 Gap=     0.186 Goal=   None    Shift=    0.000
 RMSDP=4.88D-05 MaxDP=2.04D-03 DE=-7.81D-03 OVMax= 7.38D-03

 Cycle   6  Pass 0  IDiag  1:
 RMSU=  3.44D-05    CP:  9.55D-01  5.44D-01  9.06D-01  6.42D-01  7.52D-01
 E= -363.953540276316     Delta-E=       -0.000167881216 Rises=F Damp=F
 DIIS: error= 5.78D-04 at cycle   6 NSaved=   6.
 NSaved= 6 IEnMin= 6 EnMin= -363.953540276316     IErMin= 6 ErrMin= 5.78D-04
 ErrMax= 5.78D-04  0.00D+00 EMaxC= 1.00D-01 BMatC= 4.56D-05 BMatP= 2.08D-04
 IDIUse=3 WtCom= 9.94D-01 WtEn= 5.78D-03
 Coeff-Com: -0.363D-02 0.467D-02 0.459D-01 0.896D-01 0.366D+00 0.498D+00
 Coeff-En:   0.000D+00 0.000D+00 0.000D+00 0.000D+00 0.189D+00 0.811D+00
 Coeff:     -0.360D-02 0.464D-02 0.456D-01 0.891D-01 0.365D+00 0.500D+00
 Gap=     0.186 Goal=   None    Shift=    0.000
 RMSDP=1.81D-05 MaxDP=6.49D-04 DE=-1.68D-04 OVMax= 2.66D-03

 Cycle   7  Pass 0  IDiag  1:
 RMSU=  1.04D-05    CP:  9.55D-01  5.43D-01  9.10D-01  6.38D-01  7.98D-01
                    CP:  6.19D-01
 E= -363.953586045763     Delta-E=       -0.000045769447 Rises=F Damp=F
 DIIS: error= 6.04D-05 at cycle   7 NSaved=   7.
 NSaved= 7 IEnMin= 7 EnMin= -363.953586045763     IErMin= 7 ErrMin= 6.04D-05
 ErrMax= 6.04D-05  0.00D+00 EMaxC= 1.00D-01 BMatC= 1.17D-06 BMatP= 4.56D-05
 IDIUse=1 WtCom= 1.00D+00 WtEn= 0.00D+00
 Coeff-Com: -0.117D-02 0.493D-03 0.155D-01 0.317D-01 0.151D+00 0.241D+00
 Coeff-Com:  0.561D+00
 Coeff:     -0.117D-02 0.493D-03 0.155D-01 0.317D-01 0.151D+00 0.241D+00
 Coeff:      0.561D+00
 Gap=     0.186 Goal=   None    Shift=    0.000
 RMSDP=4.30D-06 MaxDP=1.51D-04 DE=-4.58D-05 OVMax= 5.20D-04

 Initial convergence to 1.0D-05 achieved.  Increase integral accuracy.
 Cycle   8  Pass 1  IDiag  1:
 E= -363.953588600076     Delta-E=       -0.000002554314 Rises=F Damp=F
 DIIS: error= 1.04D-04 at cycle   1 NSaved=   1.
 NSaved= 1 IEnMin= 1 EnMin= -363.953588600076     IErMin= 1 ErrMin= 1.04D-04
 ErrMax= 1.04D-04  0.00D+00 EMaxC= 1.00D-01 BMatC= 2.44D-06 BMatP= 2.44D-06
 IDIUse=3 WtCom= 9.99D-01 WtEn= 1.04D-03
 Coeff-Com:  0.100D+01
 Coeff-En:   0.100D+01
 Coeff:      0.100D+01
 Gap=     0.186 Goal=   None    Shift=    0.000
 RMSDP=4.30D-06 MaxDP=1.51D-04 DE=-2.55D-06 OVMax= 4.34D-04

 Cycle   9  Pass 1  IDiag  1:
 RMSU=  9.67D-05    CP:  1.00D+00
 E= -363.953588778094     Delta-E=       -0.000000178017 Rises=F Damp=F
 DIIS: error= 5.55D-05 at cycle   2 NSaved=   2.
 NSaved= 2 IEnMin= 2 EnMin= -363.953588778094     IErMin= 2 ErrMin= 5.55D-05
 ErrMax= 5.55D-05  0.00D+00 EMaxC= 1.00D-01 BMatC= 6.63D-07 BMatP= 2.44D-06
 IDIUse=1 WtCom= 1.00D+00 WtEn= 0.00D+00
 Coeff-Com:  0.268D+00 0.732D+00
 Coeff:      0.268D+00 0.732D+00
 Gap=     0.186 Goal=   None    Shift=    0.000
 RMSDP=4.11D-06 MaxDP=2.03D-04 DE=-1.78D-07 OVMax= 6.00D-04

 Cycle  10  Pass 1  IDiag  1:
 RMSU=  3.97D-06    CP:  1.00D+00  1.01D+00
 E= -363.953588651389     Delta-E=        0.000000126705 Rises=F Damp=F
 DIIS: error= 7.01D-05 at cycle   3 NSaved=   3.
 NSaved= 3 IEnMin= 2 EnMin= -363.953588778094     IErMin= 2 ErrMin= 5.55D-05
 ErrMax= 7.01D-05  0.00D+00 EMaxC= 1.00D-01 BMatC= 7.58D-07 BMatP= 6.63D-07
 IDIUse=1 WtCom= 1.00D+00 WtEn= 0.00D+00
 Coeff-Com:  0.388D-02 0.516D+00 0.480D+00
 Coeff:      0.388D-02 0.516D+00 0.480D+00
 Gap=     0.186 Goal=   None    Shift=    0.000
 RMSDP=2.33D-06 MaxDP=1.11D-04 DE= 1.27D-07 OVMax= 3.50D-04

 Cycle  11  Pass 1  IDiag  1:
 RMSU=  6.87D-07    CP:  1.00D+00  1.02D+00  4.64D-01
 E= -363.953589445695     Delta-E=       -0.000000794306 Rises=F Damp=F
 DIIS: error= 9.91D-06 at cycle   4 NSaved=   4.
 NSaved= 4 IEnMin= 4 EnMin= -363.953589445695     IErMin= 4 ErrMin= 9.91D-06
 ErrMax= 9.91D-06  0.00D+00 EMaxC= 1.00D-01 BMatC= 1.73D-08 BMatP= 6.63D-07
 IDIUse=1 WtCom= 1.00D+00 WtEn= 0.00D+00
 Coeff-Com: -0.149D-02 0.321D+00 0.308D+00 0.372D+00
 Coeff:     -0.149D-02 0.321D+00 0.308D+00 0.372D+00
 Gap=     0.186 Goal=   None    Shift=    0.000
 RMSDP=3.20D-07 MaxDP=1.60D-05 DE=-7.94D-07 OVMax= 6.11D-05

 Cycle  12  Pass 1  IDiag  1:
 RMSU=  2.22D-07    CP:  1.00D+00  1.02D+00  4.97D-01  7.23D-01
 E= -363.953589463644     Delta-E=       -0.000000017948 Rises=F Damp=F
 DIIS: error= 1.10D-06 at cycle   5 NSaved=   5.
 NSaved= 5 IEnMin= 5 EnMin= -363.953589463644     IErMin= 5 ErrMin= 1.10D-06
 ErrMax= 1.10D-06  0.00D+00 EMaxC= 1.00D-01 BMatC= 2.28D-10 BMatP= 1.73D-08
 IDIUse=1 WtCom= 1.00D+00 WtEn= 0.00D+00
 Coeff-Com: -0.937D-03 0.175D+00 0.168D+00 0.216D+00 0.442D+00
 Coeff:     -0.937D-03 0.175D+00 0.168D+00 0.216D+00 0.442D+00
 Gap=     0.186 Goal=   None    Shift=    0.000
 RMSDP=4.32D-08 MaxDP=1.77D-06 DE=-1.79D-08 OVMax= 6.64D-06

 Cycle  13  Pass 1  IDiag  1:
 RMSU=  3.88D-08    CP:  1.00D+00  1.02D+00  4.95D-01  7.36D-01  9.34D-01
 E= -363.953589463850     Delta-E=       -0.000000000206 Rises=F Damp=F
 DIIS: error= 2.82D-07 at cycle   6 NSaved=   6.
 NSaved= 6 IEnMin= 6 EnMin= -363.953589463850     IErMin= 6 ErrMin= 2.82D-07
 ErrMax= 2.82D-07  0.00D+00 EMaxC= 1.00D-01 BMatC= 1.77D-11 BMatP= 2.28D-10
 IDIUse=1 WtCom= 1.00D+00 WtEn= 0.00D+00
 Coeff-Com: -0.353D-03 0.612D-01 0.588D-01 0.798D-01 0.249D+00 0.552D+00
 Coeff:     -0.353D-03 0.612D-01 0.588D-01 0.798D-01 0.249D+00 0.552D+00
 Gap=     0.186 Goal=   None    Shift=    0.000
 RMSDP=1.25D-08 MaxDP=4.68D-07 DE=-2.06D-10 OVMax= 1.91D-06

 Cycle  14  Pass 1  IDiag  1:
 RMSU=  7.60D-09    CP:  1.00D+00  1.02D+00  4.95D-01  7.40D-01  9.54D-01
                    CP:  8.34D-01
 E= -363.953589463864     Delta-E=       -0.000000000014 Rises=F Damp=F
 DIIS: error= 5.98D-08 at cycle   7 NSaved=   7.
 NSaved= 7 IEnMin= 7 EnMin= -363.953589463864     IErMin= 7 ErrMin= 5.98D-08
 ErrMax= 5.98D-08  0.00D+00 EMaxC= 1.00D-01 BMatC= 8.65D-13 BMatP= 1.77D-11
 IDIUse=1 WtCom= 1.00D+00 WtEn= 0.00D+00
 Coeff-Com: -0.840D-04 0.137D-01 0.131D-01 0.194D-01 0.713D-01 0.246D+00
 Coeff-Com:  0.636D+00
 Coeff:     -0.840D-04 0.137D-01 0.131D-01 0.194D-01 0.713D-01 0.246D+00
 Coeff:      0.636D+00
 Gap=     0.186 Goal=   None    Shift=    0.000
 RMSDP=4.49D-09 MaxDP=1.03D-07 DE=-1.44D-11 OVMax= 4.08D-07

 SCF Done:  E(RB3LYP) =  -363.953589464     A.U. after   14 cycles
            NFock= 14  Conv=0.45D-08     -V/T= 2.0053
 KE= 3.620463161694D+02 PE=-1.647337344338D+03 EE= 5.201935944103D+02
 Leave Link  502 at Sat May  4 11:03:37 2024, MaxMem= 13421772800 cpu:             827.4 elap:              25.9
 (Enter /tmpu/scunam/7/gaussian-2016.03/g1/g16/l508.exe)
 QCSCF skips out because SCF is already converged.
 Leave Link  508 at Sat May  4 11:03:37 2024, MaxMem= 13421772800 cpu:               0.2 elap:               0.0
 (Enter /tmpu/scunam/7/gaussian-2016.03/g1/g16/l601.exe)
 Copying SCF densities to generalized density rwf, IOpCl= 0 IROHF=0.

 **********************************************************************

            Population analysis using the SCF density.

 **********************************************************************

 Orbital symmetries:
       Occupied  (A) (A) (A) (A) (A) (A) (A) (A) (A) (A) (A) (A)
                 (A) (A) (A) (A) (A) (A) (A) (A) (A) (A) (A) (A)
                 (A) (A) (A) (A) (A) (A) (A)
       Virtual   (A) (A) (A) (A) (A) (A) (A) (A) (A) (A) (A) (A)
                 (A) (A) (A) (A) (A) (A) (A) (A) (A) (A) (A) (A)
                 (A) (A) (A) (A) (A) (A) (A) (A) (A) (A) (A) (A)
                 (A) (A) (A) (A) (A) (A) (A) (A) (A) (A) (A) (A)
                 (A) (A) (A) (A) (A) (A) (A) (A) (A) (A) (A) (A)
                 (A) (A) (A) (A) (A) (A) (A) (A) (A) (A) (A) (A)
                 (A) (A) (A) (A) (A) (A) (A) (A) (A) (A) (A) (A)
                 (A) (A) (A) (A) (A) (A) (A) (A) (A) (A) (A) (A)
                 (A) (A) (A) (A) (A) (A) (A) (A) (A) (A) (A) (A)
                 (A) (A) (A) (A) (A) (A) (A) (A) (A) (A) (A) (A)
                 (A) (A) (A) (A) (A) (A) (A) (A) (A) (A) (A) (A)
                 (A) (A) (A) (A) (A) (A) (A) (A) (A) (A) (A) (A)
                 (A) (A) (A) (A) (A) (A) (A) (A) (A) (A) (A) (A)
                 (A) (A) (A) (A) (A) (A) (A) (A) (A) (A) (A) (A)
                 (A) (A) (A) (A) (A) (A) (A) (A) (A) (A) (A) (A)
                 (A) (A) (A) (A) (A) (A) (A) (A) (A) (A) (A) (A)
                 (A) (A) (A) (A) (A) (A) (A) (A) (A) (A) (A) (A)
                 (A) (A) (A) (A) (A) (A) (A) (A) (A) (A) (A) (A)
                 (A) (A) (A) (A) (A) (A) (A) (A) (A) (A) (A) (A)
                 (A) (A) (A) (A) (A) (A) (A) (A) (A) (A) (A) (A)
                 (A) (A) (A) (A) (A) (A) (A) (A) (A) (A) (A) (A)
                 (A) (A) (A) (A) (A) (A) (A) (A) (A) (A) (A) (A)
                 (A) (A) (A) (A) (A) (A) (A) (A) (A) (A) (A) (A)
                 (A) (A) (A) (A) (A) (A) (A) (A) (A) (A) (A) (A)
                 (A) (A)
 The electronic state is 1-A.
 Alpha  occ. eigenvalues --  -14.36092 -10.20672 -10.20263 -10.17507 -10.17074
 Alpha  occ. eigenvalues --  -10.16847 -10.16820 -10.16421 -10.16038  -0.98637
 Alpha  occ. eigenvalues --   -0.84083  -0.78318  -0.73798  -0.71681  -0.62828
 Alpha  occ. eigenvalues --   -0.59646  -0.58286  -0.54221  -0.48506  -0.47457
 Alpha  occ. eigenvalues --   -0.43995  -0.42985  -0.42869  -0.41269  -0.39824
 Alpha  occ. eigenvalues --   -0.35781  -0.34077  -0.33906  -0.28148  -0.23137
 Alpha  occ. eigenvalues --   -0.20860
 Alpha virt. eigenvalues --   -0.02275   0.01852   0.02709   0.05124   0.05789
 Alpha virt. eigenvalues --    0.07181   0.08396   0.09275   0.11200   0.11512
 Alpha virt. eigenvalues --    0.12077   0.15775   0.16726   0.17805   0.18662
 Alpha virt. eigenvalues --    0.19541   0.20057   0.21906   0.22707   0.23322
 Alpha virt. eigenvalues --    0.24508   0.25324   0.25878   0.27234   0.29026
 Alpha virt. eigenvalues --    0.29268   0.30590   0.30756   0.32476   0.34379
 Alpha virt. eigenvalues --    0.35245   0.36012   0.37268   0.37647   0.38339
 Alpha virt. eigenvalues --    0.39401   0.40823   0.41443   0.41842   0.42150
 Alpha virt. eigenvalues --    0.44179   0.45129   0.45860   0.46673   0.46783
 Alpha virt. eigenvalues --    0.48577   0.50202   0.50923   0.51404   0.52636
 Alpha virt. eigenvalues --    0.55025   0.56007   0.59713   0.60754   0.62451
 Alpha virt. eigenvalues --    0.62841   0.63847   0.67805   0.69179   0.70591
 Alpha virt. eigenvalues --    0.71081   0.72268   0.72784   0.73304   0.76498
 Alpha virt. eigenvalues --    0.79352   0.79402   0.80915   0.81660   0.84545
 Alpha virt. eigenvalues --    0.86575   0.86973   0.89266   0.90543   0.93050
 Alpha virt. eigenvalues --    0.96765   0.98068   0.99918   1.02422   1.02551
 Alpha virt. eigenvalues --    1.07103   1.08587   1.08763   1.11864   1.13802
 Alpha virt. eigenvalues --    1.14242   1.20137   1.20591   1.20995   1.22198
 Alpha virt. eigenvalues --    1.23767   1.25547   1.26891   1.27811   1.28077
 Alpha virt. eigenvalues --    1.32802   1.35225   1.35470   1.35796   1.39827
 Alpha virt. eigenvalues --    1.41884   1.43236   1.43561   1.46726   1.48427
 Alpha virt. eigenvalues --    1.49305   1.49546   1.51123   1.53863   1.55428
 Alpha virt. eigenvalues --    1.56292   1.59390   1.59590   1.61052   1.63916
 Alpha virt. eigenvalues --    1.66582   1.67581   1.68985   1.70331   1.71126
 Alpha virt. eigenvalues --    1.74792   1.76594   1.78680   1.82104   1.84641
 Alpha virt. eigenvalues --    1.85325   1.86030   1.92584   1.95168   1.95695
 Alpha virt. eigenvalues --    1.96195   2.01077   2.05969   2.06601   2.07332
 Alpha virt. eigenvalues --    2.09471   2.12431   2.15239   2.15381   2.16914
 Alpha virt. eigenvalues --    2.17884   2.22523   2.22920   2.27341   2.30212
 Alpha virt. eigenvalues --    2.32386   2.36087   2.39577   2.42114   2.43441
 Alpha virt. eigenvalues --    2.48047   2.50984   2.55504   2.56071   2.56204
 Alpha virt. eigenvalues --    2.59018   2.60801   2.61224   2.62927   2.65272
 Alpha virt. eigenvalues --    2.65581   2.66825   2.69210   2.70155   2.70381
 Alpha virt. eigenvalues --    2.72344   2.74615   2.75959   2.77216   2.78616
 Alpha virt. eigenvalues --    2.79839   2.80713   2.81476   2.82703   2.83420
 Alpha virt. eigenvalues --    2.87316   2.88506   2.88590   2.90682   2.92768
 Alpha virt. eigenvalues --    2.94711   2.95303   2.97745   3.01687   3.01769
 Alpha virt. eigenvalues --    3.06617   3.07788   3.09006   3.11066   3.11147
 Alpha virt. eigenvalues --    3.12778   3.15666   3.15929   3.16127   3.17818
 Alpha virt. eigenvalues --    3.20570   3.21676   3.21865   3.24831   3.25035
 Alpha virt. eigenvalues --    3.27840   3.28155   3.28676   3.33039   3.34605
 Alpha virt. eigenvalues --    3.35728   3.37889   3.38573   3.38834   3.42968
 Alpha virt. eigenvalues --    3.43665   3.44756   3.45648   3.46384   3.49118
 Alpha virt. eigenvalues --    3.49874   3.51904   3.54577   3.56982   3.57960
 Alpha virt. eigenvalues --    3.61512   3.62170   3.65582   3.70170   3.72787
 Alpha virt. eigenvalues --    3.76901   3.81331   3.84277   3.84690   3.87735
 Alpha virt. eigenvalues --    3.91770   3.92042   3.95454   3.97506   4.00470
 Alpha virt. eigenvalues --    4.04312   4.10294   4.12236   4.16143   4.16597
 Alpha virt. eigenvalues --    4.19321   4.21017   4.21950   4.24792   4.27072
 Alpha virt. eigenvalues --    4.31789   4.32341   4.37332   4.38634   4.44344
 Alpha virt. eigenvalues --    4.44667   4.57026   4.59577   4.60082   4.68454
 Alpha virt. eigenvalues --    4.71070   4.72363   4.74877   4.76521   4.82747
 Alpha virt. eigenvalues --    4.84759   4.84999   4.91133   4.92841   4.97014
 Alpha virt. eigenvalues --    5.01008   5.03393   5.12849   5.17515   5.24196
 Alpha virt. eigenvalues --    5.29503   5.29830   5.33983   5.42618   5.46549
 Alpha virt. eigenvalues --    5.51390   5.60412   5.67695   5.78082   6.00060
 Alpha virt. eigenvalues --    6.13667  22.22532  22.43439  22.58110  22.61089
 Alpha virt. eigenvalues --   22.78834  22.90784  22.93239  23.61810  32.35786
          Condensed to atoms (all electrons):
               1          2          3          4          5          6
     1  N    6.345433   0.383427  -0.072615  -0.093225  -0.038945  -0.001911
     2  C    0.383427   5.012347   0.422358  -0.029396   0.407413  -0.051722
     3  C   -0.072615   0.422358   4.841757   0.430745   0.007868   0.469218
     4  C   -0.093225  -0.029396   0.430745   5.041842   0.000744  -0.085611
     5  C   -0.038945   0.407413   0.007868   0.000744   5.007640  -0.051110
     6  C   -0.001911  -0.051722   0.469218  -0.085611  -0.051110   5.031795
     7  C    0.380758  -0.131723  -0.065637   0.573315   0.012865   0.006601
     8  C   -0.004586  -0.026177  -0.070497   0.006833   0.509102  -0.013557
     9  C    0.004560  -0.081165  -0.013841  -0.002404  -0.008820   0.514015
    10  H    0.379774  -0.043276   0.011732   0.008584  -0.003470  -0.000664
    11  H    0.004592   0.016058  -0.051651   0.433412  -0.000546  -0.003833
    12  H   -0.000642  -0.066333   0.009744  -0.000986   0.421935  -0.001531
    13  H   -0.000354   0.015356  -0.063003  -0.003150  -0.002658   0.429474
    14  H   -0.034255   0.005334   0.005631  -0.025745  -0.000695  -0.000002
    15  H   -0.000194   0.015385  -0.002591   0.000068  -0.060469   0.010674
    16  H    0.000046  -0.002970   0.013722  -0.000441   0.012578  -0.058060
               7          8          9         10         11         12
     1  N    0.380758  -0.004586   0.004560   0.379774   0.004592  -0.000642
     2  C   -0.131723  -0.026177  -0.081165  -0.043276   0.016058  -0.066333
     3  C   -0.065637  -0.070497  -0.013841   0.011732  -0.051651   0.009744
     4  C    0.573315   0.006833  -0.002404   0.008584   0.433412  -0.000986
     5  C    0.012865   0.509102  -0.008820  -0.003470  -0.000546   0.421935
     6  C    0.006601  -0.013557   0.514015  -0.000664  -0.003833  -0.001531
     7  C    4.913607  -0.002592   0.001680  -0.043655  -0.051388  -0.000093
     8  C   -0.002592   4.879774   0.476768   0.000000   0.000088  -0.034175
     9  C    0.001680   0.476768   4.888743   0.000034  -0.000315   0.008822
    10  H   -0.043655   0.000000   0.000034   0.480504  -0.000184   0.003218
    11  H   -0.051388   0.000088  -0.000315  -0.000184   0.549496   0.000022
    12  H   -0.000093  -0.034175   0.008822   0.003218   0.000022   0.571996
    13  H   -0.001019   0.010600  -0.053466   0.000033   0.002990   0.000079
    14  H    0.411173   0.000071  -0.000003  -0.004622  -0.002191  -0.000017
    15  H    0.000035   0.428911  -0.053445  -0.000014  -0.000001  -0.008205
    16  H    0.000070  -0.057437   0.429645  -0.000003  -0.000012  -0.000266
              13         14         15         16
     1  N   -0.000354  -0.034255  -0.000194   0.000046
     2  C    0.015356   0.005334   0.015385  -0.002970
     3  C   -0.063003   0.005631  -0.002591   0.013722
     4  C   -0.003150  -0.025745   0.000068  -0.000441
     5  C   -0.002658  -0.000695  -0.060469   0.012578
     6  C    0.429474  -0.000002   0.010674  -0.058060
     7  C   -0.001019   0.411173   0.000035   0.000070
     8  C    0.010600   0.000071   0.428911  -0.057437
     9  C   -0.053466  -0.000003  -0.053445   0.429645
    10  H    0.000033  -0.004622  -0.000014  -0.000003
    11  H    0.002990  -0.002191  -0.000001  -0.000012
    12  H    0.000079  -0.000017  -0.008205  -0.000266
    13  H    0.574827  -0.000010  -0.000310  -0.007943
    14  H   -0.000010   0.509996  -0.000000  -0.000000
    15  H   -0.000310  -0.000000   0.575315  -0.007796
    16  H   -0.007943  -0.000000  -0.007796   0.577852
 Mulliken charges:
               1
     1  N   -0.251865
     2  C    0.155082
     3  C    0.127058
     4  C   -0.254585
     5  C   -0.213432
     6  C   -0.193775
     7  C   -0.003998
     8  C   -0.103126
     9  C   -0.110807
    10  H    0.212010
    11  H    0.103462
    12  H    0.096431
    13  H    0.098555
    14  H    0.135336
    15  H    0.102637
    16  H    0.101015
 Sum of Mulliken charges =  -0.00000
 Mulliken charges with hydrogens summed into heavy atoms:
               1
     1  N   -0.039855
     2  C    0.155082
     3  C    0.127058
     4  C   -0.151123
     5  C   -0.117001
     6  C   -0.095221
     7  C    0.131338
     8  C   -0.000488
     9  C   -0.009792
 Electronic spatial extent (au):  <R**2>=           1007.7106
 Charge=             -0.0000 electrons
 Dipole moment (field-independent basis, Debye):
    X=             -1.5212    Y=             -1.5905    Z=             -0.0001  Tot=              2.2008
 Quadrupole moment (field-independent basis, Debye-Ang):
   XX=            -45.4392   YY=            -44.9180   ZZ=            -58.0700
   XY=              3.3319   XZ=              0.0014   YZ=              0.0006
 Traceless Quadrupole moment (field-independent basis, Debye-Ang):
   XX=              4.0365   YY=              4.5577   ZZ=             -8.5943
   XY=              3.3319   XZ=              0.0014   YZ=              0.0006
 Octapole moment (field-independent basis, Debye-Ang**2):
  XXX=            -15.2106  YYY=            -10.4599  ZZZ=             -0.0007  XYY=             -7.7958
  XXY=             -8.4664  XXZ=              0.0022  XZZ=             -2.1784  YZZ=             -2.0949
  YYZ=             -0.0021  XYZ=             -0.0014
 Hexadecapole moment (field-independent basis, Debye-Ang**3):
 XXXX=           -817.2506 YYYY=           -367.3880 ZZZZ=            -68.5933 XXXY=             22.8090
 XXXZ=              0.0150 YYYX=             19.7717 YYYZ=              0.0023 ZZZX=              0.0017
 ZZZY=             -0.0016 XXYY=           -197.4039 XXZZ=           -186.2873 YYZZ=            -90.8982
 XXYZ=              0.0016 YYXZ=              0.0016 ZZXY=              4.0512
 N-N= 4.011438442947D+02 E-N=-1.647337350604D+03  KE= 3.620463161694D+02
 No NMR shielding tensors so no spin-rotation constants.
 Leave Link  601 at Sat May  4 11:03:38 2024, MaxMem= 13421772800 cpu:               8.0 elap:               0.3
 (Enter /tmpu/scunam/7/gaussian-2016.03/g1/g16/l701.exe)
 ... and contract with generalized density number  0.
 Compute integral first derivatives.
   1 Symmetry operations used in ECPInt.
 ECPInt:  NShTT=    8128 NPrTT=   24972 LenC2=    7966 LenP2D=   19674.
 LDataN:  DoStor=T MaxTD1= 7 Len=  274
 Leave Link  701 at Sat May  4 11:03:38 2024, MaxMem= 13421772800 cpu:               9.0 elap:               0.3
 (Enter /tmpu/scunam/7/gaussian-2016.03/g1/g16/l702.exe)
 L702 exits ... SP integral derivatives will be done elsewhere.
 Leave Link  702 at Sat May  4 11:03:38 2024, MaxMem= 13421772800 cpu:               1.7 elap:               0.1
 (Enter /tmpu/scunam/7/gaussian-2016.03/g1/g16/l703.exe)
 Integral derivatives from FoFJK, PRISM(SPDF).
 Compute integral first derivatives, UseDBF=F ICtDFT=           0.
 Calling FoFJK, ICntrl=      2127 FMM=F ISym2X=0 I1Cent= 0 IOpClX= 0 NMat=1 NMatS=1 NMatT=0.
 FoFJK:  IHMeth= 1 ICntrl=    2127 DoSepK=F KAlg= 0 I1Cent=           0 FoldK=F
 IRaf=         0 NMat=       1 IRICut=       1 DoRegI=T DoRafI=F ISym2E= 0 IDoP0=0 IntGTp=1.
 FoFCou: FMM=F IPFlag=           0 FMFlag=      100000 FMFlg1=         800
         NFxFlg=           0 DoJE=F BraDBF=F KetDBF=F FulRan=T
         wScrn=  0.000000 ICntrl=      2127 IOpCl=  0 I1Cent=           0 NGrid=           0
         NMat0=    1 NMatS0=      1 NMatT0=    0 NMatD0=    1 NMtDS0=    0 NMtDT0=    0
 Symmetry not used in FoFCou.
 Leave Link  703 at Sat May  4 11:03:49 2024, MaxMem= 13421772800 cpu:             354.9 elap:              11.1
 (Enter /tmpu/scunam/7/gaussian-2016.03/g1/g16/l716.exe)
 Dipole        =-5.98478190D-01-6.25754699D-01-5.76800603D-05
 ***** Axes restored to original set *****
 -------------------------------------------------------------------
 Center     Atomic                   Forces (Hartrees/Bohr)
 Number     Number              X              Y              Z
 -------------------------------------------------------------------
      1        7           0.000193598    0.018185856    0.000001718
      2        6          -0.004268397    0.018519790   -0.000024736
      3        6          -0.010335381   -0.016707596   -0.000005410
      4        6           0.016048600   -0.004772429   -0.000030702
      5        6          -0.005504707   -0.005225268    0.000014084
      6        6          -0.007977630    0.005127787    0.000062188
      7        6          -0.006862586   -0.010548367    0.000014889
      8        6           0.006864240    0.014457654    0.000004190
      9        6           0.011161570   -0.015455111   -0.000031924
     10        1          -0.001729159   -0.005341031    0.000002833
     11        1          -0.001017022    0.002338929    0.000002573
     12        1          -0.000097216   -0.001357817    0.000001780
     13        1           0.000689911    0.002288788   -0.000005391
     14        1          -0.002667243   -0.001887843    0.000001315
     15        1           0.002878514   -0.000920264   -0.000004451
     16        1           0.002622908    0.001296922   -0.000002956
 -------------------------------------------------------------------
 Cartesian Forces:  Max     0.018519790 RMS     0.007008505
 Leave Link  716 at Sat May  4 11:03:49 2024, MaxMem= 13421772800 cpu:               0.8 elap:               0.0
 (Enter /tmpu/scunam/7/gaussian-2016.03/g1/g16/l103.exe)

 GradGradGradGradGradGradGradGradGradGradGradGradGradGradGradGradGradGrad
 Berny optimization.
 FormGI is forming the generalized inverse of G from B-inverse, IUseBI=4.
 Internal  Forces:  Max     0.016868825 RMS     0.003752909
 Search for a local minimum.
 Step number   1 out of a maximum of  100
 All quantities printed in internal units (Hartrees-Bohrs-Radians)
 RMS Force = .37529D-02 SwitMx=.10000D-02 MixMth= 1
 Mixed Optimization -- RFO/linear search
 Second derivative matrix not updated -- first step.
 ITU=  0
     Eigenvalues ---    0.01938   0.02002   0.02029   0.02042   0.02054
     Eigenvalues ---    0.02082   0.02101   0.02108   0.02127   0.02135
     Eigenvalues ---    0.02150   0.02157   0.02290   0.16000   0.16000
     Eigenvalues ---    0.16000   0.16000   0.16000   0.16000   0.16000
     Eigenvalues ---    0.22000   0.22194   0.22673   0.24021   0.24657
     Eigenvalues ---    0.35160   0.35188   0.35253   0.35409   0.35821
     Eigenvalues ---    0.35893   0.38627   0.39624   0.41329   0.44051
     Eigenvalues ---    0.45242   0.45693   0.45886   0.46297   0.46804
     Eigenvalues ---    0.48809   0.50191
 RFO step:  Lambda=-2.97908602D-03 EMin= 1.93763773D-02
 Linear search not attempted -- first point.
 Iteration  1 RMS(Cart)=  0.01298659 RMS(Int)=  0.00007208
 Iteration  2 RMS(Cart)=  0.00008030 RMS(Int)=  0.00002940
 Iteration  3 RMS(Cart)=  0.00000000 RMS(Int)=  0.00002940
 ITry= 1 IFail=0 DXMaxC= 4.61D-02 DCOld= 1.00D+10 DXMaxT= 3.00D-01 DXLimC= 3.00D+00 Rises=F
 Variable       Old X    -DE/DX   Delta X   Delta X   Delta X     New X
                                 (Linear)    (Quad)   (Total)
    R1        2.60171  -0.00087   0.00000  -0.00073  -0.00070   2.60101
    R2        2.58721   0.00929   0.00000   0.01666   0.01674   2.60395
    R3        1.90960  -0.00561   0.00000  -0.01215  -0.01215   1.89745
    R4        2.63915   0.01687   0.00000   0.03997   0.03988   2.67903
    R5        2.64450  -0.00576   0.00000  -0.01158  -0.01160   2.63290
    R6        2.68911   0.00594   0.00000   0.01432   0.01426   2.70336
    R7        2.66235  -0.00638   0.00000  -0.01381  -0.01383   2.64852
    R8        2.59998  -0.00603   0.00000  -0.01400  -0.01398   2.58601
    R9        2.04363  -0.00255   0.00000  -0.00705  -0.00705   2.03657
   R10        2.64130  -0.01105   0.00000  -0.02440  -0.02437   2.61692
   R11        2.05016  -0.00136   0.00000  -0.00380  -0.00380   2.04636
   R12        2.64509  -0.01332   0.00000  -0.02990  -0.02989   2.61520
   R13        2.05267  -0.00230   0.00000  -0.00647  -0.00647   2.04620
   R14        2.04250  -0.00290   0.00000  -0.00801  -0.00801   2.03449
   R15        2.63353   0.00977   0.00000   0.01941   0.01945   2.65297
   R16        2.05416  -0.00296   0.00000  -0.00834  -0.00834   2.04583
   R17        2.05370  -0.00292   0.00000  -0.00823  -0.00823   2.04547
    A1        1.92286  -0.00436   0.00000  -0.01918  -0.01910   1.90376
    A2        2.17932   0.00205   0.00000   0.00882   0.00878   2.18809
    A3        2.18101   0.00230   0.00000   0.01036   0.01032   2.19133
    A4        1.86961  -0.00087   0.00000   0.00083   0.00081   1.87042
    A5        2.27277   0.00161   0.00000   0.00030   0.00035   2.27312
    A6        2.14081  -0.00074   0.00000  -0.00113  -0.00117   2.13965
    A7        1.86847  -0.00010   0.00000   0.00276   0.00267   1.87114
    A8        2.07300  -0.00052   0.00000  -0.00020  -0.00021   2.07279
    A9        2.34172   0.00062   0.00000  -0.00256  -0.00246   2.33926
   A10        1.88016  -0.00346   0.00000  -0.01799  -0.01804   1.86212
   A11        2.21426   0.00162   0.00000   0.00829   0.00831   2.22257
   A12        2.18876   0.00185   0.00000   0.00971   0.00973   2.19849
   A13        2.05165  -0.00189   0.00000  -0.00650  -0.00650   2.04515
   A14        2.12001   0.00104   0.00000   0.00385   0.00385   2.12386
   A15        2.11153   0.00084   0.00000   0.00264   0.00264   2.11417
   A16        2.08045  -0.00151   0.00000  -0.00648  -0.00651   2.07393
   A17        2.10817   0.00008   0.00000  -0.00088  -0.00087   2.10730
   A18        2.09457   0.00143   0.00000   0.00737   0.00738   2.10195
   A19        1.88369   0.00880   0.00000   0.03358   0.03366   1.91735
   A20        2.10522  -0.00286   0.00000  -0.00735  -0.00739   2.09783
   A21        2.29428  -0.00594   0.00000  -0.02624  -0.02627   2.26800
   A22        2.11257   0.00169   0.00000   0.00471   0.00476   2.11732
   A23        2.08404  -0.00149   0.00000  -0.00629  -0.00631   2.07772
   A24        2.08658  -0.00020   0.00000   0.00158   0.00156   2.08814
   A25        2.10789   0.00296   0.00000   0.00960   0.00963   2.11752
   A26        2.08612  -0.00165   0.00000  -0.00586  -0.00587   2.08025
   A27        2.08917  -0.00131   0.00000  -0.00374  -0.00376   2.08541
    D1       -0.00013   0.00000   0.00000   0.00018   0.00018   0.00005
    D2       -3.14154  -0.00000   0.00000  -0.00006  -0.00006   3.14158
    D3        3.14150   0.00001   0.00000   0.00021   0.00021  -3.14147
    D4        0.00009  -0.00000   0.00000  -0.00003  -0.00003   0.00006
    D5       -0.00002   0.00000   0.00000   0.00009   0.00009   0.00006
    D6       -3.14153   0.00000   0.00000   0.00001   0.00001  -3.14153
    D7        3.14153   0.00000   0.00000   0.00005   0.00005   3.14159
    D8        0.00003  -0.00000   0.00000  -0.00003  -0.00003  -0.00000
    D9        0.00022  -0.00001   0.00000  -0.00037  -0.00037  -0.00014
   D10       -3.14127  -0.00001   0.00000  -0.00036  -0.00036   3.14155
   D11       -3.14153  -0.00000   0.00000  -0.00015  -0.00015   3.14151
   D12        0.00016  -0.00000   0.00000  -0.00014  -0.00014   0.00002
   D13       -3.14155  -0.00000   0.00000  -0.00006  -0.00005   3.14158
   D14       -0.00009   0.00000   0.00000   0.00017   0.00017   0.00008
   D15        0.00024  -0.00001   0.00000  -0.00033  -0.00033  -0.00009
   D16       -3.14148  -0.00000   0.00000  -0.00011  -0.00011  -3.14159
   D17       -0.00024   0.00001   0.00000   0.00043   0.00042   0.00018
   D18       -3.14153   0.00000   0.00000   0.00005   0.00004  -3.14149
   D19        3.14123   0.00001   0.00000   0.00042   0.00041  -3.14154
   D20       -0.00005   0.00000   0.00000   0.00004   0.00003  -0.00002
   D21       -0.00056   0.00002   0.00000   0.00063   0.00063   0.00007
   D22       -3.14158  -0.00000   0.00000  -0.00007  -0.00007   3.14153
   D23        3.14116   0.00002   0.00000   0.00064   0.00064  -3.14138
   D24        0.00014  -0.00000   0.00000  -0.00006  -0.00006   0.00008
   D25        0.00016  -0.00001   0.00000  -0.00032  -0.00032  -0.00015
   D26       -3.14153  -0.00001   0.00000  -0.00022  -0.00022   3.14144
   D27        3.14146   0.00000   0.00000   0.00006   0.00005   3.14151
   D28       -0.00023   0.00000   0.00000   0.00015   0.00015  -0.00008
   D29       -0.00024   0.00001   0.00000   0.00030   0.00031   0.00006
   D30        3.14131   0.00001   0.00000   0.00033   0.00033  -3.14155
   D31        3.14148   0.00000   0.00000   0.00008   0.00008   3.14157
   D32       -0.00015   0.00000   0.00000   0.00010   0.00010  -0.00005
   D33        0.00057  -0.00002   0.00000  -0.00066  -0.00066  -0.00009
   D34       -3.14125  -0.00001   0.00000  -0.00047  -0.00047   3.14147
   D35       -3.14159   0.00000   0.00000   0.00003   0.00003  -3.14155
   D36       -0.00022   0.00001   0.00000   0.00023   0.00023   0.00001
   D37       -0.00017   0.00000   0.00000   0.00019   0.00019   0.00002
   D38       -3.14153  -0.00000   0.00000  -0.00001  -0.00001  -3.14154
   D39        3.14147   0.00000   0.00000   0.00017   0.00017  -3.14154
   D40        0.00011  -0.00000   0.00000  -0.00003  -0.00003   0.00008
         Item               Value     Threshold  Converged?
 Maximum Force            0.016869     0.000450     NO 
 RMS     Force            0.003753     0.000300     NO 
 Maximum Displacement     0.046142     0.001800     NO 
 RMS     Displacement     0.012985     0.001200     NO 
 Predicted change in Energy=-1.502547D-03
 Lowest energy point so far.  Saving SCF results.
 GradGradGradGradGradGradGradGradGradGradGradGradGradGradGradGradGradGrad

 Leave Link  103 at Sat May  4 11:03:50 2024, MaxMem= 13421772800 cpu:               4.7 elap:               0.2
 (Enter /tmpu/scunam/7/gaussian-2016.03/g1/g16/l202.exe)
                          Input orientation:                          
 ---------------------------------------------------------------------
 Center     Atomic      Atomic             Coordinates (Angstroms)
 Number     Number       Type             X           Y           Z
 ---------------------------------------------------------------------
      1          7           0        1.553044    1.128099   -0.000045
      2          6           0        0.246610    0.694868   -0.000027
      3          6           0        0.275785   -0.722514    0.000061
      4          6           0        1.650727   -1.117524   -0.000103
      5          6           0       -0.942445    1.421060   -0.000010
      6          6           0       -0.938698   -1.422037    0.000144
      7          6           0        2.390431    0.033782   -0.000040
      8          6           0       -2.124358    0.699395   -0.000008
      9          6           0       -2.122053   -0.704496    0.000055
     10          1           0        1.846986    2.088198   -0.000003
     11          1           0        2.042470   -2.121511   -0.000184
     12          1           0       -0.947635    2.503935   -0.000081
     13          1           0       -0.953782   -2.504735    0.000157
     14          1           0        3.458483    0.169214    0.000010
     15          1           0       -3.066167    1.233275   -0.000033
     16          1           0       -3.063398   -1.238809    0.000007
 ---------------------------------------------------------------------
                    Distance matrix (angstroms):
                    1          2          3          4          5
     1  N    0.000000
     2  C    1.376394   0.000000
     3  C    2.248591   1.417682   0.000000
     4  C    2.247747   2.292665   1.430559   0.000000
     5  C    2.512627   1.393272   2.465561   3.628905   0.000000
     6  C    3.565386   2.426158   1.401535   2.607268   2.843099
     7  C    1.377950   2.243436   2.245821   1.368455   3.610070
     8  C    3.702306   2.370972   2.789715   4.189566   1.384817
     9  C    4.106670   2.751142   2.397905   3.795320   2.430938
    10  H    1.004087   2.121926   3.220058   3.211724   2.868100
    11  H    3.286260   3.340225   2.253524   1.077707   4.632443
    12  H    2.854176   2.167705   3.450613   4.457180   1.082888
    13  H    4.413803   3.417367   2.165213   2.950901   3.925811
    14  H    2.133110   3.254603   3.305260   2.218936   4.575509
    15  H    4.620408   3.356244   3.872176   5.270232   2.132008
    16  H    5.187851   3.833440   3.378861   4.715685   3.401962
                    6          7          8          9         10
     6  C    0.000000
     7  C    3.633526   0.000000
     8  C    2.430280   4.563591   0.000000
     9  C    1.383905   4.572479   1.403893   0.000000
    10  H    4.481270   2.125078   4.207178   4.853082   0.000000
    11  H    3.062128   2.183200   5.031895   4.398998   4.214245
    12  H    3.925982   4.152631   2.154307   3.416619   2.825375
    13  H    1.082803   4.198551   3.411261   2.146094   5.379529
    14  H    4.676246   1.076604   5.607959   5.648517   2.505877
    15  H    3.402470   5.586882   1.082604   2.155529   4.986980
    16  H    2.132586   5.600335   2.153703   1.082415   5.931345
                   11         12         13         14         15
    11  H    0.000000
    12  H    5.507766   0.000000
    13  H    3.020660   5.008674   0.000000
    14  H    2.693048   4.986462   5.159271   0.000000
    15  H    6.111691   2.470375   4.293587   6.610846   0.000000
    16  H    5.181608   4.299371   2.460295   6.672141   2.472086
                   16
    16  H    0.000000
 Stoichiometry    C8H7N
 Framework group  C1[X(C8H7N)]
 Deg. of freedom    42
 Full point group                 C1      NOp   1
 RotChk:  IX=2 Diff= 3.76D-03
 Largest Abelian subgroup         C1      NOp   1
 Largest concise Abelian subgroup C1      NOp   1
                         Standard orientation:                         
 ---------------------------------------------------------------------
 Center     Atomic      Atomic             Coordinates (Angstroms)
 Number     Number       Type             X           Y           Z
 ---------------------------------------------------------------------
      1          7           0       -1.558983   -1.079985   -0.000045
      2          6           0       -0.245252   -0.669413   -0.000027
      3          6           0       -0.249909    0.748261    0.000061
      4          6           0       -1.617814    1.166992   -0.000103
      5          6           0        0.931066   -1.416060   -0.000010
      6          6           0        0.976490    1.426676    0.000145
      7          6           0       -2.377319    0.028650   -0.000040
      8          6           0        2.125283   -0.714944   -0.000008
      9          6           0        2.147258    0.688778    0.000055
     10          1           0       -1.869485   -2.034857   -0.000002
     11          1           0       -1.992136    2.177603   -0.000183
     12          1           0        0.917528   -2.498863   -0.000081
     13          1           0        1.010295    2.508952    0.000157
     14          1           0       -3.447553   -0.088290    0.000010
     15          1           0        3.057718   -1.265031   -0.000032
     16          1           0        3.097703    1.206731    0.000007
 ---------------------------------------------------------------------
 Rotational constants (GHZ):           3.8943315           1.6484718           1.1582038
 Leave Link  202 at Sat May  4 11:03:50 2024, MaxMem= 13421772800 cpu:               0.5 elap:               0.0
 (Enter /tmpu/scunam/7/gaussian-2016.03/g1/g16/l301.exe)
 Standard basis: def2TZVP (5D, 7F)
 Ernie: Thresh=  0.10000D-02 Tol=  0.10000D-05 Strict=F.
 There are   366 symmetry adapted cartesian basis functions of A   symmetry.
 There are   321 symmetry adapted basis functions of A   symmetry.
   321 basis functions,   515 primitive gaussians,   366 cartesian basis functions
    31 alpha electrons       31 beta electrons
       nuclear repulsion energy       401.4033480727 Hartrees.
 IExCor=  402 DFT=T Ex+Corr=B3LYP ExCW=0 ScaHFX=  0.200000
 ScaDFX=  0.800000  0.720000  1.000000  0.810000 ScalE2=  1.000000  1.000000
 IRadAn=      5 IRanWt=     -1 IRanGd=            0 ICorTp=0 IEmpDi=  4
 NAtoms=   16 NActive=   16 NUniq=   16 SFac= 1.00D+00 NAtFMM=   60 NAOKFM=F Big=F
 Integral buffers will be    131072 words long.
 Raffenetti 2 integral format.
 Two-electron integral symmetry is turned on.
 Leave Link  301 at Sat May  4 11:03:50 2024, MaxMem= 13421772800 cpu:               3.2 elap:               0.1
 (Enter /tmpu/scunam/7/gaussian-2016.03/g1/g16/l302.exe)
 NPDir=0 NMtPBC=     1 NCelOv=     1 NCel=       1 NClECP=     1 NCelD=      1
         NCelK=      1 NCelE2=     1 NClLst=     1 CellRange=     0.0.
 One-electron integrals computed using PRISM.
 One-electron integral symmetry used in STVInt
   1 Symmetry operations used in ECPInt.
 ECPInt:  NShTT=    8128 NPrTT=   24972 LenC2=    7972 LenP2D=   19696.
 LDataN:  DoStor=T MaxTD1= 6 Len=  172
 NBasis=   321 RedAO= T EigKep=  8.45D-06  NBF=   321
 NBsUse=   321 1.00D-06 EigRej= -1.00D+00 NBFU=   321
 Precomputing XC quadrature grid using
 IXCGrd= 4 IRadAn=           5 IRanWt=          -1 IRanGd=           0 AccXCQ= 0.00D+00.
 Generated NRdTot=       0 NPtTot=           0 NUsed=           0 NTot=          32
 NSgBfM=   365   365   365   365   365 MxSgAt=    16 MxSgA2=    16.
 Leave Link  302 at Sat May  4 11:03:50 2024, MaxMem= 13421772800 cpu:              13.5 elap:               0.5
 (Enter /tmpu/scunam/7/gaussian-2016.03/g1/g16/l303.exe)
 DipDrv:  MaxL=1.
 Leave Link  303 at Sat May  4 11:03:50 2024, MaxMem= 13421772800 cpu:               6.9 elap:               0.3
 (Enter /tmpu/scunam/7/gaussian-2016.03/g1/g16/l401.exe)
 Initial guess from the checkpoint file:  "indole.chk"
 B after Tr=    -0.000000   -0.000000    0.000000
         Rot=    0.999999   -0.000006    0.000010   -0.001448 Ang=  -0.17 deg.
 Guess basis will be translated and rotated to current coordinates.
 JPrj=2 DoOrth=T DoCkMO=T.
 Generating alternative initial guess.
 ExpMin= 9.52D-02 ExpMax= 1.97D+04 ExpMxC= 6.73D+02 IAcc=2 IRadAn=         4 AccDes= 0.00D+00
 Harris functional with IExCor=  402 and IRadAn=       4 diagonalized for initial guess.
 HarFok:  IExCor=  402 AccDes= 0.00D+00 IRadAn=         4 IDoV= 1 UseB2=F ITyADJ=14
 ICtDFT=  3500011 ScaDFX=  1.000000  1.000000  1.000000  1.000000
 FoFCou: FMM=F IPFlag=           0 FMFlag=      100000 FMFlg1=           0
         NFxFlg=           0 DoJE=T BraDBF=F KetDBF=T FulRan=T
         wScrn=  0.000000 ICntrl=       500 IOpCl=  0 I1Cent=   200000004 NGrid=           0
         NMat0=    1 NMatS0=      1 NMatT0=    0 NMatD0=    1 NMtDS0=    0 NMtDT0=    0
 Petite list used in FoFCou.
 Harris En= -363.993401478881    
 Leave Link  401 at Sat May  4 11:03:51 2024, MaxMem= 13421772800 cpu:              21.9 elap:               0.7
 (Enter /tmpu/scunam/7/gaussian-2016.03/g1/g16/l502.exe)
 Integral symmetry usage will be decided dynamically.
 Closed shell SCF:
 Using DIIS extrapolation, IDIIS=  1040.
 NGot= 13421772800 LenX= 13421489896 LenY= 13421355499
 Requested convergence on RMS density matrix=1.00D-08 within 128 cycles.
 Requested convergence on MAX density matrix=1.00D-06.
 Requested convergence on             energy=1.00D-06.
 No special actions if energy rises.
 Fock matrices will be formed incrementally for  20 cycles.
 Integral accuracy reduced to 1.0D-05 until final iterations.

 Cycle   1  Pass 0  IDiag  1:
 FoFJK:  IHMeth= 1 ICntrl=       0 DoSepK=F KAlg= 0 I1Cent=           0 FoldK=F
 IRaf= 960000000 NMat=       1 IRICut=       1 DoRegI=T DoRafI=F ISym2E= 0 IDoP0=0 IntGTp=1.
 FoFCou: FMM=F IPFlag=           0 FMFlag=      100000 FMFlg1=           0
         NFxFlg=           0 DoJE=F BraDBF=F KetDBF=F FulRan=T
         wScrn=  0.000000 ICntrl=         0 IOpCl=  0 I1Cent=           0 NGrid=           0
         NMat0=    1 NMatS0=      1 NMatT0=    0 NMatD0=    1 NMtDS0=    0 NMtDT0=    0
 Symmetry not used in FoFCou.
 E= -363.954377557906    
 DIIS: error= 1.10D-03 at cycle   1 NSaved=   1.
 NSaved= 1 IEnMin= 1 EnMin= -363.954377557906     IErMin= 1 ErrMin= 1.10D-03
 ErrMax= 1.10D-03  0.00D+00 EMaxC= 1.00D-01 BMatC= 7.64D-04 BMatP= 7.64D-04
 IDIUse=3 WtCom= 9.89D-01 WtEn= 1.10D-02
 Coeff-Com:  0.100D+01
 Coeff-En:   0.100D+01
 Coeff:      0.100D+01
 Gap=     0.760 Goal=   None    Shift=    0.000
 GapD=    0.760 DampG=2.000 DampE=1.000 DampFc=2.0000 IDamp=-1.
 RMSDP=2.13D-04 MaxDP=9.66D-03              OVMax= 6.60D-03

 Cycle   2  Pass 0  IDiag  1:
 RMSU=  2.12D-04    CP:  9.98D-01
 E= -363.954908291197     Delta-E=       -0.000530733292 Rises=F Damp=F
 DIIS: error= 7.33D-04 at cycle   2 NSaved=   2.
 NSaved= 2 IEnMin= 2 EnMin= -363.954908291197     IErMin= 2 ErrMin= 7.33D-04
 ErrMax= 7.33D-04  0.00D+00 EMaxC= 1.00D-01 BMatC= 9.81D-05 BMatP= 7.64D-04
 IDIUse=3 WtCom= 9.93D-01 WtEn= 7.33D-03
 Coeff-Com:  0.158D+00 0.842D+00
 Coeff-En:   0.000D+00 0.100D+01
 Coeff:      0.156D+00 0.844D+00
 Gap=     0.192 Goal=   None    Shift=    0.000
 RMSDP=4.39D-05 MaxDP=1.56D-03 DE=-5.31D-04 OVMax= 4.69D-03

 Cycle   3  Pass 0  IDiag  1:
 RMSU=  4.38D-05    CP:  9.97D-01  1.01D+00
 E= -363.954891799502     Delta-E=        0.000016491695 Rises=F Damp=F
 DIIS: error= 8.49D-04 at cycle   3 NSaved=   3.
 NSaved= 3 IEnMin= 2 EnMin= -363.954908291197     IErMin= 2 ErrMin= 7.33D-04
 ErrMax= 8.49D-04  0.00D+00 EMaxC= 1.00D-01 BMatC= 1.08D-04 BMatP= 9.81D-05
 IDIUse=3 WtCom= 9.92D-01 WtEn= 8.49D-03
 Coeff-Com:  0.103D-03 0.512D+00 0.488D+00
 Coeff-En:   0.000D+00 0.538D+00 0.462D+00
 Coeff:      0.102D-03 0.512D+00 0.488D+00
 Gap=     0.192 Goal=   None    Shift=    0.000
 RMSDP=2.40D-05 MaxDP=9.32D-04 DE= 1.65D-05 OVMax= 3.54D-03

 Cycle   4  Pass 0  IDiag  1:
 RMSU=  1.37D-05    CP:  9.98D-01  1.02D+00  5.51D-01
 E= -363.954991268340     Delta-E=       -0.000099468838 Rises=F Damp=F
 DIIS: error= 1.42D-04 at cycle   4 NSaved=   4.
 NSaved= 4 IEnMin= 4 EnMin= -363.954991268340     IErMin= 4 ErrMin= 1.42D-04
 ErrMax= 1.42D-04  0.00D+00 EMaxC= 1.00D-01 BMatC= 3.29D-06 BMatP= 9.81D-05
 IDIUse=3 WtCom= 9.99D-01 WtEn= 1.42D-03
 Coeff-Com: -0.451D-02 0.222D+00 0.253D+00 0.530D+00
 Coeff-En:   0.000D+00 0.000D+00 0.000D+00 0.100D+01
 Coeff:     -0.450D-02 0.222D+00 0.253D+00 0.530D+00
 Gap=     0.192 Goal=   None    Shift=    0.000
 RMSDP=7.47D-06 MaxDP=1.73D-04 DE=-9.95D-05 OVMax= 1.03D-03

 Initial convergence to 1.0D-05 achieved.  Increase integral accuracy.
 Cycle   5  Pass 1  IDiag  1:
 E= -363.954994609713     Delta-E=       -0.000003341373 Rises=F Damp=F
 DIIS: error= 9.86D-05 at cycle   1 NSaved=   1.
 NSaved= 1 IEnMin= 1 EnMin= -363.954994609713     IErMin= 1 ErrMin= 9.86D-05
 ErrMax= 9.86D-05  0.00D+00 EMaxC= 1.00D-01 BMatC= 2.80D-06 BMatP= 2.80D-06
 IDIUse=1 WtCom= 1.00D+00 WtEn= 0.00D+00
 Coeff-Com:  0.100D+01
 Coeff:      0.100D+01
 Gap=     0.192 Goal=   None    Shift=    0.000
 RMSDP=7.47D-06 MaxDP=1.73D-04 DE=-3.34D-06 OVMax= 9.46D-04

 Cycle   6  Pass 1  IDiag  1:
 RMSU=  8.77D-05    CP:  1.00D+00
 E= -363.954993161018     Delta-E=        0.000001448695 Rises=F Damp=F
 DIIS: error= 1.09D-04 at cycle   2 NSaved=   2.
 NSaved= 2 IEnMin= 1 EnMin= -363.954994609713     IErMin= 1 ErrMin= 9.86D-05
 ErrMax= 1.09D-04  0.00D+00 EMaxC= 1.00D-01 BMatC= 2.50D-06 BMatP= 2.80D-06
 IDIUse=3 WtCom= 9.99D-01 WtEn= 1.09D-03
 Coeff-Com:  0.481D+00 0.519D+00
 Coeff-En:   0.676D+00 0.324D+00
 Coeff:      0.481D+00 0.519D+00
 Gap=     0.192 Goal=   None    Shift=    0.000
 RMSDP=5.88D-06 MaxDP=2.11D-04 DE= 1.45D-06 OVMax= 1.03D-03

 Cycle   7  Pass 1  IDiag  1:
 RMSU=  5.87D-06    CP:  1.00D+00  9.97D-01
 E= -363.954994981160     Delta-E=       -0.000001820141 Rises=F Damp=F
 DIIS: error= 6.78D-05 at cycle   3 NSaved=   3.
 NSaved= 3 IEnMin= 3 EnMin= -363.954994981160     IErMin= 3 ErrMin= 6.78D-05
 ErrMax= 6.78D-05  0.00D+00 EMaxC= 1.00D-01 BMatC= 8.19D-07 BMatP= 2.50D-06
 IDIUse=1 WtCom= 1.00D+00 WtEn= 0.00D+00
 Coeff-Com:  0.159D-01 0.362D+00 0.622D+00
 Coeff:      0.159D-01 0.362D+00 0.622D+00
 Gap=     0.192 Goal=   None    Shift=    0.000
 RMSDP=2.54D-06 MaxDP=7.42D-05 DE=-1.82D-06 OVMax= 4.20D-04

 Cycle   8  Pass 1  IDiag  1:
 RMSU=  7.32D-07    CP:  1.00D+00  1.01D+00  6.27D-01
 E= -363.954995858785     Delta-E=       -0.000000877625 Rises=F Damp=F
 DIIS: error= 1.08D-05 at cycle   4 NSaved=   4.
 NSaved= 4 IEnMin= 4 EnMin= -363.954995858785     IErMin= 4 ErrMin= 1.08D-05
 ErrMax= 1.08D-05  0.00D+00 EMaxC= 1.00D-01 BMatC= 3.37D-08 BMatP= 8.19D-07
 IDIUse=1 WtCom= 1.00D+00 WtEn= 0.00D+00
 Coeff-Com: -0.931D-03 0.209D+00 0.381D+00 0.411D+00
 Coeff:     -0.931D-03 0.209D+00 0.381D+00 0.411D+00
 Gap=     0.192 Goal=   None    Shift=    0.000
 RMSDP=4.09D-07 MaxDP=1.88D-05 DE=-8.78D-07 OVMax= 7.05D-05

 Cycle   9  Pass 1  IDiag  1:
 RMSU=  2.52D-07    CP:  1.00D+00  1.01D+00  6.45D-01  5.84D-01
 E= -363.954995891068     Delta-E=       -0.000000032284 Rises=F Damp=F
 DIIS: error= 1.77D-06 at cycle   5 NSaved=   5.
 NSaved= 5 IEnMin= 5 EnMin= -363.954995891068     IErMin= 5 ErrMin= 1.77D-06
 ErrMax= 1.77D-06  0.00D+00 EMaxC= 1.00D-01 BMatC= 6.50D-10 BMatP= 3.37D-08
 IDIUse=1 WtCom= 1.00D+00 WtEn= 0.00D+00
 Coeff-Com: -0.872D-03 0.121D+00 0.222D+00 0.250D+00 0.408D+00
 Coeff:     -0.872D-03 0.121D+00 0.222D+00 0.250D+00 0.408D+00
 Gap=     0.192 Goal=   None    Shift=    0.000
 RMSDP=6.90D-08 MaxDP=2.10D-06 DE=-3.23D-08 OVMax= 1.00D-05

 Cycle  10  Pass 1  IDiag  1:
 RMSU=  5.86D-08    CP:  1.00D+00  1.01D+00  6.45D-01  6.06D-01  8.82D-01
 E= -363.954995891694     Delta-E=       -0.000000000626 Rises=F Damp=F
 DIIS: error= 4.22D-07 at cycle   6 NSaved=   6.
 NSaved= 6 IEnMin= 6 EnMin= -363.954995891694     IErMin= 6 ErrMin= 4.22D-07
 ErrMax= 4.22D-07  0.00D+00 EMaxC= 1.00D-01 BMatC= 2.67D-11 BMatP= 6.50D-10
 IDIUse=1 WtCom= 1.00D+00 WtEn= 0.00D+00
 Coeff-Com: -0.380D-03 0.475D-01 0.868D-01 0.100D+00 0.219D+00 0.547D+00
 Coeff:     -0.380D-03 0.475D-01 0.868D-01 0.100D+00 0.219D+00 0.547D+00
 Gap=     0.192 Goal=   None    Shift=    0.000
 RMSDP=1.99D-08 MaxDP=5.92D-07 DE=-6.26D-10 OVMax= 2.51D-06

 Cycle  11  Pass 1  IDiag  1:
 RMSU=  1.58D-08    CP:  1.00D+00  1.01D+00  6.45D-01  6.03D-01  9.14D-01
                    CP:  8.85D-01
 E= -363.954995891721     Delta-E=       -0.000000000026 Rises=F Damp=F
 DIIS: error= 1.15D-07 at cycle   7 NSaved=   7.
 NSaved= 7 IEnMin= 7 EnMin= -363.954995891721     IErMin= 7 ErrMin= 1.15D-07
 ErrMax= 1.15D-07  0.00D+00 EMaxC= 1.00D-01 BMatC= 3.14D-12 BMatP= 2.67D-11
 IDIUse=1 WtCom= 1.00D+00 WtEn= 0.00D+00
 Coeff-Com: -0.937D-04 0.102D-01 0.186D-01 0.224D-01 0.648D-01 0.307D+00
 Coeff-Com:  0.577D+00
 Coeff:     -0.937D-04 0.102D-01 0.186D-01 0.224D-01 0.648D-01 0.307D+00
 Coeff:      0.577D+00
 Gap=     0.192 Goal=   None    Shift=    0.000
 RMSDP=6.15D-09 MaxDP=1.27D-07 DE=-2.61D-11 OVMax= 7.14D-07

 SCF Done:  E(RB3LYP) =  -363.954995892     A.U. after   11 cycles
            NFock= 11  Conv=0.62D-08     -V/T= 2.0051
 KE= 3.620977055322D+02 PE=-1.647911823688D+03 EE= 5.204557741911D+02
 Leave Link  502 at Sat May  4 11:04:13 2024, MaxMem= 13421772800 cpu:             695.5 elap:              21.8
 (Enter /tmpu/scunam/7/gaussian-2016.03/g1/g16/l508.exe)
 QCSCF skips out because SCF is already converged.
 Leave Link  508 at Sat May  4 11:04:13 2024, MaxMem= 13421772800 cpu:               0.1 elap:               0.0
 (Enter /tmpu/scunam/7/gaussian-2016.03/g1/g16/l701.exe)
 ... and contract with generalized density number  0.
 Compute integral first derivatives.
   1 Symmetry operations used in ECPInt.
 ECPInt:  NShTT=    8128 NPrTT=   24972 LenC2=    7972 LenP2D=   19696.
 LDataN:  DoStor=T MaxTD1= 7 Len=  274
 Leave Link  701 at Sat May  4 11:04:13 2024, MaxMem= 13421772800 cpu:               9.9 elap:               0.3
 (Enter /tmpu/scunam/7/gaussian-2016.03/g1/g16/l702.exe)
 L702 exits ... SP integral derivatives will be done elsewhere.
 Leave Link  702 at Sat May  4 11:04:13 2024, MaxMem= 13421772800 cpu:               1.7 elap:               0.1
 (Enter /tmpu/scunam/7/gaussian-2016.03/g1/g16/l703.exe)
 Integral derivatives from FoFJK, PRISM(SPDF).
 Compute integral first derivatives, UseDBF=F ICtDFT=           0.
 Calling FoFJK, ICntrl=      2127 FMM=F ISym2X=0 I1Cent= 0 IOpClX= 0 NMat=1 NMatS=1 NMatT=0.
 FoFJK:  IHMeth= 1 ICntrl=    2127 DoSepK=F KAlg= 0 I1Cent=           0 FoldK=F
 IRaf=         0 NMat=       1 IRICut=       1 DoRegI=T DoRafI=F ISym2E= 0 IDoP0=0 IntGTp=1.
 FoFCou: FMM=F IPFlag=           0 FMFlag=      100000 FMFlg1=         800
         NFxFlg=           0 DoJE=F BraDBF=F KetDBF=F FulRan=T
         wScrn=  0.000000 ICntrl=      2127 IOpCl=  0 I1Cent=           0 NGrid=           0
         NMat0=    1 NMatS0=      1 NMatT0=    0 NMatD0=    1 NMtDS0=    0 NMtDT0=    0
 Symmetry not used in FoFCou.
 Leave Link  703 at Sat May  4 11:04:25 2024, MaxMem= 13421772800 cpu:             357.2 elap:              11.2
 (Enter /tmpu/scunam/7/gaussian-2016.03/g1/g16/l716.exe)
 Dipole        =-6.00174840D-01-6.12493058D-01-2.48530592D-05
 ***** Axes restored to original set *****
 -------------------------------------------------------------------
 Center     Atomic                   Forces (Hartrees/Bohr)
 Number     Number              X              Y              Z
 -------------------------------------------------------------------
      1        7          -0.000639154   -0.001710874    0.000002051
      2        6           0.000882521    0.001964215    0.000013986
      3        6          -0.002610515   -0.002353929   -0.000016916
      4        6           0.002729086    0.004484557    0.000017401
      5        6          -0.000672567   -0.002250545   -0.000005754
      6        6          -0.000845960    0.002282339   -0.000012051
      7        6           0.000981928   -0.001728094   -0.000008261
      8        6          -0.000471057    0.002202072    0.000001991
      9        6           0.000164040   -0.002485761    0.000003091
     10        1           0.000383468   -0.000557066   -0.000000159
     11        1          -0.000149165    0.000419642    0.000003543
     12        1           0.000164753    0.000108530    0.000001556
     13        1           0.000358377   -0.000131406    0.000001446
     14        1           0.000783891   -0.000307796   -0.000004197
     15        1          -0.000410835   -0.000582939   -0.000000821
     16        1          -0.000648809    0.000647054    0.000003095
 -------------------------------------------------------------------
 Cartesian Forces:  Max     0.004484557 RMS     0.001270301
 Leave Link  716 at Sat May  4 11:04:25 2024, MaxMem= 13421772800 cpu:               0.7 elap:               0.0
 (Enter /tmpu/scunam/7/gaussian-2016.03/g1/g16/l103.exe)

 GradGradGradGradGradGradGradGradGradGradGradGradGradGradGradGradGradGrad
 Berny optimization.
 Using GEDIIS/GDIIS optimizer.
 FormGI is forming the generalized inverse of G from B-inverse, IUseBI=4.
 Internal  Forces:  Max     0.002662970 RMS     0.000737396
 Search for a local minimum.
 Step number   2 out of a maximum of  100
 All quantities printed in internal units (Hartrees-Bohrs-Radians)
 RMS Force = .73740D-03 SwitMx=.10000D-02 MixMth= 2
 Mixed Optimization -- En-DIIS/RFO-DIIS
 Update second derivatives using D2CorX and points    1    2
 DE= -1.41D-03 DEPred=-1.50D-03 R= 9.36D-01
 TightC=F SS=  1.41D+00  RLast= 9.07D-02 DXNew= 5.0454D-01 2.7196D-01
 Trust test= 9.36D-01 RLast= 9.07D-02 DXMaxT set to 3.00D-01
 ITU=  1  0
 Use linear search instead of GDIIS.
     Eigenvalues ---    0.01938   0.02003   0.02030   0.02042   0.02055
     Eigenvalues ---    0.02082   0.02101   0.02108   0.02127   0.02135
     Eigenvalues ---    0.02150   0.02159   0.02288   0.15773   0.16000
     Eigenvalues ---    0.16000   0.16000   0.16000   0.16000   0.16089
     Eigenvalues ---    0.21994   0.22235   0.23923   0.24646   0.25634
     Eigenvalues ---    0.35085   0.35206   0.35242   0.35402   0.35539
     Eigenvalues ---    0.36034   0.36604   0.39855   0.41141   0.43261
     Eigenvalues ---    0.44765   0.45505   0.45895   0.46065   0.47752
     Eigenvalues ---    0.49715   0.50577
 RFO step:  Lambda=-1.48515337D-04 EMin= 1.93770643D-02
 Quartic linear search produced a step of -0.05069.
 Iteration  1 RMS(Cart)=  0.00384556 RMS(Int)=  0.00000587
 Iteration  2 RMS(Cart)=  0.00000817 RMS(Int)=  0.00000303
 Iteration  3 RMS(Cart)=  0.00000000 RMS(Int)=  0.00000303
 ITry= 1 IFail=0 DXMaxC= 1.21D-02 DCOld= 1.00D+10 DXMaxT= 3.00D-01 DXLimC= 3.00D+00 Rises=F
 Variable       Old X    -DE/DX   Delta X   Delta X   Delta X     New X
                                 (Linear)    (Quad)   (Total)
    R1        2.60101   0.00093   0.00004   0.00186   0.00189   2.60290
    R2        2.60395  -0.00005  -0.00085   0.00149   0.00063   2.60458
    R3        1.89745  -0.00042   0.00062  -0.00210  -0.00148   1.89597
    R4        2.67903  -0.00027  -0.00202   0.00365   0.00164   2.68067
    R5        2.63290   0.00057   0.00059   0.00001   0.00060   2.63350
    R6        2.70336   0.00223  -0.00072   0.00643   0.00572   2.70908
    R7        2.64852   0.00033   0.00070  -0.00074  -0.00004   2.64848
    R8        2.58601  -0.00266   0.00071  -0.00671  -0.00601   2.58000
    R9        2.03657  -0.00045   0.00036  -0.00189  -0.00153   2.03504
   R10        2.61692   0.00028   0.00124  -0.00183  -0.00059   2.61633
   R11        2.04636   0.00011   0.00019  -0.00010   0.00010   2.04646
   R12        2.61520  -0.00020   0.00152  -0.00343  -0.00191   2.61329
   R13        2.04620   0.00013   0.00033  -0.00031   0.00002   2.04622
   R14        2.03449   0.00074   0.00041   0.00114   0.00155   2.03604
   R15        2.65297   0.00068  -0.00099   0.00341   0.00242   2.65540
   R16        2.04583   0.00007   0.00042  -0.00065  -0.00023   2.04559
   R17        2.04547   0.00024   0.00042  -0.00017   0.00025   2.04571
    A1        1.90376   0.00138   0.00097   0.00390   0.00486   1.90862
    A2        2.18809  -0.00019  -0.00045   0.00095   0.00051   2.18861
    A3        2.19133  -0.00119  -0.00052  -0.00485  -0.00537   2.18596
    A4        1.87042  -0.00048  -0.00004  -0.00115  -0.00119   1.86923
    A5        2.27312   0.00152  -0.00002   0.00565   0.00562   2.27874
    A6        2.13965  -0.00104   0.00006  -0.00450  -0.00444   2.13521
    A7        1.87114  -0.00154  -0.00014  -0.00529  -0.00541   1.86572
    A8        2.07279  -0.00001   0.00001  -0.00042  -0.00041   2.07238
    A9        2.33926   0.00155   0.00012   0.00571   0.00582   2.34508
   A10        1.86212   0.00213   0.00091   0.00654   0.00746   1.86957
   A11        2.22257  -0.00105  -0.00042  -0.00326  -0.00368   2.21889
   A12        2.19849  -0.00108  -0.00049  -0.00328  -0.00378   2.19472
   A13        2.04515   0.00127   0.00033   0.00489   0.00522   2.05037
   A14        2.12386  -0.00081  -0.00020  -0.00338  -0.00358   2.12028
   A15        2.11417  -0.00047  -0.00013  -0.00150  -0.00164   2.11253
   A16        2.07393   0.00107   0.00033   0.00381   0.00414   2.07808
   A17        2.10730  -0.00090   0.00004  -0.00451  -0.00447   2.10284
   A18        2.10195  -0.00017  -0.00037   0.00070   0.00032   2.10227
   A19        1.91735  -0.00149  -0.00171  -0.00400  -0.00571   1.91163
   A20        2.09783   0.00116   0.00037   0.00539   0.00577   2.10360
   A21        2.26800   0.00034   0.00133  -0.00139  -0.00005   2.26795
   A22        2.11732  -0.00057  -0.00024  -0.00176  -0.00201   2.11532
   A23        2.07772   0.00101   0.00032   0.00479   0.00511   2.08283
   A24        2.08814  -0.00044  -0.00008  -0.00303  -0.00310   2.08503
   A25        2.11752  -0.00072  -0.00049  -0.00202  -0.00251   2.11501
   A26        2.08025   0.00126   0.00030   0.00626   0.00656   2.08680
   A27        2.08541  -0.00054   0.00019  -0.00423  -0.00404   2.08137
    D1        0.00005  -0.00000  -0.00001  -0.00005  -0.00006  -0.00000
    D2        3.14158   0.00000   0.00000   0.00006   0.00006  -3.14155
    D3       -3.14147  -0.00000  -0.00001  -0.00010  -0.00011  -3.14158
    D4        0.00006   0.00000   0.00000  -0.00000   0.00000   0.00006
    D5        0.00006  -0.00000  -0.00000  -0.00016  -0.00016  -0.00010
    D6       -3.14153  -0.00000  -0.00000  -0.00006  -0.00006  -3.14159
    D7        3.14159  -0.00000  -0.00000  -0.00010  -0.00010   3.14148
    D8       -0.00000  -0.00000   0.00000  -0.00000  -0.00000  -0.00000
    D9       -0.00014   0.00001   0.00002   0.00022   0.00024   0.00010
   D10        3.14155   0.00000   0.00002   0.00007   0.00009  -3.14154
   D11        3.14151   0.00000   0.00001   0.00013   0.00014  -3.14154
   D12        0.00002  -0.00000   0.00001  -0.00002  -0.00002   0.00001
   D13        3.14158  -0.00000   0.00000  -0.00004  -0.00004   3.14154
   D14        0.00008  -0.00000  -0.00001  -0.00011  -0.00012  -0.00004
   D15       -0.00009   0.00000   0.00002   0.00008   0.00009   0.00001
   D16       -3.14159   0.00000   0.00001   0.00001   0.00001  -3.14158
   D17        0.00018  -0.00001  -0.00002  -0.00031  -0.00034  -0.00015
   D18       -3.14149  -0.00000  -0.00000  -0.00015  -0.00015   3.14155
   D19       -3.14154  -0.00000  -0.00002  -0.00013  -0.00015   3.14150
   D20       -0.00002   0.00000  -0.00000   0.00003   0.00003   0.00001
   D21        0.00007  -0.00000  -0.00003  -0.00005  -0.00008  -0.00002
   D22        3.14153   0.00000   0.00000   0.00009   0.00009  -3.14156
   D23       -3.14138  -0.00001  -0.00003  -0.00025  -0.00029   3.14152
   D24        0.00008  -0.00000   0.00000  -0.00011  -0.00011  -0.00003
   D25       -0.00015   0.00001   0.00002   0.00029   0.00031   0.00016
   D26        3.14144   0.00000   0.00001   0.00018   0.00019  -3.14155
   D27        3.14151   0.00000  -0.00000   0.00013   0.00013  -3.14154
   D28       -0.00008   0.00000  -0.00001   0.00002   0.00001  -0.00007
   D29        0.00006  -0.00000  -0.00002  -0.00006  -0.00007  -0.00001
   D30       -3.14155  -0.00000  -0.00002  -0.00004  -0.00006   3.14157
   D31        3.14157   0.00000  -0.00000   0.00001   0.00001   3.14157
   D32       -0.00005   0.00000  -0.00001   0.00003   0.00002  -0.00003
   D33       -0.00009   0.00000   0.00003   0.00007   0.00011   0.00001
   D34        3.14147   0.00000   0.00002   0.00012   0.00014  -3.14157
   D35       -3.14155  -0.00000  -0.00000  -0.00007  -0.00007   3.14156
   D36        0.00001  -0.00000  -0.00001  -0.00003  -0.00004  -0.00003
   D37        0.00002  -0.00000  -0.00001  -0.00002  -0.00003  -0.00000
   D38       -3.14154  -0.00000   0.00000  -0.00006  -0.00006   3.14158
   D39       -3.14154  -0.00000  -0.00001  -0.00003  -0.00004  -3.14158
   D40        0.00008  -0.00000   0.00000  -0.00008  -0.00008   0.00000
         Item               Value     Threshold  Converged?
 Maximum Force            0.002663     0.000450     NO 
 RMS     Force            0.000737     0.000300     NO 
 Maximum Displacement     0.012139     0.001800     NO 
 RMS     Displacement     0.003842     0.001200     NO 
 Predicted change in Energy=-7.826490D-05
 Lowest energy point so far.  Saving SCF results.
 GradGradGradGradGradGradGradGradGradGradGradGradGradGradGradGradGradGrad

 Leave Link  103 at Sat May  4 11:04:25 2024, MaxMem= 13421772800 cpu:               1.9 elap:               0.1
 (Enter /tmpu/scunam/7/gaussian-2016.03/g1/g16/l202.exe)
                          Input orientation:                          
 ---------------------------------------------------------------------
 Center     Atomic      Atomic             Coordinates (Angstroms)
 Number     Number       Type             X           Y           Z
 ---------------------------------------------------------------------
      1          7           0        1.555395    1.126164   -0.000059
      2          6           0        0.246943    0.695857    0.000001
      3          6           0        0.274305   -0.722426   -0.000005
      4          6           0        1.653776   -1.112587    0.000059
      5          6           0       -0.944662    1.418468    0.000008
      6          6           0       -0.941344   -1.419877   -0.000010
      7          6           0        2.395588    0.033577   -0.000100
      8          6           0       -2.127799    0.699417    0.000017
      9          6           0       -2.125585   -0.705757    0.000009
     10          1           0        1.851973    2.084631   -0.000064
     11          1           0        2.045668   -2.115644    0.000111
     12          1           0       -0.949383    2.501397   -0.000003
     13          1           0       -0.953430   -2.502621    0.000016
     14          1           0        3.464906    0.165493   -0.000144
     15          1           0       -3.071120    1.230372    0.000040
     16          1           0       -3.069231   -1.236264    0.000026
 ---------------------------------------------------------------------
                    Distance matrix (angstroms):
                    1          2          3          4          5
     1  N    0.000000
     2  C    1.377393   0.000000
     3  C    2.249106   1.418547   0.000000
     4  C    2.240912   2.291212   1.433585   0.000000
     5  C    2.517087   1.393588   2.463596   3.627412   0.000000
     6  C    3.565954   2.426593   1.401513   2.613249   2.838346
     7  C    1.378285   2.248397   2.251973   1.365276   3.615963
     8  C    3.707834   2.374744   2.791369   4.193288   1.384503
     9  C    4.111636   2.755614   2.399948   3.801194   2.430414
    10  H    1.003304   2.122455   3.220032   3.203356   2.874881
    11  H    3.278671   3.337657   2.253616   1.076895   4.629473
    12  H    2.857478   2.165911   3.448253   4.453910   1.082939
    13  H    4.411607   3.416307   2.162505   2.954609   3.921098
    14  H    2.137550   3.261376   3.311848   2.216683   4.584129
    15  H    4.627688   3.360840   3.873666   5.273907   2.134760
    16  H    5.193094   3.837981   3.382789   4.724626   3.400205
                    6          7          8          9         10
     6  C    0.000000
     7  C    3.639731   0.000000
     8  C    2.428803   4.572130   0.000000
     9  C    1.382893   4.581224   1.405176   0.000000
    10  H    4.481539   2.121872   4.213953   4.858727   0.000000
    11  H    3.066975   2.177521   5.034123   4.403082   4.204739
    12  H    3.921282   4.156797   2.153090   3.416034   2.832188
    13  H    1.082811   4.200978   3.410600   2.145382   5.377096
    14  H    4.682781   1.077425   5.618134   5.657974   2.506920
    15  H    3.399966   5.596178   1.082482   2.154677   4.996659
    16  H    2.135794   5.610414   2.152476   1.082546   5.936884
                   11         12         13         14         15
    11  H    0.000000
    12  H    5.503399   0.000000
    13  H    3.023961   5.004019   0.000000
    14  H    2.686600   4.994237   5.161446   0.000000
    15  H    6.113701   2.473311   4.291835   6.622205   0.000000
    16  H    5.189943   4.296959   2.465821   6.682804   2.466637
                   16
    16  H    0.000000
 Stoichiometry    C8H7N
 Framework group  C1[X(C8H7N)]
 Deg. of freedom    42
 Full point group                 C1      NOp   1
 RotChk:  IX=0 Diff= 5.19D-04
 Largest Abelian subgroup         C1      NOp   1
 Largest concise Abelian subgroup C1      NOp   1
                         Standard orientation:                         
 ---------------------------------------------------------------------
 Center     Atomic      Atomic             Coordinates (Angstroms)
 Number     Number       Type             X           Y           Z
 ---------------------------------------------------------------------
      1          7           0       -1.561851   -1.077288   -0.000050
      2          6           0       -0.246002   -0.670157    0.000010
      3          6           0       -0.248312    0.748389    0.000004
      4          6           0       -1.620677    1.162852    0.000068
      5          6           0        0.932654   -1.413699    0.000017
      6          6           0        0.979465    1.424261   -0.000001
      7          6           0       -2.382616    0.029967   -0.000091
      8          6           0        2.128306   -0.715656    0.000026
      9          6           0        2.150909    0.689338    0.000018
     10          1           0       -1.875309   -2.030368   -0.000055
     11          1           0       -1.994794    2.172673    0.000120
     12          1           0        0.918249   -2.496543    0.000006
     13          1           0        1.010671    2.506623    0.000025
     14          1           0       -3.454097   -0.083043   -0.000135
     15          1           0        3.062102   -1.263189    0.000049
     16          1           0        3.103777    1.203096    0.000035
 ---------------------------------------------------------------------
 Rotational constants (GHZ):           3.9064104           1.6424325           1.1562799
 Leave Link  202 at Sat May  4 11:04:25 2024, MaxMem= 13421772800 cpu:               2.7 elap:               0.1
 (Enter /tmpu/scunam/7/gaussian-2016.03/g1/g16/l301.exe)
 Standard basis: def2TZVP (5D, 7F)
 Ernie: Thresh=  0.10000D-02 Tol=  0.10000D-05 Strict=F.
 There are   366 symmetry adapted cartesian basis functions of A   symmetry.
 There are   321 symmetry adapted basis functions of A   symmetry.
   321 basis functions,   515 primitive gaussians,   366 cartesian basis functions
    31 alpha electrons       31 beta electrons
       nuclear repulsion energy       401.2586949947 Hartrees.
 IExCor=  402 DFT=T Ex+Corr=B3LYP ExCW=0 ScaHFX=  0.200000
 ScaDFX=  0.800000  0.720000  1.000000  0.810000 ScalE2=  1.000000  1.000000
 IRadAn=      5 IRanWt=     -1 IRanGd=            0 ICorTp=0 IEmpDi=  4
 NAtoms=   16 NActive=   16 NUniq=   16 SFac= 1.00D+00 NAtFMM=   60 NAOKFM=F Big=F
 Integral buffers will be    131072 words long.
 Raffenetti 2 integral format.
 Two-electron integral symmetry is turned on.
 Leave Link  301 at Sat May  4 11:04:25 2024, MaxMem= 13421772800 cpu:               3.0 elap:               0.1
 (Enter /tmpu/scunam/7/gaussian-2016.03/g1/g16/l302.exe)
 NPDir=0 NMtPBC=     1 NCelOv=     1 NCel=       1 NClECP=     1 NCelD=      1
         NCelK=      1 NCelE2=     1 NClLst=     1 CellRange=     0.0.
 One-electron integrals computed using PRISM.
 One-electron integral symmetry used in STVInt
   1 Symmetry operations used in ECPInt.
 ECPInt:  NShTT=    8128 NPrTT=   24972 LenC2=    7970 LenP2D=   19690.
 LDataN:  DoStor=T MaxTD1= 6 Len=  172
 NBasis=   321 RedAO= T EigKep=  8.44D-06  NBF=   321
 NBsUse=   321 1.00D-06 EigRej= -1.00D+00 NBFU=   321
 Precomputing XC quadrature grid using
 IXCGrd= 4 IRadAn=           5 IRanWt=          -1 IRanGd=           0 AccXCQ= 0.00D+00.
 Generated NRdTot=       0 NPtTot=           0 NUsed=           0 NTot=          32
 NSgBfM=   365   365   365   365   365 MxSgAt=    16 MxSgA2=    16.
 Leave Link  302 at Sat May  4 11:04:25 2024, MaxMem= 13421772800 cpu:              10.3 elap:               0.3
 (Enter /tmpu/scunam/7/gaussian-2016.03/g1/g16/l303.exe)
 DipDrv:  MaxL=1.
 Leave Link  303 at Sat May  4 11:04:26 2024, MaxMem= 13421772800 cpu:               2.3 elap:               0.1
 (Enter /tmpu/scunam/7/gaussian-2016.03/g1/g16/l401.exe)
 Initial guess from the checkpoint file:  "indole.chk"
 B after Tr=     0.000000    0.000000   -0.000000
         Rot=    1.000000    0.000005   -0.000004    0.000130 Ang=   0.01 deg.
 Guess basis will be translated and rotated to current coordinates.
 JPrj=2 DoOrth=T DoCkMO=T.
 Leave Link  401 at Sat May  4 11:04:26 2024, MaxMem= 13421772800 cpu:               6.8 elap:               0.2
 (Enter /tmpu/scunam/7/gaussian-2016.03/g1/g16/l502.exe)
 Integral symmetry usage will be decided dynamically.
 Closed shell SCF:
 Using DIIS extrapolation, IDIIS=  1040.
 NGot= 13421772800 LenX= 13421489896 LenY= 13421355499
 Requested convergence on RMS density matrix=1.00D-08 within 128 cycles.
 Requested convergence on MAX density matrix=1.00D-06.
 Requested convergence on             energy=1.00D-06.
 No special actions if energy rises.
 Fock matrices will be formed incrementally for  20 cycles.

 Cycle   1  Pass 1  IDiag  1:
 FoFJK:  IHMeth= 1 ICntrl=       0 DoSepK=F KAlg= 0 I1Cent=           0 FoldK=F
 IRaf= 950000000 NMat=       1 IRICut=       1 DoRegI=T DoRafI=F ISym2E= 0 IDoP0=0 IntGTp=1.
 FoFCou: FMM=F IPFlag=           0 FMFlag=      100000 FMFlg1=           0
         NFxFlg=           0 DoJE=F BraDBF=F KetDBF=F FulRan=T
         wScrn=  0.000000 ICntrl=         0 IOpCl=  0 I1Cent=           0 NGrid=           0
         NMat0=    1 NMatS0=      1 NMatT0=    0 NMatD0=    1 NMtDS0=    0 NMtDT0=    0
 Symmetry not used in FoFCou.
 E= -363.955051710135    
 DIIS: error= 3.56D-04 at cycle   1 NSaved=   1.
 NSaved= 1 IEnMin= 1 EnMin= -363.955051710135     IErMin= 1 ErrMin= 3.56D-04
 ErrMax= 3.56D-04  0.00D+00 EMaxC= 1.00D-01 BMatC= 3.50D-05 BMatP= 3.50D-05
 IDIUse=3 WtCom= 9.96D-01 WtEn= 3.56D-03
 Coeff-Com:  0.100D+01
 Coeff-En:   0.100D+01
 Coeff:      0.100D+01
 Gap=     0.759 Goal=   None    Shift=    0.000
 RMSDP=3.20D-05 MaxDP=7.82D-04              OVMax= 1.28D-03

 Cycle   2  Pass 1  IDiag  1:
 RMSU=  3.19D-05    CP:  1.00D+00
 E= -363.955073951903     Delta-E=       -0.000022241768 Rises=F Damp=F
 DIIS: error= 6.60D-05 at cycle   2 NSaved=   2.
 NSaved= 2 IEnMin= 2 EnMin= -363.955073951903     IErMin= 2 ErrMin= 6.60D-05
 ErrMax= 6.60D-05  0.00D+00 EMaxC= 1.00D-01 BMatC= 1.97D-06 BMatP= 3.50D-05
 IDIUse=1 WtCom= 1.00D+00 WtEn= 0.00D+00
 Coeff-Com:  0.733D-01 0.927D+00
 Coeff:      0.733D-01 0.927D+00
 Gap=     0.192 Goal=   None    Shift=    0.000
 RMSDP=7.11D-06 MaxDP=3.13D-04 DE=-2.22D-05 OVMax= 7.61D-04

 Cycle   3  Pass 1  IDiag  1:
 RMSU=  7.10D-06    CP:  1.00D+00  1.01D+00
 E= -363.955072675957     Delta-E=        0.000001275946 Rises=F Damp=F
 DIIS: error= 9.66D-05 at cycle   3 NSaved=   3.
 NSaved= 3 IEnMin= 2 EnMin= -363.955073951903     IErMin= 2 ErrMin= 6.60D-05
 ErrMax= 9.66D-05  0.00D+00 EMaxC= 1.00D-01 BMatC= 3.11D-06 BMatP= 1.97D-06
 IDIUse=1 WtCom= 1.00D+00 WtEn= 0.00D+00
 Coeff-Com: -0.298D-02 0.560D+00 0.443D+00
 Coeff:     -0.298D-02 0.560D+00 0.443D+00
 Gap=     0.192 Goal=   None    Shift=    0.000
 RMSDP=4.54D-06 MaxDP=2.27D-04 DE= 1.28D-06 OVMax= 5.81D-04

 Cycle   4  Pass 1  IDiag  1:
 RMSU=  2.31D-06    CP:  1.00D+00  1.03D+00  4.60D-01
 E= -363.955075619207     Delta-E=       -0.000002943251 Rises=F Damp=F
 DIIS: error= 2.44D-05 at cycle   4 NSaved=   4.
 NSaved= 4 IEnMin= 4 EnMin= -363.955075619207     IErMin= 4 ErrMin= 2.44D-05
 ErrMax= 2.44D-05  0.00D+00 EMaxC= 1.00D-01 BMatC= 9.23D-08 BMatP= 1.97D-06
 IDIUse=1 WtCom= 1.00D+00 WtEn= 0.00D+00
 Coeff-Com: -0.518D-02 0.203D+00 0.220D+00 0.582D+00
 Coeff:     -0.518D-02 0.203D+00 0.220D+00 0.582D+00
 Gap=     0.192 Goal=   None    Shift=    0.000
 RMSDP=9.67D-07 MaxDP=3.10D-05 DE=-2.94D-06 OVMax= 1.20D-04

 Cycle   5  Pass 1  IDiag  1:
 RMSU=  6.31D-07    CP:  1.00D+00  1.03D+00  5.14D-01  7.32D-01
 E= -363.955075700763     Delta-E=       -0.000000081556 Rises=F Damp=F
 DIIS: error= 6.53D-06 at cycle   5 NSaved=   5.
 NSaved= 5 IEnMin= 5 EnMin= -363.955075700763     IErMin= 5 ErrMin= 6.53D-06
 ErrMax= 6.53D-06  0.00D+00 EMaxC= 1.00D-01 BMatC= 1.32D-08 BMatP= 9.23D-08
 IDIUse=1 WtCom= 1.00D+00 WtEn= 0.00D+00
 Coeff-Com: -0.234D-02 0.614D-01 0.877D-01 0.335D+00 0.519D+00
 Coeff:     -0.234D-02 0.614D-01 0.877D-01 0.335D+00 0.519D+00
 Gap=     0.192 Goal=   None    Shift=    0.000
 RMSDP=2.98D-07 MaxDP=1.25D-05 DE=-8.16D-08 OVMax= 4.50D-05

 Cycle   6  Pass 1  IDiag  1:
 RMSU=  2.14D-07    CP:  1.00D+00  1.03D+00  5.13D-01  7.56D-01  6.83D-01
 E= -363.955075712526     Delta-E=       -0.000000011762 Rises=F Damp=F
 DIIS: error= 2.10D-06 at cycle   6 NSaved=   6.
 NSaved= 6 IEnMin= 6 EnMin= -363.955075712526     IErMin= 6 ErrMin= 2.10D-06
 ErrMax= 2.10D-06  0.00D+00 EMaxC= 1.00D-01 BMatC= 8.92D-10 BMatP= 1.32D-08
 IDIUse=1 WtCom= 1.00D+00 WtEn= 0.00D+00
 Coeff-Com: -0.794D-03 0.140D-01 0.275D-01 0.121D+00 0.277D+00 0.562D+00
 Coeff:     -0.794D-03 0.140D-01 0.275D-01 0.121D+00 0.277D+00 0.562D+00
 Gap=     0.192 Goal=   None    Shift=    0.000
 RMSDP=9.83D-08 MaxDP=3.35D-06 DE=-1.18D-08 OVMax= 1.59D-05

 Cycle   7  Pass 1  IDiag  1:
 RMSU=  8.20D-08    CP:  1.00D+00  1.03D+00  5.15D-01  7.60D-01  7.10D-01
                    CP:  7.83D-01
 E= -363.955075713249     Delta-E=       -0.000000000723 Rises=F Damp=F
 DIIS: error= 7.33D-07 at cycle   7 NSaved=   7.
 NSaved= 7 IEnMin= 7 EnMin= -363.955075713249     IErMin= 7 ErrMin= 7.33D-07
 ErrMax= 7.33D-07  0.00D+00 EMaxC= 1.00D-01 BMatC= 1.60D-10 BMatP= 8.92D-10
 IDIUse=1 WtCom= 1.00D+00 WtEn= 0.00D+00
 Coeff-Com: -0.680D-04-0.286D-02 0.146D-02 0.152D-01 0.891D-01 0.338D+00
 Coeff-Com:  0.559D+00
 Coeff:     -0.680D-04-0.286D-02 0.146D-02 0.152D-01 0.891D-01 0.338D+00
 Coeff:      0.559D+00
 Gap=     0.192 Goal=   None    Shift=    0.000
 RMSDP=3.77D-08 MaxDP=1.30D-06 DE=-7.23D-10 OVMax= 6.60D-06

 Cycle   8  Pass 1  IDiag  1:
 RMSU=  2.61D-08    CP:  1.00D+00  1.03D+00  5.17D-01  7.61D-01  7.12D-01
                    CP:  8.53D-01  7.47D-01
 E= -363.955075713400     Delta-E=       -0.000000000151 Rises=F Damp=F
 DIIS: error= 3.43D-07 at cycle   8 NSaved=   8.
 NSaved= 8 IEnMin= 8 EnMin= -363.955075713400     IErMin= 8 ErrMin= 3.43D-07
 ErrMax= 3.43D-07  0.00D+00 EMaxC= 1.00D-01 BMatC= 1.76D-11 BMatP= 1.60D-10
 IDIUse=1 WtCom= 1.00D+00 WtEn= 0.00D+00
 Coeff-Com:  0.408D-04-0.322D-02-0.202D-02-0.407D-02 0.266D-01 0.139D+00
 Coeff-Com:  0.324D+00 0.521D+00
 Coeff:      0.408D-04-0.322D-02-0.202D-02-0.407D-02 0.266D-01 0.139D+00
 Coeff:      0.324D+00 0.521D+00
 Gap=     0.192 Goal=   None    Shift=    0.000
 RMSDP=1.37D-08 MaxDP=4.07D-07 DE=-1.51D-10 OVMax= 1.97D-06

 Cycle   9  Pass 1  IDiag  1:
 RMSU=  9.35D-09    CP:  1.00D+00  1.03D+00  5.17D-01  7.62D-01  7.20D-01
                    CP:  8.47D-01  8.11D-01  7.74D-01
 E= -363.955075713422     Delta-E=       -0.000000000022 Rises=F Damp=F
 DIIS: error= 9.81D-08 at cycle   9 NSaved=   9.
 NSaved= 9 IEnMin= 9 EnMin= -363.955075713422     IErMin= 9 ErrMin= 9.81D-08
 ErrMax= 9.81D-08  0.00D+00 EMaxC= 1.00D-01 BMatC= 1.30D-12 BMatP= 1.76D-11
 IDIUse=1 WtCom= 1.00D+00 WtEn= 0.00D+00
 Coeff-Com:  0.236D-04-0.102D-02-0.938D-03-0.340D-02 0.390D-02 0.243D-01
 Coeff-Com:  0.832D-01 0.253D+00 0.640D+00
 Coeff:      0.236D-04-0.102D-02-0.938D-03-0.340D-02 0.390D-02 0.243D-01
 Coeff:      0.832D-01 0.253D+00 0.640D+00
 Gap=     0.192 Goal=   None    Shift=    0.000
 RMSDP=4.40D-09 MaxDP=1.38D-07 DE=-2.16D-11 OVMax= 9.94D-07

 SCF Done:  E(RB3LYP) =  -363.955075713     A.U. after    9 cycles
            NFock=  9  Conv=0.44D-08     -V/T= 2.0051
 KE= 3.620939672830D+02 PE=-1.647618463332D+03 EE= 5.203107253410D+02
 Leave Link  502 at Sat May  4 11:04:47 2024, MaxMem= 13421772800 cpu:             668.5 elap:              20.9
 (Enter /tmpu/scunam/7/gaussian-2016.03/g1/g16/l508.exe)
 QCSCF skips out because SCF is already converged.
 Leave Link  508 at Sat May  4 11:04:47 2024, MaxMem= 13421772800 cpu:               0.2 elap:               0.0
 (Enter /tmpu/scunam/7/gaussian-2016.03/g1/g16/l701.exe)
 ... and contract with generalized density number  0.
 Compute integral first derivatives.
   1 Symmetry operations used in ECPInt.
 ECPInt:  NShTT=    8128 NPrTT=   24972 LenC2=    7970 LenP2D=   19690.
 LDataN:  DoStor=T MaxTD1= 7 Len=  274
 Leave Link  701 at Sat May  4 11:04:47 2024, MaxMem= 13421772800 cpu:               7.6 elap:               0.3
 (Enter /tmpu/scunam/7/gaussian-2016.03/g1/g16/l702.exe)
 L702 exits ... SP integral derivatives will be done elsewhere.
 Leave Link  702 at Sat May  4 11:04:47 2024, MaxMem= 13421772800 cpu:               1.6 elap:               0.1
 (Enter /tmpu/scunam/7/gaussian-2016.03/g1/g16/l703.exe)
 Integral derivatives from FoFJK, PRISM(SPDF).
 Compute integral first derivatives, UseDBF=F ICtDFT=           0.
 Calling FoFJK, ICntrl=      2127 FMM=F ISym2X=0 I1Cent= 0 IOpClX= 0 NMat=1 NMatS=1 NMatT=0.
 FoFJK:  IHMeth= 1 ICntrl=    2127 DoSepK=F KAlg= 0 I1Cent=           0 FoldK=F
 IRaf=         0 NMat=       1 IRICut=       1 DoRegI=T DoRafI=F ISym2E= 0 IDoP0=0 IntGTp=1.
 FoFCou: FMM=F IPFlag=           0 FMFlag=      100000 FMFlg1=         800
         NFxFlg=           0 DoJE=F BraDBF=F KetDBF=F FulRan=T
         wScrn=  0.000000 ICntrl=      2127 IOpCl=  0 I1Cent=           0 NGrid=           0
         NMat0=    1 NMatS0=      1 NMatT0=    0 NMatD0=    1 NMtDS0=    0 NMtDT0=    0
 Symmetry not used in FoFCou.
 Leave Link  703 at Sat May  4 11:04:58 2024, MaxMem= 13421772800 cpu:             357.3 elap:              11.2
 (Enter /tmpu/scunam/7/gaussian-2016.03/g1/g16/l716.exe)
 Dipole        =-5.99362490D-01-6.10244574D-01-1.03302021D-05
 ***** Axes restored to original set *****
 -------------------------------------------------------------------
 Center     Atomic                   Forces (Hartrees/Bohr)
 Number     Number              X              Y              Z
 -------------------------------------------------------------------
      1        7          -0.000783291   -0.000029641   -0.000004692
      2        6           0.001273235   -0.000039297   -0.000006400
      3        6          -0.000158952   -0.000302224    0.000011698
      4        6           0.000130179    0.000460076   -0.000016654
      5        6          -0.000183581   -0.000403589   -0.000000414
      6        6           0.000172798    0.000467527    0.000005007
      7        6          -0.000383323   -0.000194449    0.000015841
      8        6           0.000061513    0.000451599    0.000000962
      9        6          -0.000156812   -0.000438873   -0.000000766
     10        1           0.000205745    0.000344886   -0.000001341
     11        1          -0.000002576   -0.000339717   -0.000002001
     12        1           0.000033532    0.000216926    0.000000435
     13        1           0.000117439   -0.000246132   -0.000001175
     14        1           0.000005096    0.000000326    0.000000674
     15        1          -0.000142796   -0.000100641   -0.000000585
     16        1          -0.000188205    0.000153223   -0.000000587
 -------------------------------------------------------------------
 Cartesian Forces:  Max     0.001273235 RMS     0.000293203
 Leave Link  716 at Sat May  4 11:04:58 2024, MaxMem= 13421772800 cpu:               0.8 elap:               0.0
 (Enter /tmpu/scunam/7/gaussian-2016.03/g1/g16/l103.exe)

 GradGradGradGradGradGradGradGradGradGradGradGradGradGradGradGradGradGrad
 Berny optimization.
 Using GEDIIS/GDIIS optimizer.
 FormGI is forming the generalized inverse of G from B-inverse, IUseBI=4.
 Internal  Forces:  Max     0.000626933 RMS     0.000142113
 Search for a local minimum.
 Step number   3 out of a maximum of  100
 All quantities printed in internal units (Hartrees-Bohrs-Radians)
 RMS Force = .14211D-03 SwitMx=.10000D-02 MixMth= 2
 Mixed Optimization -- En-DIIS/RFO-DIIS
 Swapping is turned off.
 Update second derivatives using D2CorX and points    1    2    3
 DE= -7.98D-05 DEPred=-7.83D-05 R= 1.02D+00
 TightC=F SS=  1.41D+00  RLast= 2.44D-02 DXNew= 5.0454D-01 7.3289D-02
 Trust test= 1.02D+00 RLast= 2.44D-02 DXMaxT set to 3.00D-01
 ITU=  1  1  0
     Eigenvalues ---    0.01937   0.02003   0.02030   0.02042   0.02055
     Eigenvalues ---    0.02082   0.02101   0.02108   0.02127   0.02135
     Eigenvalues ---    0.02150   0.02159   0.02287   0.14514   0.16000
     Eigenvalues ---    0.16000   0.16000   0.16000   0.16022   0.16051
     Eigenvalues ---    0.21378   0.22005   0.23636   0.24647   0.26934
     Eigenvalues ---    0.35140   0.35210   0.35250   0.35368   0.35872
     Eigenvalues ---    0.36201   0.37107   0.39791   0.41094   0.43400
     Eigenvalues ---    0.45037   0.45532   0.45899   0.46157   0.48449
     Eigenvalues ---    0.49199   0.51733
 En-DIIS/RFO-DIIS/Sim-DIIS IScMMF=       -3 using points:     3    2
 RFO step:  Lambda=-6.06958249D-06.
 NNeg= 0 NGDIIS= 2 SimSw=  2.50D-03 Rises=F DC= -7.98D-05 SmlDif=  1.00D-05
 NRisDI= 0 DoIntr=F SqrtH=F CThrHd= 10.0 CDAdj=  3.0
 RMS Error=  0.5812556904D-03 NUsed= 2 OKEnD=T EnDIS=F
 InvSVX:  RCond= 1.49D-04 Info=           0 Equed=N FErr=  1.23D-15 BErr=  5.13D-17
 DidBck=F Rises=F RFO-DIIS coefs:    1.08222   -0.08222
 Iteration  1 RMS(Cart)=  0.00064325 RMS(Int)=  0.00000038
 Iteration  2 RMS(Cart)=  0.00000041 RMS(Int)=  0.00000015
 ITry= 1 IFail=0 DXMaxC= 2.78D-03 DCOld= 1.00D+10 DXMaxT= 3.00D-01 DXLimC= 3.00D+00 Rises=F
 Variable       Old X    -DE/DX   Delta X   Delta X   Delta X     New X
                                 (Linear)    (Quad)   (Total)
    R1        2.60290  -0.00063   0.00016  -0.00140  -0.00124   2.60165
    R2        2.60458   0.00008   0.00005   0.00017   0.00022   2.60480
    R3        1.89597   0.00039  -0.00012   0.00089   0.00077   1.89674
    R4        2.68067   0.00004   0.00013   0.00011   0.00024   2.68091
    R5        2.63350   0.00022   0.00005   0.00041   0.00046   2.63396
    R6        2.70908  -0.00015   0.00047  -0.00055  -0.00008   2.70900
    R7        2.64848  -0.00006  -0.00000  -0.00019  -0.00020   2.64828
    R8        2.58000  -0.00014  -0.00049  -0.00005  -0.00055   2.57945
    R9        2.03504   0.00032  -0.00013   0.00094   0.00082   2.03585
   R10        2.61633   0.00003  -0.00005   0.00003  -0.00002   2.61631
   R11        2.04646   0.00022   0.00001   0.00061   0.00062   2.04708
   R12        2.61329   0.00021  -0.00016   0.00048   0.00032   2.61361
   R13        2.04622   0.00024   0.00000   0.00069   0.00069   2.04691
   R14        2.03604   0.00001   0.00013  -0.00008   0.00005   2.03609
   R15        2.65540   0.00020   0.00020   0.00042   0.00062   2.65602
   R16        2.04559   0.00008  -0.00002   0.00020   0.00018   2.04578
   R17        2.04571   0.00009   0.00002   0.00022   0.00024   2.04596
    A1        1.90862  -0.00025   0.00040  -0.00148  -0.00108   1.90753
    A2        2.18861   0.00021   0.00004   0.00119   0.00123   2.18983
    A3        2.18596   0.00003  -0.00044   0.00030  -0.00014   2.18582
    A4        1.86923   0.00032  -0.00010   0.00133   0.00123   1.87046
    A5        2.27874  -0.00010   0.00046  -0.00055  -0.00009   2.27865
    A6        2.13521  -0.00022  -0.00036  -0.00077  -0.00114   2.13408
    A7        1.86572  -0.00016  -0.00045  -0.00036  -0.00081   1.86492
    A8        2.07238   0.00009  -0.00003   0.00029   0.00026   2.07264
    A9        2.34508   0.00007   0.00048   0.00007   0.00055   2.34563
   A10        1.86957  -0.00010   0.00061  -0.00072  -0.00011   1.86947
   A11        2.21889  -0.00008  -0.00030  -0.00046  -0.00076   2.21813
   A12        2.19472   0.00018  -0.00031   0.00118   0.00087   2.19559
   A13        2.05037   0.00021   0.00043   0.00068   0.00111   2.05148
   A14        2.12028  -0.00014  -0.00029  -0.00052  -0.00082   2.11946
   A15        2.11253  -0.00007  -0.00013  -0.00016  -0.00030   2.11224
   A16        2.07808   0.00015   0.00034   0.00048   0.00082   2.07890
   A17        2.10284  -0.00020  -0.00037  -0.00094  -0.00131   2.10153
   A18        2.10227   0.00005   0.00003   0.00046   0.00048   2.10275
   A19        1.91163   0.00018  -0.00047   0.00124   0.00077   1.91240
   A20        2.10360  -0.00009   0.00047  -0.00071  -0.00024   2.10336
   A21        2.26795  -0.00009  -0.00000  -0.00052  -0.00053   2.26742
   A22        2.11532  -0.00005  -0.00016  -0.00007  -0.00023   2.11509
   A23        2.08283   0.00019   0.00042   0.00088   0.00130   2.08413
   A24        2.08503  -0.00014  -0.00026  -0.00081  -0.00107   2.08397
   A25        2.11501  -0.00017  -0.00021  -0.00062  -0.00082   2.11419
   A26        2.08680   0.00032   0.00054   0.00155   0.00209   2.08890
   A27        2.08137  -0.00014  -0.00033  -0.00094  -0.00127   2.08010
    D1       -0.00000  -0.00000  -0.00000  -0.00003  -0.00004  -0.00004
    D2       -3.14155  -0.00000   0.00000  -0.00011  -0.00010   3.14154
    D3       -3.14158   0.00000  -0.00001   0.00005   0.00004  -3.14154
    D4        0.00006  -0.00000   0.00000  -0.00002  -0.00002   0.00004
    D5       -0.00010   0.00001  -0.00001   0.00026   0.00024   0.00014
    D6       -3.14159   0.00000  -0.00001   0.00005   0.00004  -3.14154
    D7        3.14148   0.00000  -0.00001   0.00017   0.00016  -3.14154
    D8       -0.00000  -0.00000  -0.00000  -0.00004  -0.00004  -0.00004
    D9        0.00010  -0.00000   0.00002  -0.00019  -0.00017  -0.00007
   D10       -3.14154  -0.00000   0.00001  -0.00007  -0.00006   3.14158
   D11       -3.14154  -0.00000   0.00001  -0.00012  -0.00011   3.14154
   D12        0.00001  -0.00000  -0.00000  -0.00001  -0.00001  -0.00000
   D13        3.14154   0.00000  -0.00000   0.00007   0.00007  -3.14158
   D14       -0.00004   0.00000  -0.00001   0.00006   0.00005   0.00001
   D15        0.00001  -0.00000   0.00001  -0.00001  -0.00001   0.00000
   D16       -3.14158  -0.00000   0.00000  -0.00003  -0.00002   3.14159
   D17       -0.00015   0.00001  -0.00003   0.00034   0.00031   0.00016
   D18        3.14155   0.00000  -0.00001   0.00012   0.00011  -3.14153
   D19        3.14150   0.00000  -0.00001   0.00020   0.00019  -3.14150
   D20        0.00001  -0.00000   0.00000  -0.00002  -0.00001  -0.00000
   D21       -0.00002   0.00000  -0.00001   0.00003   0.00002   0.00000
   D22       -3.14156  -0.00000   0.00001  -0.00007  -0.00006   3.14156
   D23        3.14152   0.00000  -0.00002   0.00018   0.00016  -3.14151
   D24       -0.00003   0.00000  -0.00001   0.00008   0.00007   0.00004
   D25        0.00016  -0.00001   0.00003  -0.00036  -0.00034  -0.00018
   D26       -3.14155  -0.00000   0.00002  -0.00013  -0.00011   3.14152
   D27       -3.14154  -0.00000   0.00001  -0.00015  -0.00014   3.14150
   D28       -0.00007   0.00000   0.00000   0.00008   0.00008   0.00001
   D29       -0.00001   0.00000  -0.00001   0.00001   0.00001  -0.00000
   D30        3.14157   0.00000  -0.00000   0.00003   0.00002  -3.14159
   D31        3.14157   0.00000   0.00000   0.00002   0.00003  -3.14159
   D32       -0.00003   0.00000   0.00000   0.00004   0.00004   0.00001
   D33        0.00001  -0.00000   0.00001  -0.00003  -0.00002  -0.00001
   D34       -3.14157  -0.00000   0.00001  -0.00005  -0.00004   3.14157
   D35        3.14156   0.00000  -0.00001   0.00007   0.00006  -3.14156
   D36       -0.00003   0.00000  -0.00000   0.00005   0.00004   0.00002
   D37       -0.00000   0.00000  -0.00000   0.00001   0.00001   0.00000
   D38        3.14158   0.00000  -0.00001   0.00003   0.00003  -3.14158
   D39       -3.14158  -0.00000  -0.00000  -0.00000  -0.00001  -3.14159
   D40        0.00000   0.00000  -0.00001   0.00002   0.00001   0.00001
         Item               Value     Threshold  Converged?
 Maximum Force            0.000627     0.000450     NO 
 RMS     Force            0.000142     0.000300     YES
 Maximum Displacement     0.002782     0.001800     NO 
 RMS     Displacement     0.000643     0.001200     YES
 Predicted change in Energy=-3.034886D-06
 Lowest energy point so far.  Saving SCF results.
 GradGradGradGradGradGradGradGradGradGradGradGradGradGradGradGradGradGrad

 Leave Link  103 at Sat May  4 11:04:59 2024, MaxMem= 13421772800 cpu:               6.3 elap:               0.2
 (Enter /tmpu/scunam/7/gaussian-2016.03/g1/g16/l202.exe)
                          Input orientation:                          
 ---------------------------------------------------------------------
 Center     Atomic      Atomic             Coordinates (Angstroms)
 Number     Number       Type             X           Y           Z
 ---------------------------------------------------------------------
      1          7           0        1.555375    1.126759   -0.000068
      2          6           0        0.247838    0.695778   -0.000040
      3          6           0        0.274414   -0.722647    0.000011
      4          6           0        1.653943   -1.112452   -0.000084
      5          6           0       -0.944395    1.417823   -0.000041
      6          6           0       -0.941352   -1.419685    0.000066
      7          6           0        2.395190    0.033734    0.000018
      8          6           0       -2.127907    0.699407    0.000012
      9          6           0       -2.126113   -0.706097    0.000063
     10          1           0        1.852606    2.085452   -0.000064
     11          1           0        2.045477   -2.116113   -0.000132
     12          1           0       -0.948861    2.501080   -0.000073
     13          1           0       -0.952351   -2.502806    0.000078
     14          1           0        3.464559    0.165468    0.000056
     15          1           0       -3.071720    1.229685    0.000011
     16          1           0       -3.070703   -1.235185    0.000087
 ---------------------------------------------------------------------
                    Distance matrix (angstroms):
                    1          2          3          4          5
     1  N    0.000000
     2  C    1.376735   0.000000
     3  C    2.249703   1.418674   0.000000
     4  C    2.241379   2.290596   1.433543   0.000000
     5  C    2.516658   1.393832   2.463150   3.626796   0.000000
     6  C    3.566234   2.426800   1.401410   2.613417   2.837510
     7  C    1.378402   2.247093   2.251622   1.364987   3.615042
     8  C    3.707991   2.375747   2.791664   4.193474   1.384494
     9  C    4.112507   2.756973   2.400585   3.801835   2.430534
    10  H    1.003713   2.122846   3.221197   3.204069   2.875577
    11  H    3.279697   3.337400   2.253532   1.077327   4.629042
    12  H    2.856564   2.165918   3.448017   4.453336   1.083266
    13  H    4.411624   3.416342   2.161925   2.953955   3.920637
    14  H    2.137536   3.260142   3.311460   2.216170   4.583368
    15  H    4.628240   3.362219   3.874044   5.274229   2.135629
    16  H    5.194168   3.839444   3.384155   4.726240   3.399947
                    6          7          8          9         10
     6  C    0.000000
     7  C    3.639360   0.000000
     8  C    2.428675   4.571819   0.000000
     9  C    1.383064   4.581434   1.405505   0.000000
    10  H    4.482431   2.122250   4.214927   4.860345   0.000000
    11  H    3.066946   2.178104   5.034311   4.403443   4.205989
    12  H    3.920772   4.155776   2.153178   3.416417   2.832131
    13  H    1.083177   4.200007   3.411173   2.146132   5.377722
    14  H    4.682388   1.077452   5.617897   5.658201   2.506936
    15  H    3.399651   5.596195   1.082579   2.154396   4.998132
    16  H    2.137329   5.611251   2.152094   1.082674   5.938485
                   11         12         13         14         15
    11  H    0.000000
    12  H    5.503138   0.000000
    13  H    3.022665   5.003887   0.000000
    14  H    2.686895   4.993331   5.160308   0.000000
    15  H    6.113924   2.474465   4.292227   6.622348   0.000000
    16  H    5.191467   4.296730   2.468660   6.683673   2.464870
                   16
    16  H    0.000000
 Stoichiometry    C8H7N
 Framework group  C1[X(C8H7N)]
 Deg. of freedom    42
 Full point group                 C1      NOp   1
 RotChk:  IX=0 Diff= 3.41D-04
 Largest Abelian subgroup         C1      NOp   1
 Largest concise Abelian subgroup C1      NOp   1
                         Standard orientation:                         
 ---------------------------------------------------------------------
 Center     Atomic      Atomic             Coordinates (Angstroms)
 Number     Number       Type             X           Y           Z
 ---------------------------------------------------------------------
      1          7           0       -1.562071   -1.077515   -0.000060
      2          6           0       -0.247028   -0.670011   -0.000033
      3          6           0       -0.248208    0.748663    0.000019
      4          6           0       -1.620537    1.163102   -0.000076
      5          6           0        0.932088   -1.413283   -0.000033
      6          6           0        0.979843    1.423824    0.000074
      7          6           0       -2.382184    0.030369    0.000025
      8          6           0        2.128271   -0.716169    0.000020
      9          6           0        2.151639    0.689142    0.000071
     10          1           0       -1.876417   -2.030734   -0.000056
     11          1           0       -1.994041    2.173611   -0.000125
     12          1           0        0.917161   -2.496446   -0.000065
     13          1           0        1.010229    2.506575    0.000086
     14          1           0       -3.453740   -0.082200    0.000064
     15          1           0        3.062440   -1.263258    0.000019
     16          1           0        3.105549    1.201235    0.000095
 ---------------------------------------------------------------------
 Rotational constants (GHZ):           3.9066027           1.6422938           1.1562280
 Leave Link  202 at Sat May  4 11:04:59 2024, MaxMem= 13421772800 cpu:               2.4 elap:               0.1
 (Enter /tmpu/scunam/7/gaussian-2016.03/g1/g16/l301.exe)
 Standard basis: def2TZVP (5D, 7F)
 Ernie: Thresh=  0.10000D-02 Tol=  0.10000D-05 Strict=F.
 There are   366 symmetry adapted cartesian basis functions of A   symmetry.
 There are   321 symmetry adapted basis functions of A   symmetry.
   321 basis functions,   515 primitive gaussians,   366 cartesian basis functions
    31 alpha electrons       31 beta electrons
       nuclear repulsion energy       401.2499066836 Hartrees.
 IExCor=  402 DFT=T Ex+Corr=B3LYP ExCW=0 ScaHFX=  0.200000
 ScaDFX=  0.800000  0.720000  1.000000  0.810000 ScalE2=  1.000000  1.000000
 IRadAn=      5 IRanWt=     -1 IRanGd=            0 ICorTp=0 IEmpDi=  4
 NAtoms=   16 NActive=   16 NUniq=   16 SFac= 1.00D+00 NAtFMM=   60 NAOKFM=F Big=F
 Integral buffers will be    131072 words long.
 Raffenetti 2 integral format.
 Two-electron integral symmetry is turned on.
 Leave Link  301 at Sat May  4 11:04:59 2024, MaxMem= 13421772800 cpu:               1.5 elap:               0.1
 (Enter /tmpu/scunam/7/gaussian-2016.03/g1/g16/l302.exe)
 NPDir=0 NMtPBC=     1 NCelOv=     1 NCel=       1 NClECP=     1 NCelD=      1
         NCelK=      1 NCelE2=     1 NClLst=     1 CellRange=     0.0.
 One-electron integrals computed using PRISM.
 One-electron integral symmetry used in STVInt
   1 Symmetry operations used in ECPInt.
 ECPInt:  NShTT=    8128 NPrTT=   24972 LenC2=    7970 LenP2D=   19690.
 LDataN:  DoStor=T MaxTD1= 6 Len=  172
 NBasis=   321 RedAO= T EigKep=  8.45D-06  NBF=   321
 NBsUse=   321 1.00D-06 EigRej= -1.00D+00 NBFU=   321
 Precomputing XC quadrature grid using
 IXCGrd= 4 IRadAn=           5 IRanWt=          -1 IRanGd=           0 AccXCQ= 0.00D+00.
 Generated NRdTot=       0 NPtTot=           0 NUsed=           0 NTot=          32
 NSgBfM=   365   365   365   365   365 MxSgAt=    16 MxSgA2=    16.
 Leave Link  302 at Sat May  4 11:04:59 2024, MaxMem= 13421772800 cpu:              10.2 elap:               0.3
 (Enter /tmpu/scunam/7/gaussian-2016.03/g1/g16/l303.exe)
 DipDrv:  MaxL=1.
 Leave Link  303 at Sat May  4 11:04:59 2024, MaxMem= 13421772800 cpu:               2.3 elap:               0.1
 (Enter /tmpu/scunam/7/gaussian-2016.03/g1/g16/l401.exe)
 Initial guess from the checkpoint file:  "indole.chk"
 B after Tr=    -0.000000    0.000000   -0.000000
         Rot=    1.000000   -0.000003    0.000002    0.000102 Ang=  -0.01 deg.
 Guess basis will be translated and rotated to current coordinates.
 JPrj=2 DoOrth=T DoCkMO=T.
 Leave Link  401 at Sat May  4 11:05:00 2024, MaxMem= 13421772800 cpu:               6.7 elap:               0.2
 (Enter /tmpu/scunam/7/gaussian-2016.03/g1/g16/l502.exe)
 Integral symmetry usage will be decided dynamically.
 Closed shell SCF:
 Using DIIS extrapolation, IDIIS=  1040.
 NGot= 13421772800 LenX= 13421489896 LenY= 13421355499
 Requested convergence on RMS density matrix=1.00D-08 within 128 cycles.
 Requested convergence on MAX density matrix=1.00D-06.
 Requested convergence on             energy=1.00D-06.
 No special actions if energy rises.
 Fock matrices will be formed incrementally for  20 cycles.

 Cycle   1  Pass 1  IDiag  1:
 FoFJK:  IHMeth= 1 ICntrl=       0 DoSepK=F KAlg= 0 I1Cent=           0 FoldK=F
 IRaf= 950000000 NMat=       1 IRICut=       1 DoRegI=T DoRafI=F ISym2E= 0 IDoP0=0 IntGTp=1.
 FoFCou: FMM=F IPFlag=           0 FMFlag=      100000 FMFlg1=           0
         NFxFlg=           0 DoJE=F BraDBF=F KetDBF=F FulRan=T
         wScrn=  0.000000 ICntrl=         0 IOpCl=  0 I1Cent=           0 NGrid=           0
         NMat0=    1 NMatS0=      1 NMatT0=    0 NMatD0=    1 NMtDS0=    0 NMtDT0=    0
 Symmetry not used in FoFCou.
 E= -363.955077726564    
 DIIS: error= 4.81D-05 at cycle   1 NSaved=   1.
 NSaved= 1 IEnMin= 1 EnMin= -363.955077726564     IErMin= 1 ErrMin= 4.81D-05
 ErrMax= 4.81D-05  0.00D+00 EMaxC= 1.00D-01 BMatC= 1.53D-06 BMatP= 1.53D-06
 IDIUse=1 WtCom= 1.00D+00 WtEn= 0.00D+00
 Coeff-Com:  0.100D+01
 Coeff:      0.100D+01
 Gap=     0.759 Goal=   None    Shift=    0.000
 RMSDP=7.38D-06 MaxDP=2.52D-04              OVMax= 2.74D-04

 Cycle   2  Pass 1  IDiag  1:
 RMSU=  7.38D-06    CP:  1.00D+00
 E= -363.955078831385     Delta-E=       -0.000001104821 Rises=F Damp=F
 DIIS: error= 1.45D-05 at cycle   2 NSaved=   2.
 NSaved= 2 IEnMin= 2 EnMin= -363.955078831385     IErMin= 2 ErrMin= 1.45D-05
 ErrMax= 1.45D-05  0.00D+00 EMaxC= 1.00D-01 BMatC= 7.62D-08 BMatP= 1.53D-06
 IDIUse=1 WtCom= 1.00D+00 WtEn= 0.00D+00
 Coeff-Com:  0.587D-01 0.941D+00
 Coeff:      0.587D-01 0.941D+00
 Gap=     0.192 Goal=   None    Shift=    0.000
 RMSDP=1.52D-06 MaxDP=5.28D-05 DE=-1.10D-06 OVMax= 1.97D-04

 Cycle   3  Pass 1  IDiag  1:
 RMSU=  1.51D-06    CP:  1.00D+00  1.03D+00
 E= -363.955078751959     Delta-E=        0.000000079426 Rises=F Damp=F
 DIIS: error= 2.79D-05 at cycle   3 NSaved=   3.
 NSaved= 3 IEnMin= 2 EnMin= -363.955078831385     IErMin= 2 ErrMin= 1.45D-05
 ErrMax= 2.79D-05  0.00D+00 EMaxC= 1.00D-01 BMatC= 1.51D-07 BMatP= 7.62D-08
 IDIUse=1 WtCom= 1.00D+00 WtEn= 0.00D+00
 Coeff-Com: -0.794D-02 0.591D+00 0.417D+00
 Coeff:     -0.794D-02 0.591D+00 0.417D+00
 Gap=     0.192 Goal=   None    Shift=    0.000
 RMSDP=9.66D-07 MaxDP=3.53D-05 DE= 7.94D-08 OVMax= 1.63D-04

 Cycle   4  Pass 1  IDiag  1:
 RMSU=  5.57D-07    CP:  1.00D+00  1.04D+00  4.82D-01
 E= -363.955078896006     Delta-E=       -0.000000144047 Rises=F Damp=F
 DIIS: error= 5.41D-06 at cycle   4 NSaved=   4.
 NSaved= 4 IEnMin= 4 EnMin= -363.955078896006     IErMin= 4 ErrMin= 5.41D-06
 ErrMax= 5.41D-06  0.00D+00 EMaxC= 1.00D-01 BMatC= 3.88D-09 BMatP= 7.62D-08
 IDIUse=1 WtCom= 1.00D+00 WtEn= 0.00D+00
 Coeff-Com: -0.648D-02 0.193D+00 0.203D+00 0.611D+00
 Coeff:     -0.648D-02 0.193D+00 0.203D+00 0.611D+00
 Gap=     0.192 Goal=   None    Shift=    0.000
 RMSDP=2.44D-07 MaxDP=7.30D-06 DE=-1.44D-07 OVMax= 3.60D-05

 Cycle   5  Pass 1  IDiag  1:
 RMSU=  1.58D-07    CP:  1.00D+00  1.04D+00  5.17D-01  6.82D-01
 E= -363.955078899924     Delta-E=       -0.000000003918 Rises=F Damp=F
 DIIS: error= 1.54D-06 at cycle   5 NSaved=   5.
 NSaved= 5 IEnMin= 5 EnMin= -363.955078899924     IErMin= 5 ErrMin= 1.54D-06
 ErrMax= 1.54D-06  0.00D+00 EMaxC= 1.00D-01 BMatC= 6.62D-10 BMatP= 3.88D-09
 IDIUse=1 WtCom= 1.00D+00 WtEn= 0.00D+00
 Coeff-Com: -0.338D-02 0.685D-01 0.900D-01 0.370D+00 0.475D+00
 Coeff:     -0.338D-02 0.685D-01 0.900D-01 0.370D+00 0.475D+00
 Gap=     0.192 Goal=   None    Shift=    0.000
 RMSDP=6.31D-08 MaxDP=3.11D-06 DE=-3.92D-09 OVMax= 1.13D-05

 Cycle   6  Pass 1  IDiag  1:
 RMSU=  4.80D-08    CP:  1.00D+00  1.04D+00  5.15D-01  7.17D-01  7.75D-01
 E= -363.955078900585     Delta-E=       -0.000000000661 Rises=F Damp=F
 DIIS: error= 3.51D-07 at cycle   6 NSaved=   6.
 NSaved= 6 IEnMin= 6 EnMin= -363.955078900585     IErMin= 6 ErrMin= 3.51D-07
 ErrMax= 3.51D-07  0.00D+00 EMaxC= 1.00D-01 BMatC= 2.47D-11 BMatP= 6.62D-10
 IDIUse=1 WtCom= 1.00D+00 WtEn= 0.00D+00
 Coeff-Com: -0.547D-03 0.320D-02 0.120D-01 0.811D-01 0.196D+00 0.708D+00
 Coeff:     -0.547D-03 0.320D-02 0.120D-01 0.811D-01 0.196D+00 0.708D+00
 Gap=     0.192 Goal=   None    Shift=    0.000
 RMSDP=2.06D-08 MaxDP=5.75D-07 DE=-6.61D-10 OVMax= 2.86D-06

 Cycle   7  Pass 1  IDiag  1:
 RMSU=  1.60D-08    CP:  1.00D+00  1.04D+00  5.16D-01  7.30D-01  8.04D-01
                    CP:  8.05D-01
 E= -363.955078900602     Delta-E=       -0.000000000017 Rises=F Damp=F
 DIIS: error= 2.96D-07 at cycle   7 NSaved=   7.
 NSaved= 7 IEnMin= 7 EnMin= -363.955078900602     IErMin= 7 ErrMin= 2.96D-07
 ErrMax= 2.96D-07  0.00D+00 EMaxC= 1.00D-01 BMatC= 8.98D-12 BMatP= 2.47D-11
 IDIUse=1 WtCom= 1.00D+00 WtEn= 0.00D+00
 Coeff-Com: -0.599D-04-0.432D-02-0.737D-03 0.162D-01 0.836D-01 0.459D+00
 Coeff-Com:  0.446D+00
 Coeff:     -0.599D-04-0.432D-02-0.737D-03 0.162D-01 0.836D-01 0.459D+00
 Coeff:      0.446D+00
 Gap=     0.192 Goal=   None    Shift=    0.000
 RMSDP=8.60D-09 MaxDP=3.27D-07 DE=-1.66D-11 OVMax= 1.41D-06

 SCF Done:  E(RB3LYP) =  -363.955078901     A.U. after    7 cycles
            NFock=  7  Conv=0.86D-08     -V/T= 2.0051
 KE= 3.620914630939D+02 PE=-1.647598595043D+03 EE= 5.203021463650D+02
 Leave Link  502 at Sat May  4 11:05:16 2024, MaxMem= 13421772800 cpu:             520.2 elap:              16.3
 (Enter /tmpu/scunam/7/gaussian-2016.03/g1/g16/l508.exe)
 QCSCF skips out because SCF is already converged.
 Leave Link  508 at Sat May  4 11:05:16 2024, MaxMem= 13421772800 cpu:               0.1 elap:               0.0
 (Enter /tmpu/scunam/7/gaussian-2016.03/g1/g16/l701.exe)
 ... and contract with generalized density number  0.
 Compute integral first derivatives.
   1 Symmetry operations used in ECPInt.
 ECPInt:  NShTT=    8128 NPrTT=   24972 LenC2=    7970 LenP2D=   19690.
 LDataN:  DoStor=T MaxTD1= 7 Len=  274
 Leave Link  701 at Sat May  4 11:05:16 2024, MaxMem= 13421772800 cpu:              10.8 elap:               0.4
 (Enter /tmpu/scunam/7/gaussian-2016.03/g1/g16/l702.exe)
 L702 exits ... SP integral derivatives will be done elsewhere.
 Leave Link  702 at Sat May  4 11:05:16 2024, MaxMem= 13421772800 cpu:               1.6 elap:               0.1
 (Enter /tmpu/scunam/7/gaussian-2016.03/g1/g16/l703.exe)
 Integral derivatives from FoFJK, PRISM(SPDF).
 Compute integral first derivatives, UseDBF=F ICtDFT=           0.
 Calling FoFJK, ICntrl=      2127 FMM=F ISym2X=0 I1Cent= 0 IOpClX= 0 NMat=1 NMatS=1 NMatT=0.
 FoFJK:  IHMeth= 1 ICntrl=    2127 DoSepK=F KAlg= 0 I1Cent=           0 FoldK=F
 IRaf=         0 NMat=       1 IRICut=       1 DoRegI=T DoRafI=F ISym2E= 0 IDoP0=0 IntGTp=1.
 FoFCou: FMM=F IPFlag=           0 FMFlag=      100000 FMFlg1=         800
         NFxFlg=           0 DoJE=F BraDBF=F KetDBF=F FulRan=T
         wScrn=  0.000000 ICntrl=      2127 IOpCl=  0 I1Cent=           0 NGrid=           0
         NMat0=    1 NMatS0=      1 NMatT0=    0 NMatD0=    1 NMtDS0=    0 NMtDT0=    0
 Symmetry not used in FoFCou.
 Leave Link  703 at Sat May  4 11:05:28 2024, MaxMem= 13421772800 cpu:             357.1 elap:              11.2
 (Enter /tmpu/scunam/7/gaussian-2016.03/g1/g16/l716.exe)
 Dipole        =-6.00562386D-01-6.10424219D-01-4.68288919D-06
 ***** Axes restored to original set *****
 -------------------------------------------------------------------
 Center     Atomic                   Forces (Hartrees/Bohr)
 Number     Number              X              Y              Z
 -------------------------------------------------------------------
      1        7          -0.000318909   -0.000039741    0.000008926
      2        6           0.000203466   -0.000009599    0.000002705
      3        6          -0.000043737    0.000081898   -0.000012329
      4        6          -0.000005088   -0.000027676    0.000017110
      5        6          -0.000124037   -0.000015265    0.000000455
      6        6          -0.000011090    0.000035565   -0.000003804
      7        6           0.000129583   -0.000021482   -0.000017356
      8        6           0.000107308    0.000106062   -0.000000376
      9        6           0.000012802   -0.000106820    0.000000399
     10        1           0.000025376   -0.000008419    0.000001688
     11        1          -0.000018603   -0.000023289    0.000003140
     12        1           0.000009913    0.000027803   -0.000000210
     13        1           0.000028277   -0.000021996    0.000000757
     14        1          -0.000000321    0.000006891   -0.000002052
     15        1          -0.000004439   -0.000010551    0.000000126
     16        1           0.000009499    0.000026620    0.000000821
 -------------------------------------------------------------------
 Cartesian Forces:  Max     0.000318909 RMS     0.000068978
 Leave Link  716 at Sat May  4 11:05:28 2024, MaxMem= 13421772800 cpu:               1.7 elap:               0.1
 (Enter /tmpu/scunam/7/gaussian-2016.03/g1/g16/l103.exe)

 GradGradGradGradGradGradGradGradGradGradGradGradGradGradGradGradGradGrad
 Berny optimization.
 Using GEDIIS/GDIIS optimizer.
 FormGI is forming the generalized inverse of G from B-inverse, IUseBI=4.
 Internal  Forces:  Max     0.000196555 RMS     0.000033170
 Search for a local minimum.
 Step number   4 out of a maximum of  100
 All quantities printed in internal units (Hartrees-Bohrs-Radians)
 RMS Force = .33170D-04 SwitMx=.10000D-02 MixMth= 2
 Mixed Optimization -- En-DIIS/RFO-DIIS
 Swapping is turned off.
 Update second derivatives using D2CorX and points    1    2    3    4
 DE= -3.19D-06 DEPred=-3.03D-06 R= 1.05D+00
 TightC=F SS=  1.41D+00  RLast= 5.33D-03 DXNew= 5.0454D-01 1.5982D-02
 Trust test= 1.05D+00 RLast= 5.33D-03 DXMaxT set to 3.00D-01
 ITU=  1  1  1  0
     Eigenvalues ---    0.01937   0.02004   0.02030   0.02042   0.02054
     Eigenvalues ---    0.02083   0.02102   0.02108   0.02127   0.02135
     Eigenvalues ---    0.02150   0.02163   0.02287   0.13329   0.15966
     Eigenvalues ---    0.16000   0.16000   0.16000   0.16024   0.16071
     Eigenvalues ---    0.21913   0.22567   0.23854   0.24811   0.27428
     Eigenvalues ---    0.34903   0.35153   0.35290   0.35344   0.35823
     Eigenvalues ---    0.36204   0.36994   0.39588   0.41013   0.43441
     Eigenvalues ---    0.44548   0.45265   0.45881   0.47337   0.47769
     Eigenvalues ---    0.48639   0.51099
 En-DIIS/RFO-DIIS/Sim-DIIS IScMMF=       -3 using points:     4    3    2
 RFO step:  Lambda=-2.87591352D-07.
 NNeg= 0 NGDIIS= 3 SimSw=  2.50D-01 Rises=F DC= -3.19D-06 SmlDif=  1.00D-05
 NRisDI= 0 DoIntr=F SqrtH=F CThrHd= 10.0 CDAdj=  3.0
 RMS Error=  0.1433359585D-03 NUsed= 3 OKEnD=F EnDIS=F
 InvSVX:  RCond= 3.36D-06 Info=           0 Equed=N FErr=  1.49D-15 BErr=  6.20D-17
 DidBck=F Rises=F RFO-DIIS coefs:    1.04712   -0.03553   -0.01159
 Iteration  1 RMS(Cart)=  0.00016586 RMS(Int)=  0.00000003
 Iteration  2 RMS(Cart)=  0.00000003 RMS(Int)=  0.00000003
 ITry= 1 IFail=0 DXMaxC= 7.60D-04 DCOld= 1.00D+10 DXMaxT= 3.00D-01 DXLimC= 3.00D+00 Rises=F
 Variable       Old X    -DE/DX   Delta X   Delta X   Delta X     New X
                                 (Linear)    (Quad)   (Total)
    R1        2.60165  -0.00020  -0.00004  -0.00045  -0.00048   2.60117
    R2        2.60480   0.00009   0.00002   0.00018   0.00020   2.60500
    R3        1.89674  -0.00000   0.00002   0.00001   0.00003   1.89677
    R4        2.68091  -0.00004   0.00003  -0.00014  -0.00011   2.68080
    R5        2.63396   0.00004   0.00003   0.00008   0.00011   2.63407
    R6        2.70900   0.00001   0.00006  -0.00001   0.00005   2.70905
    R7        2.64828  -0.00005  -0.00001  -0.00011  -0.00012   2.64816
    R8        2.57945   0.00002  -0.00010   0.00012   0.00002   2.57947
    R9        2.03585   0.00001   0.00002   0.00005   0.00007   2.03592
   R10        2.61631  -0.00009  -0.00001  -0.00020  -0.00021   2.61610
   R11        2.04708   0.00003   0.00003   0.00008   0.00011   2.04718
   R12        2.61361  -0.00004  -0.00001  -0.00007  -0.00008   2.61354
   R13        2.04691   0.00002   0.00003   0.00006   0.00009   2.04700
   R14        2.03609   0.00000   0.00002  -0.00001   0.00001   2.03610
   R15        2.65602   0.00007   0.00006   0.00014   0.00020   2.65622
   R16        2.04578  -0.00000   0.00001  -0.00000   0.00000   2.04578
   R17        2.04596  -0.00002   0.00001  -0.00007  -0.00005   2.04591
    A1        1.90753   0.00005   0.00001   0.00018   0.00018   1.90772
    A2        2.18983  -0.00000   0.00006   0.00005   0.00011   2.18995
    A3        2.18582  -0.00005  -0.00007  -0.00023  -0.00030   2.18552
    A4        1.87046   0.00001   0.00004  -0.00005  -0.00000   1.87046
    A5        2.27865  -0.00002   0.00006  -0.00005   0.00001   2.27867
    A6        2.13408   0.00001  -0.00010   0.00009  -0.00001   2.13406
    A7        1.86492   0.00003  -0.00010   0.00015   0.00005   1.86497
    A8        2.07264   0.00002   0.00001   0.00008   0.00009   2.07273
    A9        2.34563  -0.00005   0.00009  -0.00023  -0.00014   2.34549
   A10        1.86947  -0.00003   0.00008  -0.00013  -0.00004   1.86943
   A11        2.21813  -0.00001  -0.00008  -0.00010  -0.00018   2.21795
   A12        2.19559   0.00004  -0.00000   0.00023   0.00023   2.19581
   A13        2.05148  -0.00003   0.00011  -0.00018  -0.00007   2.05141
   A14        2.11946   0.00000  -0.00008   0.00003  -0.00005   2.11942
   A15        2.11224   0.00002  -0.00003   0.00015   0.00011   2.11235
   A16        2.07890  -0.00001   0.00009  -0.00010  -0.00002   2.07888
   A17        2.10153  -0.00002  -0.00011  -0.00012  -0.00023   2.10130
   A18        2.10275   0.00004   0.00003   0.00022   0.00025   2.10300
   A19        1.91240  -0.00006  -0.00003  -0.00016  -0.00019   1.91221
   A20        2.10336   0.00002   0.00006   0.00001   0.00007   2.10343
   A21        2.26742   0.00004  -0.00003   0.00015   0.00012   2.26755
   A22        2.11509   0.00002  -0.00003   0.00011   0.00008   2.11516
   A23        2.08413   0.00000   0.00012  -0.00001   0.00011   2.08424
   A24        2.08397  -0.00002  -0.00009  -0.00010  -0.00018   2.08378
   A25        2.11419  -0.00001  -0.00007  -0.00000  -0.00007   2.11412
   A26        2.08890   0.00002   0.00017   0.00008   0.00025   2.08915
   A27        2.08010  -0.00001  -0.00011  -0.00008  -0.00018   2.07992
    D1       -0.00004   0.00000  -0.00000   0.00010   0.00010   0.00006
    D2        3.14154   0.00000  -0.00000   0.00014   0.00013  -3.14152
    D3       -3.14154  -0.00000   0.00000  -0.00003  -0.00003  -3.14157
    D4        0.00004  -0.00000  -0.00000   0.00000   0.00000   0.00004
    D5        0.00014  -0.00001   0.00001  -0.00033  -0.00032  -0.00018
    D6       -3.14154  -0.00000   0.00000  -0.00010  -0.00010   3.14155
    D7       -3.14154  -0.00000   0.00001  -0.00020  -0.00019   3.14146
    D8       -0.00004   0.00000  -0.00000   0.00004   0.00004  -0.00001
    D9       -0.00007   0.00000  -0.00001   0.00015   0.00014   0.00007
   D10        3.14158   0.00000  -0.00000   0.00003   0.00003  -3.14158
   D11        3.14154   0.00000  -0.00000   0.00012   0.00011  -3.14154
   D12       -0.00000   0.00000  -0.00000   0.00000   0.00000   0.00000
   D13       -3.14158  -0.00000   0.00000  -0.00004  -0.00003   3.14158
   D14        0.00001  -0.00000   0.00000  -0.00003  -0.00002  -0.00002
   D15        0.00000  -0.00000   0.00000   0.00000   0.00000   0.00000
   D16        3.14159   0.00000  -0.00000   0.00001   0.00001  -3.14159
   D17        0.00016  -0.00001   0.00001  -0.00034  -0.00033  -0.00018
   D18       -3.14153  -0.00000   0.00000  -0.00013  -0.00012   3.14153
   D19       -3.14150  -0.00000   0.00001  -0.00020  -0.00020   3.14148
   D20       -0.00000   0.00000  -0.00000   0.00001   0.00001   0.00001
   D21        0.00000  -0.00000  -0.00000  -0.00001  -0.00001  -0.00001
   D22        3.14156   0.00000  -0.00000   0.00006   0.00006  -3.14156
   D23       -3.14151  -0.00000   0.00000  -0.00016  -0.00016   3.14151
   D24        0.00004  -0.00000   0.00000  -0.00009  -0.00009  -0.00004
   D25       -0.00018   0.00001  -0.00001   0.00041   0.00040   0.00022
   D26        3.14152   0.00000  -0.00000   0.00015   0.00015  -3.14152
   D27        3.14150   0.00000  -0.00001   0.00020   0.00019  -3.14149
   D28        0.00001  -0.00000   0.00000  -0.00006  -0.00006  -0.00005
   D29       -0.00000   0.00000  -0.00000   0.00000   0.00000  -0.00000
   D30       -3.14159  -0.00000   0.00000  -0.00001  -0.00001   3.14158
   D31       -3.14159  -0.00000   0.00000  -0.00001  -0.00001   3.14159
   D32        0.00001  -0.00000   0.00000  -0.00002  -0.00002  -0.00001
   D33       -0.00001   0.00000   0.00000   0.00001   0.00001   0.00001
   D34        3.14157   0.00000  -0.00000   0.00004   0.00004  -3.14157
   D35       -3.14156  -0.00000   0.00000  -0.00006  -0.00006   3.14156
   D36        0.00002  -0.00000   0.00000  -0.00003  -0.00003  -0.00001
   D37        0.00000  -0.00000  -0.00000  -0.00001  -0.00001  -0.00000
   D38       -3.14158  -0.00000   0.00000  -0.00004  -0.00003   3.14158
   D39       -3.14159   0.00000  -0.00000   0.00000   0.00000  -3.14159
   D40        0.00001  -0.00000  -0.00000  -0.00002  -0.00002  -0.00001
         Item               Value     Threshold  Converged?
 Maximum Force            0.000197     0.000450     YES
 RMS     Force            0.000033     0.000300     YES
 Maximum Displacement     0.000760     0.001800     YES
 RMS     Displacement     0.000166     0.001200     YES
 Predicted change in Energy=-1.437601D-07
 Optimization completed.
    -- Stationary point found.
                           ----------------------------
                           !   Optimized Parameters   !
                           ! (Angstroms and Degrees)  !
 --------------------------                            --------------------------
 ! Name  Definition              Value          Derivative Info.                !
 --------------------------------------------------------------------------------
 ! R1    R(1,2)                  1.3767         -DE/DX =   -0.0002              !
 ! R2    R(1,7)                  1.3784         -DE/DX =    0.0001              !
 ! R3    R(1,10)                 1.0037         -DE/DX =    0.0                 !
 ! R4    R(2,3)                  1.4187         -DE/DX =    0.0                 !
 ! R5    R(2,5)                  1.3938         -DE/DX =    0.0                 !
 ! R6    R(3,4)                  1.4335         -DE/DX =    0.0                 !
 ! R7    R(3,6)                  1.4014         -DE/DX =    0.0                 !
 ! R8    R(4,7)                  1.365          -DE/DX =    0.0                 !
 ! R9    R(4,11)                 1.0773         -DE/DX =    0.0                 !
 ! R10   R(5,8)                  1.3845         -DE/DX =   -0.0001              !
 ! R11   R(5,12)                 1.0833         -DE/DX =    0.0                 !
 ! R12   R(6,9)                  1.3831         -DE/DX =    0.0                 !
 ! R13   R(6,13)                 1.0832         -DE/DX =    0.0                 !
 ! R14   R(7,14)                 1.0775         -DE/DX =    0.0                 !
 ! R15   R(8,9)                  1.4055         -DE/DX =    0.0001              !
 ! R16   R(8,15)                 1.0826         -DE/DX =    0.0                 !
 ! R17   R(9,16)                 1.0827         -DE/DX =    0.0                 !
 ! A1    A(2,1,7)              109.2937         -DE/DX =    0.0001              !
 ! A2    A(2,1,10)             125.4683         -DE/DX =    0.0                 !
 ! A3    A(7,1,10)             125.2381         -DE/DX =   -0.0001              !
 ! A4    A(1,2,3)              107.1694         -DE/DX =    0.0                 !
 ! A5    A(1,2,5)              130.557          -DE/DX =    0.0                 !
 ! A6    A(3,2,5)              122.2735         -DE/DX =    0.0                 !
 ! A7    A(2,3,4)              106.8518         -DE/DX =    0.0                 !
 ! A8    A(2,3,6)              118.7536         -DE/DX =    0.0                 !
 ! A9    A(4,3,6)              134.3946         -DE/DX =   -0.0001              !
 ! A10   A(3,4,7)              107.1127         -DE/DX =    0.0                 !
 ! A11   A(3,4,11)             127.0894         -DE/DX =    0.0                 !
 ! A12   A(7,4,11)             125.7979         -DE/DX =    0.0                 !
 ! A13   A(2,5,8)              117.5413         -DE/DX =    0.0                 !
 ! A14   A(2,5,12)             121.4364         -DE/DX =    0.0                 !
 ! A15   A(8,5,12)             121.0224         -DE/DX =    0.0                 !
 ! A16   A(3,6,9)              119.1122         -DE/DX =    0.0                 !
 ! A17   A(3,6,13)             120.4088         -DE/DX =    0.0                 !
 ! A18   A(9,6,13)             120.479          -DE/DX =    0.0                 !
 ! A19   A(1,7,4)              109.5724         -DE/DX =   -0.0001              !
 ! A20   A(1,7,14)             120.5137         -DE/DX =    0.0                 !
 ! A21   A(4,7,14)             129.9139         -DE/DX =    0.0                 !
 ! A22   A(5,8,9)              121.1855         -DE/DX =    0.0                 !
 ! A23   A(5,8,15)             119.4121         -DE/DX =    0.0                 !
 ! A24   A(9,8,15)             119.4024         -DE/DX =    0.0                 !
 ! A25   A(6,9,8)              121.1339         -DE/DX =    0.0                 !
 ! A26   A(6,9,16)             119.685          -DE/DX =    0.0                 !
 ! A27   A(8,9,16)             119.1811         -DE/DX =    0.0                 !
 ! D1    D(7,1,2,3)             -0.0023         -DE/DX =    0.0                 !
 ! D2    D(7,1,2,5)           -180.0032         -DE/DX =    0.0                 !
 ! D3    D(10,1,2,3)          -179.9971         -DE/DX =    0.0                 !
 ! D4    D(10,1,2,5)             0.0021         -DE/DX =    0.0                 !
 ! D5    D(2,1,7,4)              0.0082         -DE/DX =    0.0                 !
 ! D6    D(2,1,7,14)           180.0027         -DE/DX =    0.0                 !
 ! D7    D(10,1,7,4)           180.003          -DE/DX =    0.0                 !
 ! D8    D(10,1,7,14)           -0.0025         -DE/DX =    0.0                 !
 ! D9    D(1,2,3,4)             -0.004          -DE/DX =    0.0                 !
 ! D10   D(1,2,3,6)           -180.0009         -DE/DX =    0.0                 !
 ! D11   D(5,2,3,4)           -180.0033         -DE/DX =    0.0                 !
 ! D12   D(5,2,3,6)             -0.0001         -DE/DX =    0.0                 !
 ! D13   D(1,2,5,8)            180.001          -DE/DX =    0.0                 !
 ! D14   D(1,2,5,12)             0.0005         -DE/DX =    0.0                 !
 ! D15   D(3,2,5,8)              0.0            -DE/DX =    0.0                 !
 ! D16   D(3,2,5,12)          -180.0004         -DE/DX =    0.0                 !
 ! D17   D(2,3,4,7)              0.0089         -DE/DX =    0.0                 !
 ! D18   D(2,3,4,11)           180.0037         -DE/DX =    0.0                 !
 ! D19   D(6,3,4,7)            180.0051         -DE/DX =    0.0                 !
 ! D20   D(6,3,4,11)            -0.0002         -DE/DX =    0.0                 !
 ! D21   D(2,3,6,9)              0.0003         -DE/DX =    0.0                 !
 ! D22   D(2,3,6,13)          -180.0017         -DE/DX =    0.0                 !
 ! D23   D(4,3,6,9)            180.0045         -DE/DX =    0.0                 !
 ! D24   D(4,3,6,13)             0.0025         -DE/DX =    0.0                 !
 ! D25   D(3,4,7,1)             -0.0106         -DE/DX =    0.0                 !
 ! D26   D(3,4,7,14)          -180.0044         -DE/DX =    0.0                 !
 ! D27   D(11,4,7,1)          -180.0054         -DE/DX =    0.0                 !
 ! D28   D(11,4,7,14)            0.0008         -DE/DX =    0.0                 !
 ! D29   D(2,5,8,9)             -0.0001         -DE/DX =    0.0                 !
 ! D30   D(2,5,8,15)           180.0001         -DE/DX =    0.0                 !
 ! D31   D(12,5,8,9)           180.0004         -DE/DX =    0.0                 !
 ! D32   D(12,5,8,15)            0.0006         -DE/DX =    0.0                 !
 ! D33   D(3,6,9,8)             -0.0003         -DE/DX =    0.0                 !
 ! D34   D(3,6,9,16)          -180.0011         -DE/DX =    0.0                 !
 ! D35   D(13,6,9,8)           180.0017         -DE/DX =    0.0                 !
 ! D36   D(13,6,9,16)            0.0009         -DE/DX =    0.0                 !
 ! D37   D(5,8,9,6)              0.0002         -DE/DX =    0.0                 !
 ! D38   D(5,8,9,16)           180.001          -DE/DX =    0.0                 !
 ! D39   D(15,8,9,6)          -180.0            -DE/DX =    0.0                 !
 ! D40   D(15,8,9,16)            0.0008         -DE/DX =    0.0                 !
 --------------------------------------------------------------------------------
 Lowest energy point so far.  Saving SCF results.
 Largest change from initial coordinates is atom   14       0.020 Angstoms.
 GradGradGradGradGradGradGradGradGradGradGradGradGradGradGradGradGradGrad

 Leave Link  103 at Sat May  4 11:05:28 2024, MaxMem= 13421772800 cpu:               5.2 elap:               0.2
 (Enter /tmpu/scunam/7/gaussian-2016.03/g1/g16/l202.exe)
                          Input orientation:                          
 ---------------------------------------------------------------------
 Center     Atomic      Atomic             Coordinates (Angstroms)
 Number     Number       Type             X           Y           Z
 ---------------------------------------------------------------------
      1          7           0        1.555375    1.126759   -0.000068
      2          6           0        0.247838    0.695778   -0.000040
      3          6           0        0.274414   -0.722647    0.000011
      4          6           0        1.653943   -1.112452   -0.000084
      5          6           0       -0.944395    1.417823   -0.000041
      6          6           0       -0.941352   -1.419685    0.000066
      7          6           0        2.395190    0.033734    0.000018
      8          6           0       -2.127907    0.699407    0.000012
      9          6           0       -2.126113   -0.706097    0.000063
     10          1           0        1.852606    2.085452   -0.000064
     11          1           0        2.045477   -2.116113   -0.000132
     12          1           0       -0.948861    2.501080   -0.000073
     13          1           0       -0.952351   -2.502806    0.000078
     14          1           0        3.464559    0.165468    0.000056
     15          1           0       -3.071720    1.229685    0.000011
     16          1           0       -3.070703   -1.235185    0.000087
 ---------------------------------------------------------------------
                    Distance matrix (angstroms):
                    1          2          3          4          5
     1  N    0.000000
     2  C    1.376735   0.000000
     3  C    2.249703   1.418674   0.000000
     4  C    2.241379   2.290596   1.433543   0.000000
     5  C    2.516658   1.393832   2.463150   3.626796   0.000000
     6  C    3.566234   2.426800   1.401410   2.613417   2.837510
     7  C    1.378402   2.247093   2.251622   1.364987   3.615042
     8  C    3.707991   2.375747   2.791664   4.193474   1.384494
     9  C    4.112507   2.756973   2.400585   3.801835   2.430534
    10  H    1.003713   2.122846   3.221197   3.204069   2.875577
    11  H    3.279697   3.337400   2.253532   1.077327   4.629042
    12  H    2.856564   2.165918   3.448017   4.453336   1.083266
    13  H    4.411624   3.416342   2.161925   2.953955   3.920637
    14  H    2.137536   3.260142   3.311460   2.216170   4.583368
    15  H    4.628240   3.362219   3.874044   5.274229   2.135629
    16  H    5.194168   3.839444   3.384155   4.726240   3.399947
                    6          7          8          9         10
     6  C    0.000000
     7  C    3.639360   0.000000
     8  C    2.428675   4.571819   0.000000
     9  C    1.383064   4.581434   1.405505   0.000000
    10  H    4.482431   2.122250   4.214927   4.860345   0.000000
    11  H    3.066946   2.178104   5.034311   4.403443   4.205989
    12  H    3.920772   4.155776   2.153178   3.416417   2.832131
    13  H    1.083177   4.200007   3.411173   2.146132   5.377722
    14  H    4.682388   1.077452   5.617897   5.658201   2.506936
    15  H    3.399651   5.596195   1.082579   2.154396   4.998132
    16  H    2.137329   5.611251   2.152094   1.082674   5.938485
                   11         12         13         14         15
    11  H    0.000000
    12  H    5.503138   0.000000
    13  H    3.022665   5.003887   0.000000
    14  H    2.686895   4.993331   5.160308   0.000000
    15  H    6.113924   2.474465   4.292227   6.622348   0.000000
    16  H    5.191467   4.296730   2.468660   6.683673   2.464870
                   16
    16  H    0.000000
 Stoichiometry    C8H7N
 Framework group  C1[X(C8H7N)]
 Deg. of freedom    42
 Full point group                 C1      NOp   1
 RotChk:  IX=0 Diff= 6.67D-16
 Largest Abelian subgroup         C1      NOp   1
 Largest concise Abelian subgroup C1      NOp   1
                         Standard orientation:                         
 ---------------------------------------------------------------------
 Center     Atomic      Atomic             Coordinates (Angstroms)
 Number     Number       Type             X           Y           Z
 ---------------------------------------------------------------------
      1          7           0       -1.562071   -1.077515   -0.000060
      2          6           0       -0.247028   -0.670011   -0.000033
      3          6           0       -0.248208    0.748663    0.000019
      4          6           0       -1.620537    1.163102   -0.000076
      5          6           0        0.932088   -1.413283   -0.000033
      6          6           0        0.979843    1.423824    0.000074
      7          6           0       -2.382184    0.030369    0.000025
      8          6           0        2.128271   -0.716169    0.000020
      9          6           0        2.151639    0.689142    0.000071
     10          1           0       -1.876417   -2.030734   -0.000056
     11          1           0       -1.994041    2.173611   -0.000125
     12          1           0        0.917161   -2.496446   -0.000065
     13          1           0        1.010229    2.506575    0.000086
     14          1           0       -3.453740   -0.082200    0.000064
     15          1           0        3.062440   -1.263258    0.000019
     16          1           0        3.105549    1.201235    0.000095
 ---------------------------------------------------------------------
 Rotational constants (GHZ):           3.9066027           1.6422938           1.1562280
 Leave Link  202 at Sat May  4 11:05:28 2024, MaxMem= 13421772800 cpu:               2.7 elap:               0.1
 (Enter /tmpu/scunam/7/gaussian-2016.03/g1/g16/l601.exe)
 Copying SCF densities to generalized density rwf, IOpCl= 0 IROHF=0.

 **********************************************************************

            Population analysis using the SCF density.

 **********************************************************************

 Orbital symmetries:
       Occupied  (A) (A) (A) (A) (A) (A) (A) (A) (A) (A) (A) (A)
                 (A) (A) (A) (A) (A) (A) (A) (A) (A) (A) (A) (A)
                 (A) (A) (A) (A) (A) (A) (A)
       Virtual   (A) (A) (A) (A) (A) (A) (A) (A) (A) (A) (A) (A)
                 (A) (A) (A) (A) (A) (A) (A) (A) (A) (A) (A) (A)
                 (A) (A) (A) (A) (A) (A) (A) (A) (A) (A) (A) (A)
                 (A) (A) (A) (A) (A) (A) (A) (A) (A) (A) (A) (A)
                 (A) (A) (A) (A) (A) (A) (A) (A) (A) (A) (A) (A)
                 (A) (A) (A) (A) (A) (A) (A) (A) (A) (A) (A) (A)
                 (A) (A) (A) (A) (A) (A) (A) (A) (A) (A) (A) (A)
                 (A) (A) (A) (A) (A) (A) (A) (A) (A) (A) (A) (A)
                 (A) (A) (A) (A) (A) (A) (A) (A) (A) (A) (A) (A)
                 (A) (A) (A) (A) (A) (A) (A) (A) (A) (A) (A) (A)
                 (A) (A) (A) (A) (A) (A) (A) (A) (A) (A) (A) (A)
                 (A) (A) (A) (A) (A) (A) (A) (A) (A) (A) (A) (A)
                 (A) (A) (A) (A) (A) (A) (A) (A) (A) (A) (A) (A)
                 (A) (A) (A) (A) (A) (A) (A) (A) (A) (A) (A) (A)
                 (A) (A) (A) (A) (A) (A) (A) (A) (A) (A) (A) (A)
                 (A) (A) (A) (A) (A) (A) (A) (A) (A) (A) (A) (A)
                 (A) (A) (A) (A) (A) (A) (A) (A) (A) (A) (A) (A)
                 (A) (A) (A) (A) (A) (A) (A) (A) (A) (A) (A) (A)
                 (A) (A) (A) (A) (A) (A) (A) (A) (A) (A) (A) (A)
                 (A) (A) (A) (A) (A) (A) (A) (A) (A) (A) (A) (A)
                 (A) (A) (A) (A) (A) (A) (A) (A) (A) (A) (A) (A)
                 (A) (A) (A) (A) (A) (A) (A) (A) (A) (A) (A) (A)
                 (A) (A) (A) (A) (A) (A) (A) (A) (A) (A) (A) (A)
                 (A) (A) (A) (A) (A) (A) (A) (A) (A) (A) (A) (A)
                 (A) (A)
 The electronic state is 1-A.
 Alpha  occ. eigenvalues --  -14.36086 -10.20537 -10.20391 -10.17283 -10.16993
 Alpha  occ. eigenvalues --  -10.16781 -10.16712 -10.16229 -10.16076  -0.98345
 Alpha  occ. eigenvalues --   -0.84132  -0.78447  -0.73714  -0.71901  -0.62653
 Alpha  occ. eigenvalues --   -0.59708  -0.58438  -0.54275  -0.48538  -0.47373
 Alpha  occ. eigenvalues --   -0.44119  -0.43209  -0.42687  -0.41502  -0.39513
 Alpha  occ. eigenvalues --   -0.35881  -0.33929  -0.33861  -0.28379  -0.22806
 Alpha  occ. eigenvalues --   -0.21154
 Alpha virt. eigenvalues --   -0.01920   0.01708   0.02814   0.05178   0.05829
 Alpha virt. eigenvalues --    0.07187   0.08415   0.09289   0.11302   0.11572
 Alpha virt. eigenvalues --    0.12126   0.15752   0.16779   0.17871   0.18729
 Alpha virt. eigenvalues --    0.19403   0.20027   0.21795   0.22910   0.23351
 Alpha virt. eigenvalues --    0.24539   0.25285   0.25774   0.27461   0.29138
 Alpha virt. eigenvalues --    0.29352   0.30744   0.30766   0.32632   0.34476
 Alpha virt. eigenvalues --    0.35135   0.35893   0.37295   0.37626   0.38320
 Alpha virt. eigenvalues --    0.39493   0.41081   0.41448   0.41884   0.42375
 Alpha virt. eigenvalues --    0.44316   0.45132   0.45951   0.46625   0.46652
 Alpha virt. eigenvalues --    0.48526   0.50793   0.50837   0.51164   0.52459
 Alpha virt. eigenvalues --    0.55325   0.56299   0.59876   0.60700   0.62598
 Alpha virt. eigenvalues --    0.62915   0.63910   0.67621   0.69314   0.70782
 Alpha virt. eigenvalues --    0.71112   0.72091   0.72802   0.73656   0.76470
 Alpha virt. eigenvalues --    0.79322   0.79599   0.81070   0.81770   0.84603
 Alpha virt. eigenvalues --    0.86359   0.87146   0.89448   0.90543   0.92913
 Alpha virt. eigenvalues --    0.96423   0.97968   1.00060   1.02181   1.02774
 Alpha virt. eigenvalues --    1.07073   1.08746   1.08815   1.11706   1.14201
 Alpha virt. eigenvalues --    1.14376   1.20114   1.20645   1.21093   1.22325
 Alpha virt. eigenvalues --    1.23834   1.25376   1.26911   1.27641   1.28247
 Alpha virt. eigenvalues --    1.32813   1.35306   1.35627   1.36028   1.39916
 Alpha virt. eigenvalues --    1.41928   1.43334   1.43790   1.46519   1.48498
 Alpha virt. eigenvalues --    1.49381   1.49657   1.50768   1.53831   1.55481
 Alpha virt. eigenvalues --    1.56106   1.59093   1.59736   1.60878   1.63984
 Alpha virt. eigenvalues --    1.66355   1.67701   1.68889   1.70670   1.71292
 Alpha virt. eigenvalues --    1.75251   1.76432   1.79347   1.82544   1.84912
 Alpha virt. eigenvalues --    1.85355   1.86168   1.92219   1.94720   1.95989
 Alpha virt. eigenvalues --    1.96982   2.01590   2.05825   2.06664   2.07281
 Alpha virt. eigenvalues --    2.09746   2.13086   2.14783   2.15505   2.16908
 Alpha virt. eigenvalues --    2.17864   2.22502   2.23412   2.27635   2.30191
 Alpha virt. eigenvalues --    2.32499   2.36558   2.39296   2.41812   2.43222
 Alpha virt. eigenvalues --    2.48239   2.51059   2.55482   2.56137   2.56474
 Alpha virt. eigenvalues --    2.59006   2.61352   2.61591   2.63548   2.65236
 Alpha virt. eigenvalues --    2.65900   2.66757   2.69555   2.70505   2.70726
 Alpha virt. eigenvalues --    2.72302   2.74761   2.75568   2.77340   2.78934
 Alpha virt. eigenvalues --    2.80173   2.80292   2.81986   2.82964   2.83630
 Alpha virt. eigenvalues --    2.87773   2.87969   2.88523   2.91068   2.93252
 Alpha virt. eigenvalues --    2.94714   2.95244   2.97304   3.01737   3.01865
 Alpha virt. eigenvalues --    3.06638   3.07984   3.10145   3.11044   3.11088
 Alpha virt. eigenvalues --    3.12892   3.15516   3.15600   3.15971   3.17828
 Alpha virt. eigenvalues --    3.21278   3.21852   3.21923   3.25107   3.25126
 Alpha virt. eigenvalues --    3.28340   3.28397   3.29614   3.33267   3.34936
 Alpha virt. eigenvalues --    3.35904   3.37842   3.38616   3.38945   3.43512
 Alpha virt. eigenvalues --    3.43676   3.45224   3.45631   3.46400   3.49188
 Alpha virt. eigenvalues --    3.49535   3.52685   3.54132   3.57132   3.57577
 Alpha virt. eigenvalues --    3.61684   3.62338   3.64857   3.70774   3.73395
 Alpha virt. eigenvalues --    3.76714   3.80649   3.84623   3.85006   3.88308
 Alpha virt. eigenvalues --    3.92592   3.92697   3.95490   3.98625   4.01564
 Alpha virt. eigenvalues --    4.04239   4.11811   4.12125   4.16153   4.17251
 Alpha virt. eigenvalues --    4.20187   4.21974   4.22032   4.24383   4.27449
 Alpha virt. eigenvalues --    4.30801   4.32497   4.37457   4.40509   4.44069
 Alpha virt. eigenvalues --    4.46282   4.57039   4.60744   4.60808   4.68143
 Alpha virt. eigenvalues --    4.69943   4.72793   4.74926   4.75570   4.82322
 Alpha virt. eigenvalues --    4.85027   4.85415   4.90871   4.93772   4.97827
 Alpha virt. eigenvalues --    5.01821   5.02538   5.12229   5.18373   5.23724
 Alpha virt. eigenvalues --    5.29503   5.29855   5.33753   5.43330   5.47031
 Alpha virt. eigenvalues --    5.50691   5.59567   5.68590   5.77379   6.01265
 Alpha virt. eigenvalues --    6.12966  22.22285  22.43314  22.60618  22.63586
 Alpha virt. eigenvalues --   22.81246  22.90625  22.96287  23.57295  32.35205
          Condensed to atoms (all electrons):
               1          2          3          4          5          6
     1  N    6.342663   0.382801  -0.074807  -0.086134  -0.039567  -0.001945
     2  C    0.382801   4.999394   0.433267  -0.028354   0.415926  -0.050325
     3  C   -0.074807   0.433267   4.846844   0.429455   0.002803   0.465116
     4  C   -0.086134  -0.028354   0.429455   5.030429   0.001739  -0.085484
     5  C   -0.039567   0.415926   0.002803   0.001739   4.997189  -0.049327
     6  C   -0.001945  -0.050325   0.465116  -0.085484  -0.049327   5.025632
     7  C    0.381086  -0.127782  -0.076750   0.580266   0.012327   0.006380
     8  C   -0.004493  -0.034408  -0.068561   0.006533   0.518055  -0.012277
     9  C    0.004631  -0.079967  -0.021259  -0.002132  -0.008747   0.521659
    10  H    0.381263  -0.041872   0.011634   0.007902  -0.003896  -0.000644
    11  H    0.004342   0.015007  -0.049168   0.432426  -0.000469  -0.003584
    12  H   -0.000859  -0.065961   0.009418  -0.000943   0.421479  -0.001572
    13  H   -0.000357   0.014555  -0.062504  -0.003263  -0.002539   0.429581
    14  H   -0.034744   0.005246   0.006564  -0.028286  -0.000714  -0.000014
    15  H   -0.000203   0.016033  -0.002584   0.000069  -0.061136   0.010410
    16  H    0.000047  -0.002783   0.014289  -0.000491   0.012254  -0.058984
               7          8          9         10         11         12
     1  N    0.381086  -0.004493   0.004631   0.381263   0.004342  -0.000859
     2  C   -0.127782  -0.034408  -0.079967  -0.041872   0.015007  -0.065961
     3  C   -0.076750  -0.068561  -0.021259   0.011634  -0.049168   0.009418
     4  C    0.580266   0.006533  -0.002132   0.007902   0.432426  -0.000943
     5  C    0.012327   0.518055  -0.008747  -0.003896  -0.000469   0.421479
     6  C    0.006380  -0.012277   0.521659  -0.000644  -0.003584  -0.001572
     7  C    4.907395  -0.002443   0.001609  -0.043324  -0.049711  -0.000186
     8  C   -0.002443   4.879047   0.472527  -0.000013   0.000070  -0.033837
     9  C    0.001609   0.472527   4.887502   0.000032  -0.000321   0.008973
    10  H   -0.043324  -0.000013   0.000032   0.478634  -0.000150   0.003248
    11  H   -0.049711   0.000070  -0.000321  -0.000150   0.545416   0.000022
    12  H   -0.000186  -0.033837   0.008973   0.003248   0.000022   0.573833
    13  H   -0.001040   0.010593  -0.052723   0.000034   0.002963   0.000090
    14  H    0.412302   0.000075  -0.000001  -0.004349  -0.002475  -0.000015
    15  H    0.000039   0.429811  -0.053055  -0.000014  -0.000001  -0.008796
    16  H    0.000078  -0.057442   0.430479  -0.000003  -0.000011  -0.000278
              13         14         15         16
     1  N   -0.000357  -0.034744  -0.000203   0.000047
     2  C    0.014555   0.005246   0.016033  -0.002783
     3  C   -0.062504   0.006564  -0.002584   0.014289
     4  C   -0.003263  -0.028286   0.000069  -0.000491
     5  C   -0.002539  -0.000714  -0.061136   0.012254
     6  C    0.429581  -0.000014   0.010410  -0.058984
     7  C   -0.001040   0.412302   0.000039   0.000078
     8  C    0.010593   0.000075   0.429811  -0.057442
     9  C   -0.052723  -0.000001  -0.053055   0.430479
    10  H    0.000034  -0.004349  -0.000014  -0.000003
    11  H    0.002963  -0.002475  -0.000001  -0.000011
    12  H    0.000090  -0.000015  -0.008796  -0.000278
    13  H    0.576212  -0.000010  -0.000307  -0.008589
    14  H   -0.000010   0.514497  -0.000000  -0.000000
    15  H   -0.000307  -0.000000   0.574328  -0.007284
    16  H   -0.008589  -0.000000  -0.007284   0.578498
 Mulliken charges:
               1
     1  N   -0.253726
     2  C    0.149223
     3  C    0.136243
     4  C   -0.253734
     5  C   -0.215377
     6  C   -0.194624
     7  C   -0.000247
     8  C   -0.103237
     9  C   -0.109207
    10  H    0.211516
    11  H    0.105643
    12  H    0.095384
    13  H    0.097306
    14  H    0.131924
    15  H    0.102692
    16  H    0.100220
 Sum of Mulliken charges =  -0.00000
 Mulliken charges with hydrogens summed into heavy atoms:
               1
     1  N   -0.042209
     2  C    0.149223
     3  C    0.136243
     4  C   -0.148091
     5  C   -0.119993
     6  C   -0.097318
     7  C    0.131677
     8  C   -0.000545
     9  C   -0.008987
 Electronic spatial extent (au):  <R**2>=           1005.4023
 Charge=             -0.0000 electrons
 Dipole moment (field-independent basis, Debye):
    X=             -1.5265    Y=             -1.5515    Z=             -0.0000  Tot=              2.1766
 Quadrupole moment (field-independent basis, Debye-Ang):
   XX=            -45.6468   YY=            -44.7215   ZZ=            -58.0095
   XY=              3.1610   XZ=             -0.0001   YZ=              0.0000
 Traceless Quadrupole moment (field-independent basis, Debye-Ang):
   XX=              3.8125   YY=              4.7378   ZZ=             -8.5503
   XY=              3.1610   XZ=             -0.0001   YZ=              0.0000
 Octapole moment (field-independent basis, Debye-Ang**2):
  XXX=            -14.8413  YYY=            -10.4131  ZZZ=             -0.0003  XYY=             -8.0693
  XXY=             -8.1607  XXZ=              0.0007  XZZ=             -2.1128  YZZ=             -2.0633
  YYZ=             -0.0009  XYZ=              0.0005
 Hexadecapole moment (field-independent basis, Debye-Ang**3):
 XXXX=           -815.2115 YYYY=           -369.3270 ZZZZ=            -68.4336 XXXY=             21.3108
 XXXZ=             -0.0090 YYYX=             19.3986 YYYZ=             -0.0031 ZZZX=             -0.0085
 ZZZY=             -0.0044 XXYY=           -196.0329 XXZZ=           -184.7751 YYZZ=            -91.2244
 XXYZ=             -0.0015 YYXZ=             -0.0009 ZZXY=              3.9508
 N-N= 4.012499066836D+02 E-N=-1.647598604220D+03  KE= 3.620914630939D+02
 No NMR shielding tensors so no spin-rotation constants.
 Leave Link  601 at Sat May  4 11:05:28 2024, MaxMem= 13421772800 cpu:               5.5 elap:               0.2
 (Enter /tmpu/scunam/7/gaussian-2016.03/g1/g16/l9999.exe)
 1\1\GINC-MN429\FOpt\RB3LYP\def2TZVP\C8H7N1\ANDFAG_A\04-May-2024\0\\#p 
 opt=(maxcycle=2000) freq=raman b3lyp/def2tzvp scf=(maxcycle=2000,direc
 t,NoInCore, xqc)\\indole\\0,1\N,1.5553751662,1.126758552,-0.0000677335
 \C,0.2478377266,0.6957782492,-0.0000402637\C,0.2744144661,-0.722647149
 6,0.0000110415\C,1.6539429109,-1.1124522713,-0.0000838127\C,-0.9443945
 428,1.4178230743,-0.0000405922\C,-0.9413522856,-1.4196848144,0.0000660
 293\C,2.3951900126,0.033733611,0.0000176251\C,-2.1279069271,0.69940676
 49,0.0000122795\C,-2.1261134029,-0.7060970862,0.0000629725\H,1.8526062
 445,2.0854521018,-0.0000642375\H,2.0454768703,-2.1161128314,-0.0001323
 971\H,-0.9488610618,2.5010799633,-0.00007312\H,-0.9523507659,-2.502805
 8763,0.0000778213\H,3.4645587576,0.1654680662,0.0000562223\H,-3.071719
 9401,1.2296845927,0.0000112786\H,-3.0707032286,-1.2351849462,0.0000868
 866\\Version=ES64L-G16RevA.03\State=1-A\HF=-363.9550789\RMSD=8.602e-09
 \RMSF=6.898e-05\Dipole=0.5895384,0.6210776,-0.0000047\Quadrupole=2.750
 5883,3.606326,-6.3569143,2.3363194,0.0000542,-0.0000191\PG=C01 [X(C8H7
 N1)]\\@


 THIS CURIOUS WORLD WHICH WE INHABIT IS MORE WONDERFUL THAN IT IS CONVENIENT;
 MORE BEAUTIFUL THAN IT IS USEFUL;
 IT IS MORE TO BE ADMIRED THAN IT IS TO BE USED.

                                                                 -- THOREAU
 Leave Link 9999 at Sat May  4 11:05:28 2024, MaxMem= 13421772800 cpu:               1.0 elap:               0.1
 Job cpu time:       0 days  1 hours 12 minutes 48.9 seconds.
 Elapsed time:       0 days  0 hours  2 minutes 18.2 seconds.
 File lengths (MBytes):  RWF=     69 Int=      0 D2E=      0 Chk=      9 Scr=      1
 Normal termination of Gaussian 16 at Sat May  4 11:05:28 2024.
 (Enter /tmpu/scunam/7/gaussian-2016.03/g1/g16/l1.exe)
 Link1:  Proceeding to internal job step number  2.
 --------------------------------------------------------------------
 #P Geom=AllCheck Guess=TCheck SCRF=Check GenChk RB3LYP/def2TZVP Freq
 --------------------------------------------------------------------
 1/6=2000,10=4,29=7,30=1,38=1,40=1/1,3;
 2/12=2,40=1/2;
 3/5=44,7=101,11=2,14=-4,25=1,30=1,70=2,71=2,74=-5,116=1,140=1/1,2,3;
 4/5=101/1;
 5/5=2,7=2000,8=3,13=1,38=6,98=1/2,8;
 8/6=4,10=90,11=11/1;
 10/13=10,15=4/2;
 11/6=3,8=1,9=11,15=111,16=1/1,2,10;
 10/6=1/2;
 6/7=2,8=2,9=2,10=2,28=1/1;
 7/8=1,10=1,25=1/1,2,3,16;
 1/6=2000,10=4,30=1/3;
 99//99;
 Leave Link    1 at Sat May  4 11:05:28 2024, MaxMem= 13421772800 cpu:               0.9 elap:               0.0
 (Enter /tmpu/scunam/7/gaussian-2016.03/g1/g16/l101.exe)
 Structure from the checkpoint file:  "indole.chk"
 ------
 indole
 ------
 Charge =  0 Multiplicity = 1
 Redundant internal coordinates found in file.  (old form).
 N,0,1.5553751662,1.126758552,-0.0000677335
 C,0,0.2478377266,0.6957782492,-0.0000402637
 C,0,0.2744144661,-0.7226471496,0.0000110415
 C,0,1.6539429109,-1.1124522713,-0.0000838127
 C,0,-0.9443945428,1.4178230743,-0.0000405922
 C,0,-0.9413522856,-1.4196848144,0.0000660293
 C,0,2.3951900126,0.033733611,0.0000176251
 C,0,-2.1279069271,0.6994067649,0.0000122795
 C,0,-2.1261134029,-0.7060970862,0.0000629725
 H,0,1.8526062445,2.0854521018,-0.0000642375
 H,0,2.0454768703,-2.1161128314,-0.0001323971
 H,0,-0.9488610618,2.5010799633,-0.00007312
 H,0,-0.9523507659,-2.5028058763,0.0000778213
 H,0,3.4645587576,0.1654680662,0.0000562223
 H,0,-3.0717199401,1.2296845927,0.0000112786
 H,0,-3.0707032286,-1.2351849462,0.0000868866
 Recover connectivity data from disk.
 ITRead=  0  0  0  0  0  0  0  0  0  0  0  0  0  0  0  0
 MicOpt= -1 -1 -1 -1 -1 -1 -1 -1 -1 -1 -1 -1 -1 -1 -1 -1
 NAtoms=     16 NQM=       16 NQMF=       0 NMMI=      0 NMMIF=      0
                NMic=       0 NMicF=      0.
                    Isotopes and Nuclear Properties:
 (Nuclear quadrupole moments (NQMom) in fm**2, nuclear magnetic moments (NMagM)
  in nuclear magnetons)

  Atom         1           2           3           4           5           6           7           8           9          10
 IAtWgt=          14          12          12          12          12          12          12          12          12           1
 AtmWgt=  14.0030740  12.0000000  12.0000000  12.0000000  12.0000000  12.0000000  12.0000000  12.0000000  12.0000000   1.0078250
 NucSpn=           2           0           0           0           0           0           0           0           0           1
 AtZEff=   4.5500000   3.6000000   3.6000000   3.6000000   3.6000000   3.6000000   3.6000000   3.6000000   3.6000000   1.0000000
 NQMom=    2.0440000   0.0000000   0.0000000   0.0000000   0.0000000   0.0000000   0.0000000   0.0000000   0.0000000   0.0000000
 NMagM=    0.4037610   0.0000000   0.0000000   0.0000000   0.0000000   0.0000000   0.0000000   0.0000000   0.0000000   2.7928460
 AtZNuc=   7.0000000   6.0000000   6.0000000   6.0000000   6.0000000   6.0000000   6.0000000   6.0000000   6.0000000   1.0000000

  Atom        11          12          13          14          15          16
 IAtWgt=           1           1           1           1           1           1
 AtmWgt=   1.0078250   1.0078250   1.0078250   1.0078250   1.0078250   1.0078250
 NucSpn=           1           1           1           1           1           1
 AtZEff=   1.0000000   1.0000000   1.0000000   1.0000000   1.0000000   1.0000000
 NQMom=    0.0000000   0.0000000   0.0000000   0.0000000   0.0000000   0.0000000
 NMagM=    2.7928460   2.7928460   2.7928460   2.7928460   2.7928460   2.7928460
 AtZNuc=   1.0000000   1.0000000   1.0000000   1.0000000   1.0000000   1.0000000
 Leave Link  101 at Sat May  4 11:05:29 2024, MaxMem= 13421772800 cpu:              11.7 elap:               0.4
 (Enter /tmpu/scunam/7/gaussian-2016.03/g1/g16/l103.exe)

 GradGradGradGradGradGradGradGradGradGradGradGradGradGradGradGradGradGrad
 Berny optimization.
 Initialization pass.
                           ----------------------------
                           !    Initial Parameters    !
                           ! (Angstroms and Degrees)  !
 --------------------------                            --------------------------
 ! Name  Definition              Value          Derivative Info.                !
 --------------------------------------------------------------------------------
 ! R1    R(1,2)                  1.3767         calculate D2E/DX2 analytically  !
 ! R2    R(1,7)                  1.3784         calculate D2E/DX2 analytically  !
 ! R3    R(1,10)                 1.0037         calculate D2E/DX2 analytically  !
 ! R4    R(2,3)                  1.4187         calculate D2E/DX2 analytically  !
 ! R5    R(2,5)                  1.3938         calculate D2E/DX2 analytically  !
 ! R6    R(3,4)                  1.4335         calculate D2E/DX2 analytically  !
 ! R7    R(3,6)                  1.4014         calculate D2E/DX2 analytically  !
 ! R8    R(4,7)                  1.365          calculate D2E/DX2 analytically  !
 ! R9    R(4,11)                 1.0773         calculate D2E/DX2 analytically  !
 ! R10   R(5,8)                  1.3845         calculate D2E/DX2 analytically  !
 ! R11   R(5,12)                 1.0833         calculate D2E/DX2 analytically  !
 ! R12   R(6,9)                  1.3831         calculate D2E/DX2 analytically  !
 ! R13   R(6,13)                 1.0832         calculate D2E/DX2 analytically  !
 ! R14   R(7,14)                 1.0775         calculate D2E/DX2 analytically  !
 ! R15   R(8,9)                  1.4055         calculate D2E/DX2 analytically  !
 ! R16   R(8,15)                 1.0826         calculate D2E/DX2 analytically  !
 ! R17   R(9,16)                 1.0827         calculate D2E/DX2 analytically  !
 ! A1    A(2,1,7)              109.2937         calculate D2E/DX2 analytically  !
 ! A2    A(2,1,10)             125.4683         calculate D2E/DX2 analytically  !
 ! A3    A(7,1,10)             125.2381         calculate D2E/DX2 analytically  !
 ! A4    A(1,2,3)              107.1694         calculate D2E/DX2 analytically  !
 ! A5    A(1,2,5)              130.557          calculate D2E/DX2 analytically  !
 ! A6    A(3,2,5)              122.2735         calculate D2E/DX2 analytically  !
 ! A7    A(2,3,4)              106.8518         calculate D2E/DX2 analytically  !
 ! A8    A(2,3,6)              118.7536         calculate D2E/DX2 analytically  !
 ! A9    A(4,3,6)              134.3946         calculate D2E/DX2 analytically  !
 ! A10   A(3,4,7)              107.1127         calculate D2E/DX2 analytically  !
 ! A11   A(3,4,11)             127.0894         calculate D2E/DX2 analytically  !
 ! A12   A(7,4,11)             125.7979         calculate D2E/DX2 analytically  !
 ! A13   A(2,5,8)              117.5413         calculate D2E/DX2 analytically  !
 ! A14   A(2,5,12)             121.4364         calculate D2E/DX2 analytically  !
 ! A15   A(8,5,12)             121.0224         calculate D2E/DX2 analytically  !
 ! A16   A(3,6,9)              119.1122         calculate D2E/DX2 analytically  !
 ! A17   A(3,6,13)             120.4088         calculate D2E/DX2 analytically  !
 ! A18   A(9,6,13)             120.479          calculate D2E/DX2 analytically  !
 ! A19   A(1,7,4)              109.5724         calculate D2E/DX2 analytically  !
 ! A20   A(1,7,14)             120.5137         calculate D2E/DX2 analytically  !
 ! A21   A(4,7,14)             129.9139         calculate D2E/DX2 analytically  !
 ! A22   A(5,8,9)              121.1855         calculate D2E/DX2 analytically  !
 ! A23   A(5,8,15)             119.4121         calculate D2E/DX2 analytically  !
 ! A24   A(9,8,15)             119.4024         calculate D2E/DX2 analytically  !
 ! A25   A(6,9,8)              121.1339         calculate D2E/DX2 analytically  !
 ! A26   A(6,9,16)             119.685          calculate D2E/DX2 analytically  !
 ! A27   A(8,9,16)             119.1811         calculate D2E/DX2 analytically  !
 ! D1    D(7,1,2,3)             -0.0023         calculate D2E/DX2 analytically  !
 ! D2    D(7,1,2,5)            179.9968         calculate D2E/DX2 analytically  !
 ! D3    D(10,1,2,3)          -179.9971         calculate D2E/DX2 analytically  !
 ! D4    D(10,1,2,5)             0.0021         calculate D2E/DX2 analytically  !
 ! D5    D(2,1,7,4)              0.0082         calculate D2E/DX2 analytically  !
 ! D6    D(2,1,7,14)          -179.9973         calculate D2E/DX2 analytically  !
 ! D7    D(10,1,7,4)          -179.997          calculate D2E/DX2 analytically  !
 ! D8    D(10,1,7,14)           -0.0025         calculate D2E/DX2 analytically  !
 ! D9    D(1,2,3,4)             -0.004          calculate D2E/DX2 analytically  !
 ! D10   D(1,2,3,6)            179.9991         calculate D2E/DX2 analytically  !
 ! D11   D(5,2,3,4)            179.9967         calculate D2E/DX2 analytically  !
 ! D12   D(5,2,3,6)             -0.0001         calculate D2E/DX2 analytically  !
 ! D13   D(1,2,5,8)           -179.999          calculate D2E/DX2 analytically  !
 ! D14   D(1,2,5,12)             0.0005         calculate D2E/DX2 analytically  !
 ! D15   D(3,2,5,8)              0.0            calculate D2E/DX2 analytically  !
 ! D16   D(3,2,5,12)           179.9996         calculate D2E/DX2 analytically  !
 ! D17   D(2,3,4,7)              0.0089         calculate D2E/DX2 analytically  !
 ! D18   D(2,3,4,11)          -179.9963         calculate D2E/DX2 analytically  !
 ! D19   D(6,3,4,7)           -179.9949         calculate D2E/DX2 analytically  !
 ! D20   D(6,3,4,11)            -0.0002         calculate D2E/DX2 analytically  !
 ! D21   D(2,3,6,9)              0.0003         calculate D2E/DX2 analytically  !
 ! D22   D(2,3,6,13)           179.9983         calculate D2E/DX2 analytically  !
 ! D23   D(4,3,6,9)           -179.9955         calculate D2E/DX2 analytically  !
 ! D24   D(4,3,6,13)             0.0025         calculate D2E/DX2 analytically  !
 ! D25   D(3,4,7,1)             -0.0106         calculate D2E/DX2 analytically  !
 ! D26   D(3,4,7,14)           179.9956         calculate D2E/DX2 analytically  !
 ! D27   D(11,4,7,1)           179.9946         calculate D2E/DX2 analytically  !
 ! D28   D(11,4,7,14)            0.0008         calculate D2E/DX2 analytically  !
 ! D29   D(2,5,8,9)             -0.0001         calculate D2E/DX2 analytically  !
 ! D30   D(2,5,8,15)          -179.9999         calculate D2E/DX2 analytically  !
 ! D31   D(12,5,8,9)          -179.9996         calculate D2E/DX2 analytically  !
 ! D32   D(12,5,8,15)            0.0006         calculate D2E/DX2 analytically  !
 ! D33   D(3,6,9,8)             -0.0003         calculate D2E/DX2 analytically  !
 ! D34   D(3,6,9,16)           179.9989         calculate D2E/DX2 analytically  !
 ! D35   D(13,6,9,8)          -179.9983         calculate D2E/DX2 analytically  !
 ! D36   D(13,6,9,16)            0.0009         calculate D2E/DX2 analytically  !
 ! D37   D(5,8,9,6)              0.0002         calculate D2E/DX2 analytically  !
 ! D38   D(5,8,9,16)          -179.999          calculate D2E/DX2 analytically  !
 ! D39   D(15,8,9,6)          -180.0            calculate D2E/DX2 analytically  !
 ! D40   D(15,8,9,16)            0.0008         calculate D2E/DX2 analytically  !
 --------------------------------------------------------------------------------
 Trust Radius=3.00D-01 FncErr=1.00D-07 GrdErr=1.00D-07 EigMax=2.50D+02 EigMin=1.00D-04
 Number of steps in this run=      2 maximum allowed number of steps=      2.
 GradGradGradGradGradGradGradGradGradGradGradGradGradGradGradGradGradGrad

 Leave Link  103 at Sat May  4 11:05:29 2024, MaxMem= 13421772800 cpu:               1.3 elap:               0.1
 (Enter /tmpu/scunam/7/gaussian-2016.03/g1/g16/l202.exe)
                          Input orientation:                          
 ---------------------------------------------------------------------
 Center     Atomic      Atomic             Coordinates (Angstroms)
 Number     Number       Type             X           Y           Z
 ---------------------------------------------------------------------
      1          7           0        1.555375    1.126759   -0.000068
      2          6           0        0.247838    0.695778   -0.000040
      3          6           0        0.274414   -0.722647    0.000011
      4          6           0        1.653943   -1.112452   -0.000084
      5          6           0       -0.944395    1.417823   -0.000041
      6          6           0       -0.941352   -1.419685    0.000066
      7          6           0        2.395190    0.033734    0.000018
      8          6           0       -2.127907    0.699407    0.000012
      9          6           0       -2.126113   -0.706097    0.000063
     10          1           0        1.852606    2.085452   -0.000064
     11          1           0        2.045477   -2.116113   -0.000132
     12          1           0       -0.948861    2.501080   -0.000073
     13          1           0       -0.952351   -2.502806    0.000078
     14          1           0        3.464559    0.165468    0.000056
     15          1           0       -3.071720    1.229685    0.000011
     16          1           0       -3.070703   -1.235185    0.000087
 ---------------------------------------------------------------------
                    Distance matrix (angstroms):
                    1          2          3          4          5
     1  N    0.000000
     2  C    1.376735   0.000000
     3  C    2.249703   1.418674   0.000000
     4  C    2.241379   2.290596   1.433543   0.000000
     5  C    2.516658   1.393832   2.463150   3.626796   0.000000
     6  C    3.566234   2.426800   1.401410   2.613417   2.837510
     7  C    1.378402   2.247093   2.251622   1.364987   3.615042
     8  C    3.707991   2.375747   2.791664   4.193474   1.384494
     9  C    4.112507   2.756973   2.400585   3.801835   2.430534
    10  H    1.003713   2.122846   3.221197   3.204069   2.875577
    11  H    3.279697   3.337400   2.253532   1.077327   4.629042
    12  H    2.856564   2.165918   3.448017   4.453336   1.083266
    13  H    4.411624   3.416342   2.161925   2.953955   3.920637
    14  H    2.137536   3.260142   3.311460   2.216170   4.583368
    15  H    4.628240   3.362219   3.874044   5.274229   2.135629
    16  H    5.194168   3.839444   3.384155   4.726240   3.399947
                    6          7          8          9         10
     6  C    0.000000
     7  C    3.639360   0.000000
     8  C    2.428675   4.571819   0.000000
     9  C    1.383064   4.581434   1.405505   0.000000
    10  H    4.482431   2.122250   4.214927   4.860345   0.000000
    11  H    3.066946   2.178104   5.034311   4.403443   4.205989
    12  H    3.920772   4.155776   2.153178   3.416417   2.832131
    13  H    1.083177   4.200007   3.411173   2.146132   5.377722
    14  H    4.682388   1.077452   5.617897   5.658201   2.506936
    15  H    3.399651   5.596195   1.082579   2.154396   4.998132
    16  H    2.137329   5.611251   2.152094   1.082674   5.938485
                   11         12         13         14         15
    11  H    0.000000
    12  H    5.503138   0.000000
    13  H    3.022665   5.003887   0.000000
    14  H    2.686895   4.993331   5.160308   0.000000
    15  H    6.113924   2.474465   4.292227   6.622348   0.000000
    16  H    5.191467   4.296730   2.468660   6.683673   2.464870
                   16
    16  H    0.000000
 Stoichiometry    C8H7N
 Framework group  C1[X(C8H7N)]
 Deg. of freedom    42
 Full point group                 C1      NOp   1
 RotChk:  IX=0 Diff= 1.15D-15
 Largest Abelian subgroup         C1      NOp   1
 Largest concise Abelian subgroup C1      NOp   1
                         Standard orientation:                         
 ---------------------------------------------------------------------
 Center     Atomic      Atomic             Coordinates (Angstroms)
 Number     Number       Type             X           Y           Z
 ---------------------------------------------------------------------
      1          7           0       -1.562071   -1.077515   -0.000060
      2          6           0       -0.247028   -0.670011   -0.000033
      3          6           0       -0.248208    0.748663    0.000019
      4          6           0       -1.620537    1.163102   -0.000076
      5          6           0        0.932088   -1.413283   -0.000033
      6          6           0        0.979843    1.423824    0.000074
      7          6           0       -2.382184    0.030369    0.000025
      8          6           0        2.128271   -0.716169    0.000020
      9          6           0        2.151639    0.689142    0.000071
     10          1           0       -1.876417   -2.030734   -0.000056
     11          1           0       -1.994041    2.173611   -0.000125
     12          1           0        0.917161   -2.496446   -0.000065
     13          1           0        1.010229    2.506575    0.000086
     14          1           0       -3.453740   -0.082200    0.000064
     15          1           0        3.062440   -1.263258    0.000019
     16          1           0        3.105549    1.201235    0.000095
 ---------------------------------------------------------------------
 Rotational constants (GHZ):           3.9066027           1.6422938           1.1562280
 Leave Link  202 at Sat May  4 11:05:29 2024, MaxMem= 13421772800 cpu:               0.3 elap:               0.0
 (Enter /tmpu/scunam/7/gaussian-2016.03/g1/g16/l301.exe)
 Standard basis: def2TZVP (5D, 7F)
 Ernie: Thresh=  0.10000D-02 Tol=  0.10000D-05 Strict=F.
 There are   366 symmetry adapted cartesian basis functions of A   symmetry.
 There are   321 symmetry adapted basis functions of A   symmetry.
   321 basis functions,   515 primitive gaussians,   366 cartesian basis functions
    31 alpha electrons       31 beta electrons
       nuclear repulsion energy       401.2499066836 Hartrees.
 IExCor=  402 DFT=T Ex+Corr=B3LYP ExCW=0 ScaHFX=  0.200000
 ScaDFX=  0.800000  0.720000  1.000000  0.810000 ScalE2=  1.000000  1.000000
 IRadAn=      5 IRanWt=     -1 IRanGd=            0 ICorTp=0 IEmpDi=  4
 NAtoms=   16 NActive=   16 NUniq=   16 SFac= 1.00D+00 NAtFMM=   60 NAOKFM=F Big=F
 Integral buffers will be    131072 words long.
 Raffenetti 2 integral format.
 Two-electron integral symmetry is turned on.
 Leave Link  301 at Sat May  4 11:05:29 2024, MaxMem= 13421772800 cpu:               2.8 elap:               0.1
 (Enter /tmpu/scunam/7/gaussian-2016.03/g1/g16/l302.exe)
 NPDir=0 NMtPBC=     1 NCelOv=     1 NCel=       1 NClECP=     1 NCelD=      1
         NCelK=      1 NCelE2=     1 NClLst=     1 CellRange=     0.0.
 One-electron integrals computed using PRISM.
 One-electron integral symmetry used in STVInt
   1 Symmetry operations used in ECPInt.
 ECPInt:  NShTT=    8128 NPrTT=   24972 LenC2=    7970 LenP2D=   19690.
 LDataN:  DoStor=T MaxTD1= 6 Len=  172
 NBasis=   321 RedAO= T EigKep=  8.45D-06  NBF=   321
 NBsUse=   321 1.00D-06 EigRej= -1.00D+00 NBFU=   321
 Precomputing XC quadrature grid using
 IXCGrd= 4 IRadAn=           5 IRanWt=          -1 IRanGd=           0 AccXCQ= 0.00D+00.
 Generated NRdTot=       0 NPtTot=           0 NUsed=           0 NTot=          32
 NSgBfM=   365   365   365   365   365 MxSgAt=    16 MxSgA2=    16.
 Leave Link  302 at Sat May  4 11:05:29 2024, MaxMem= 13421772800 cpu:              11.8 elap:               0.4
 (Enter /tmpu/scunam/7/gaussian-2016.03/g1/g16/l303.exe)
 DipDrv:  MaxL=1.
 Leave Link  303 at Sat May  4 11:05:30 2024, MaxMem= 13421772800 cpu:               8.8 elap:               0.3
 (Enter /tmpu/scunam/7/gaussian-2016.03/g1/g16/l401.exe)
 Initial guess from the checkpoint file:  "indole.chk"
 B after Tr=     0.000000   -0.000000    0.000000
         Rot=    1.000000    0.000000   -0.000000    0.000000 Ang=   0.00 deg.
 Guess basis will be translated and rotated to current coordinates.
 JPrj=2 DoOrth=T DoCkMO=T.
 Leave Link  401 at Sat May  4 11:05:30 2024, MaxMem= 13421772800 cpu:               9.9 elap:               0.3
 (Enter /tmpu/scunam/7/gaussian-2016.03/g1/g16/l502.exe)
 Integral symmetry usage will be decided dynamically.
 Closed shell SCF:
 Using DIIS extrapolation, IDIIS=  1040.
 NGot= 13421772800 LenX= 13421489896 LenY= 13421355499
 Requested convergence on RMS density matrix=1.00D-08 within 128 cycles.
 Requested convergence on MAX density matrix=1.00D-06.
 Requested convergence on             energy=1.00D-06.
 No special actions if energy rises.
 Fock matrices will be formed incrementally for  20 cycles.

 Cycle   1  Pass 1  IDiag  1:
 FoFJK:  IHMeth= 1 ICntrl=       0 DoSepK=F KAlg= 0 I1Cent=           0 FoldK=F
 IRaf= 950000000 NMat=       1 IRICut=       1 DoRegI=T DoRafI=F ISym2E= 0 IDoP0=0 IntGTp=1.
 FoFCou: FMM=F IPFlag=           0 FMFlag=      100000 FMFlg1=           0
         NFxFlg=           0 DoJE=F BraDBF=F KetDBF=F FulRan=T
         wScrn=  0.000000 ICntrl=         0 IOpCl=  0 I1Cent=           0 NGrid=           0
         NMat0=    1 NMatS0=      1 NMatT0=    0 NMatD0=    1 NMtDS0=    0 NMtDT0=    0
 Symmetry not used in FoFCou.
 E= -363.955078900616    
 DIIS: error= 5.93D-08 at cycle   1 NSaved=   1.
 NSaved= 1 IEnMin= 1 EnMin= -363.955078900616     IErMin= 1 ErrMin= 5.93D-08
 ErrMax= 5.93D-08  0.00D+00 EMaxC= 1.00D-01 BMatC= 3.59D-13 BMatP= 3.59D-13
 IDIUse=1 WtCom= 1.00D+00 WtEn= 0.00D+00
 Coeff-Com:  0.100D+01
 Coeff:      0.100D+01
 Gap=     0.192 Goal=   None    Shift=    0.000
 RMSDP=4.76D-09 MaxDP=1.52D-07              OVMax= 7.18D-07

 SCF Done:  E(RB3LYP) =  -363.955078901     A.U. after    1 cycles
            NFock=  1  Conv=0.48D-08     -V/T= 2.0051
 KE= 3.620914584021D+02 PE=-1.647598599528D+03 EE= 5.203021555418D+02
 Leave Link  502 at Sat May  4 11:05:33 2024, MaxMem= 13421772800 cpu:              82.6 elap:               2.6
 (Enter /tmpu/scunam/7/gaussian-2016.03/g1/g16/l508.exe)
 QCSCF skips out because SCF is already converged.
 Leave Link  508 at Sat May  4 11:05:33 2024, MaxMem= 13421772800 cpu:               1.1 elap:               0.1
 (Enter /tmpu/scunam/7/gaussian-2016.03/g1/g16/l801.exe)
 DoSCS=F DFT=T ScalE2(SS,OS)=  1.000000  1.000000
 Range of M.O.s used for correlation:     1   321
 NBasis=   321 NAE=    31 NBE=    31 NFC=     0 NFV=     0
 NROrb=    321 NOA=    31 NOB=    31 NVA=   290 NVB=   290

 **** Warning!!: The largest alpha MO coefficient is  0.80259522D+02

 Leave Link  801 at Sat May  4 11:05:33 2024, MaxMem= 13421772800 cpu:               0.7 elap:               0.0
 (Enter /tmpu/scunam/7/gaussian-2016.03/g1/g16/l1002.exe)
 Minotr:  Closed shell wavefunction.
          Direct CPHF calculation.
          Differentiating once with respect to electric field.
                with respect to dipole field.
          Electric field/nuclear overlap derivatives assumed to be zero.
          Requested convergence is 1.0D-08 RMS, and 1.0D-07 maximum.
          Secondary convergence is 1.0D-12 RMS, and 1.0D-12 maximum.
          NewPWx=F KeepS1=T KeepF1=T KeepIn=T MapXYZ=F SortEE=F KeepMc=T.
         4790 words used for storage of precomputed grid.
 Two-electron integral symmetry used by symmetrizing perturbed Fock matrices.
          MDV=   13421772800 using IRadAn=       1.
          Solving linear equations simultaneously, MaxMat=     384.
          There are     3 degrees of freedom in the 1st order CPHF.  IDoFFX=0 NUNeed=     3.
      3 vectors produced by pass  0 Test12= 3.00D-13 3.33D-08 XBig12= 1.96D+02 7.91D+00.
 AX will form     3 AO Fock derivatives at one time.
 FoFJK:  IHMeth= 1 ICntrl=       0 DoSepK=F KAlg= 0 I1Cent=           0 FoldK=F
 IRaf= 940000000 NMat=       3 IRICut=       1 DoRegI=T DoRafI=F ISym2E=-1 IDoP0=0 IntGTp=1.
 FoFCou: FMM=F IPFlag=           0 FMFlag=      100000 FMFlg1=           0
         NFxFlg=           0 DoJE=F BraDBF=F KetDBF=F FulRan=T
         wScrn=  0.000000 ICntrl=         0 IOpCl=  0 I1Cent=           0 NGrid=           0
         NMat0=    3 NMatS0=      3 NMatT0=    0 NMatD0=    3 NMtDS0=    0 NMtDT0=    0
 Petite list used in FoFCou.
      3 vectors produced by pass  1 Test12= 3.00D-13 3.33D-08 XBig12= 6.53D+01 1.81D+00.
      3 vectors produced by pass  2 Test12= 3.00D-13 3.33D-08 XBig12= 7.88D+00 6.75D-01.
      3 vectors produced by pass  3 Test12= 3.00D-13 3.33D-08 XBig12= 3.02D+00 5.90D-01.
      3 vectors produced by pass  4 Test12= 3.00D-13 3.33D-08 XBig12= 3.93D-01 2.16D-01.
      3 vectors produced by pass  5 Test12= 3.00D-13 3.33D-08 XBig12= 1.30D-01 1.21D-01.
      3 vectors produced by pass  6 Test12= 3.00D-13 3.33D-08 XBig12= 1.77D-02 3.69D-02.
      3 vectors produced by pass  7 Test12= 3.00D-13 3.33D-08 XBig12= 2.64D-03 1.40D-02.
      3 vectors produced by pass  8 Test12= 3.00D-13 3.33D-08 XBig12= 4.43D-04 6.11D-03.
      3 vectors produced by pass  9 Test12= 3.00D-13 3.33D-08 XBig12= 6.29D-05 2.65D-03.
      3 vectors produced by pass 10 Test12= 3.00D-13 3.33D-08 XBig12= 2.05D-06 2.12D-04.
      3 vectors produced by pass 11 Test12= 3.00D-13 3.33D-08 XBig12= 6.95D-08 4.51D-05.
      2 vectors produced by pass 12 Test12= 3.00D-13 3.33D-08 XBig12= 1.39D-09 8.15D-06.
      2 vectors produced by pass 13 Test12= 3.00D-13 3.33D-08 XBig12= 4.81D-11 9.04D-07.
      2 vectors produced by pass 14 Test12= 3.00D-13 3.33D-08 XBig12= 1.38D-12 2.44D-07.
 InvSVY:  IOpt=1 It=  1 EMax= 8.88D-15
 Solved reduced A of dimension    42 with     3 vectors.
 End of Minotr F.D. properties file   721 does not exist.
 End of Minotr F.D. properties file   722 does not exist.
 End of Minotr F.D. properties file   788 does not exist.
 Leave Link 1002 at Sat May  4 11:06:26 2024, MaxMem= 13421772800 cpu:            1688.1 elap:              52.8
 (Enter /tmpu/scunam/7/gaussian-2016.03/g1/g16/l1101.exe)
 Using compressed storage, NAtomX=    16.
 Will process     17 centers per pass.
   1 Symmetry operations used in ECPInt.
 ECPInt:  NShTT=    8128 NPrTT=   24972 LenC2=    7970 LenP2D=   19690.
 LDataN:  DoStor=T MaxTD1= 7 Len=  274
 Leave Link 1101 at Sat May  4 11:06:26 2024, MaxMem= 13421772800 cpu:              16.5 elap:               0.6
 (Enter /tmpu/scunam/7/gaussian-2016.03/g1/g16/l1102.exe)
 Symmetrizing basis deriv contribution to polar:
 IMax=3 JMax=2 DiffMx= 0.00D+00
 Leave Link 1102 at Sat May  4 11:06:26 2024, MaxMem= 13421772800 cpu:               2.2 elap:               0.1
 (Enter /tmpu/scunam/7/gaussian-2016.03/g1/g16/l1110.exe)
 Forming Gx(P) for the SCF density, NAtomX=    16.
 Integral derivatives from FoFJK, PRISM(SPDF).
 Do as many integral derivatives as possible in FoFJK.
 G2DrvN: MDV=   13421771544.
 G2DrvN: will do    17 centers at a time, making    1 passes.
 PxScal for G2LodP:  IOpCl= 0 ISclPx=1 IMOff=     1 NMtTot=     4 NTT=   51681 ScalPx= 7.60D+00
 Calling FoFCou, ICntrl=  3107 FMM=F I1Cent=   0 AccDes= 0.00D+00.
 FoFJK:  IHMeth= 1 ICntrl=    3107 DoSepK=F KAlg= 0 I1Cent=           0 FoldK=F
 IRaf=         0 NMat=       1 IRICut=       1 DoRegI=T DoRafI=F ISym2E= 0 IDoP0=0 IntGTp=1.
 FoFCou: FMM=F IPFlag=           0 FMFlag=      100000 FMFlg1=           0
         NFxFlg=           0 DoJE=F BraDBF=F KetDBF=F FulRan=T
         wScrn=  0.000000 ICntrl=      3107 IOpCl=  0 I1Cent=           0 NGrid=           0
         NMat0=    1 NMatS0=      1 NMatT0=    0 NMatD0=    4 NMtDS0=    3 NMtDT0=    0
 Symmetry not used in FoFCou.
 End of G2Drv F.D. properties file   721 does not exist.
 End of G2Drv F.D. properties file   722 does not exist.
 End of G2Drv F.D. properties file   788 does not exist.
 Leave Link 1110 at Sat May  4 11:07:32 2024, MaxMem= 13421772800 cpu:            2090.8 elap:              65.4
 (Enter /tmpu/scunam/7/gaussian-2016.03/g1/g16/l1002.exe)
 Minotr:  Closed shell wavefunction.
          IDoAtm=1111111111111111
          Direct CPHF calculation.
          Differentiating once with respect to electric field.
                with respect to dipole field.
          Differentiating once with respect to nuclear coordinates.
          Requested convergence is 1.0D-08 RMS, and 1.0D-07 maximum.
          Secondary convergence is 1.0D-12 RMS, and 1.0D-12 maximum.
          NewPWx=T KeepS1=F KeepF1=F KeepIn=T MapXYZ=F SortEE=F KeepMc=T.
         4790 words used for storage of precomputed grid.
 Keep R1 ints in memory in canonical form, NReq=1372397314.
 FoFCou: FMM=F IPFlag=           0 FMFlag=           0 FMFlg1=           0
         NFxFlg=           0 DoJE=F BraDBF=F KetDBF=F FulRan=T
         wScrn=  0.000000 ICntrl=       600 IOpCl=  0 I1Cent=           0 NGrid=           0
         NMat0=    1 NMatS0=  51681 NMatT0=    0 NMatD0=    1 NMtDS0=    0 NMtDT0=    0
 Symmetry not used in FoFCou.
 Two-electron integral symmetry not used.
          MDV=   13421772800 using IRadAn=       1.
          Solving linear equations simultaneously, MaxMat=       0.
          There are    51 degrees of freedom in the 1st order CPHF.  IDoFFX=5 NUNeed=    51.
 Will reuse    3 saved solutions.
     45 vectors produced by pass  0 Test12= 1.76D-14 1.96D-09 XBig12= 1.48D-01 1.34D-01.
 AX will form    45 AO Fock derivatives at one time.
     45 vectors produced by pass  1 Test12= 1.76D-14 1.96D-09 XBig12= 3.89D-02 5.65D-02.
     45 vectors produced by pass  2 Test12= 1.76D-14 1.96D-09 XBig12= 3.78D-04 4.18D-03.
     45 vectors produced by pass  3 Test12= 1.76D-14 1.96D-09 XBig12= 1.31D-06 1.48D-04.
     45 vectors produced by pass  4 Test12= 1.76D-14 1.96D-09 XBig12= 2.67D-09 7.44D-06.
     42 vectors produced by pass  5 Test12= 1.76D-14 1.96D-09 XBig12= 5.04D-12 3.32D-07.
     20 vectors produced by pass  6 Test12= 1.76D-14 1.96D-09 XBig12= 9.61D-15 1.30D-08.
 InvSVY:  IOpt=1 It=  1 EMax= 4.44D-16
 Solved reduced A of dimension   287 with    51 vectors.
 FullF1:  Do perturbations      1 to       3.
 Isotropic polarizability for W=    0.000000       96.57 Bohr**3.
 FullF1:  Do perturbations      1 to       6.
 End of Minotr F.D. properties file   721 does not exist.
 End of Minotr F.D. properties file   722 does not exist.
 End of Minotr F.D. properties file   788 does not exist.
 Leave Link 1002 at Sat May  4 11:08:44 2024, MaxMem= 13421772800 cpu:            2308.1 elap:              72.2
 (Enter /tmpu/scunam/7/gaussian-2016.03/g1/g16/l601.exe)
 Copying SCF densities to generalized density rwf, IOpCl= 0 IROHF=0.

 **********************************************************************

            Population analysis using the SCF density.

 **********************************************************************

 Orbital symmetries:
       Occupied  (A) (A) (A) (A) (A) (A) (A) (A) (A) (A) (A) (A)
                 (A) (A) (A) (A) (A) (A) (A) (A) (A) (A) (A) (A)
                 (A) (A) (A) (A) (A) (A) (A)
       Virtual   (A) (A) (A) (A) (A) (A) (A) (A) (A) (A) (A) (A)
                 (A) (A) (A) (A) (A) (A) (A) (A) (A) (A) (A) (A)
                 (A) (A) (A) (A) (A) (A) (A) (A) (A) (A) (A) (A)
                 (A) (A) (A) (A) (A) (A) (A) (A) (A) (A) (A) (A)
                 (A) (A) (A) (A) (A) (A) (A) (A) (A) (A) (A) (A)
                 (A) (A) (A) (A) (A) (A) (A) (A) (A) (A) (A) (A)
                 (A) (A) (A) (A) (A) (A) (A) (A) (A) (A) (A) (A)
                 (A) (A) (A) (A) (A) (A) (A) (A) (A) (A) (A) (A)
                 (A) (A) (A) (A) (A) (A) (A) (A) (A) (A) (A) (A)
                 (A) (A) (A) (A) (A) (A) (A) (A) (A) (A) (A) (A)
                 (A) (A) (A) (A) (A) (A) (A) (A) (A) (A) (A) (A)
                 (A) (A) (A) (A) (A) (A) (A) (A) (A) (A) (A) (A)
                 (A) (A) (A) (A) (A) (A) (A) (A) (A) (A) (A) (A)
                 (A) (A) (A) (A) (A) (A) (A) (A) (A) (A) (A) (A)
                 (A) (A) (A) (A) (A) (A) (A) (A) (A) (A) (A) (A)
                 (A) (A) (A) (A) (A) (A) (A) (A) (A) (A) (A) (A)
                 (A) (A) (A) (A) (A) (A) (A) (A) (A) (A) (A) (A)
                 (A) (A) (A) (A) (A) (A) (A) (A) (A) (A) (A) (A)
                 (A) (A) (A) (A) (A) (A) (A) (A) (A) (A) (A) (A)
                 (A) (A) (A) (A) (A) (A) (A) (A) (A) (A) (A) (A)
                 (A) (A) (A) (A) (A) (A) (A) (A) (A) (A) (A) (A)
                 (A) (A) (A) (A) (A) (A) (A) (A) (A) (A) (A) (A)
                 (A) (A) (A) (A) (A) (A) (A) (A) (A) (A) (A) (A)
                 (A) (A) (A) (A) (A) (A) (A) (A) (A) (A) (A) (A)
                 (A) (A)
 The electronic state is 1-A.
 Alpha  occ. eigenvalues --  -14.36086 -10.20537 -10.20391 -10.17283 -10.16993
 Alpha  occ. eigenvalues --  -10.16781 -10.16712 -10.16229 -10.16076  -0.98344
 Alpha  occ. eigenvalues --   -0.84132  -0.78447  -0.73714  -0.71901  -0.62653
 Alpha  occ. eigenvalues --   -0.59708  -0.58438  -0.54275  -0.48538  -0.47373
 Alpha  occ. eigenvalues --   -0.44119  -0.43209  -0.42687  -0.41502  -0.39513
 Alpha  occ. eigenvalues --   -0.35881  -0.33929  -0.33861  -0.28379  -0.22806
 Alpha  occ. eigenvalues --   -0.21154
 Alpha virt. eigenvalues --   -0.01920   0.01708   0.02814   0.05178   0.05829
 Alpha virt. eigenvalues --    0.07187   0.08415   0.09289   0.11302   0.11572
 Alpha virt. eigenvalues --    0.12126   0.15752   0.16779   0.17871   0.18729
 Alpha virt. eigenvalues --    0.19403   0.20027   0.21795   0.22910   0.23351
 Alpha virt. eigenvalues --    0.24539   0.25285   0.25774   0.27461   0.29138
 Alpha virt. eigenvalues --    0.29352   0.30744   0.30766   0.32632   0.34476
 Alpha virt. eigenvalues --    0.35135   0.35893   0.37295   0.37626   0.38320
 Alpha virt. eigenvalues --    0.39493   0.41081   0.41448   0.41884   0.42375
 Alpha virt. eigenvalues --    0.44316   0.45132   0.45951   0.46625   0.46652
 Alpha virt. eigenvalues --    0.48526   0.50793   0.50837   0.51164   0.52459
 Alpha virt. eigenvalues --    0.55325   0.56299   0.59876   0.60700   0.62598
 Alpha virt. eigenvalues --    0.62915   0.63910   0.67621   0.69314   0.70782
 Alpha virt. eigenvalues --    0.71112   0.72091   0.72802   0.73656   0.76470
 Alpha virt. eigenvalues --    0.79322   0.79599   0.81070   0.81770   0.84603
 Alpha virt. eigenvalues --    0.86359   0.87146   0.89448   0.90543   0.92913
 Alpha virt. eigenvalues --    0.96423   0.97968   1.00060   1.02181   1.02774
 Alpha virt. eigenvalues --    1.07073   1.08746   1.08815   1.11706   1.14201
 Alpha virt. eigenvalues --    1.14376   1.20114   1.20645   1.21093   1.22325
 Alpha virt. eigenvalues --    1.23834   1.25376   1.26911   1.27641   1.28247
 Alpha virt. eigenvalues --    1.32813   1.35306   1.35627   1.36028   1.39916
 Alpha virt. eigenvalues --    1.41928   1.43334   1.43790   1.46519   1.48498
 Alpha virt. eigenvalues --    1.49381   1.49657   1.50768   1.53831   1.55481
 Alpha virt. eigenvalues --    1.56106   1.59093   1.59736   1.60878   1.63984
 Alpha virt. eigenvalues --    1.66355   1.67701   1.68889   1.70670   1.71292
 Alpha virt. eigenvalues --    1.75251   1.76432   1.79347   1.82544   1.84912
 Alpha virt. eigenvalues --    1.85355   1.86168   1.92219   1.94720   1.95989
 Alpha virt. eigenvalues --    1.96982   2.01590   2.05825   2.06664   2.07281
 Alpha virt. eigenvalues --    2.09746   2.13086   2.14783   2.15505   2.16908
 Alpha virt. eigenvalues --    2.17864   2.22502   2.23412   2.27635   2.30191
 Alpha virt. eigenvalues --    2.32499   2.36558   2.39296   2.41812   2.43222
 Alpha virt. eigenvalues --    2.48239   2.51059   2.55482   2.56137   2.56474
 Alpha virt. eigenvalues --    2.59006   2.61352   2.61591   2.63548   2.65236
 Alpha virt. eigenvalues --    2.65900   2.66757   2.69555   2.70505   2.70726
 Alpha virt. eigenvalues --    2.72302   2.74761   2.75568   2.77340   2.78934
 Alpha virt. eigenvalues --    2.80173   2.80292   2.81986   2.82964   2.83630
 Alpha virt. eigenvalues --    2.87773   2.87969   2.88523   2.91068   2.93252
 Alpha virt. eigenvalues --    2.94714   2.95244   2.97304   3.01737   3.01865
 Alpha virt. eigenvalues --    3.06638   3.07984   3.10145   3.11044   3.11088
 Alpha virt. eigenvalues --    3.12892   3.15516   3.15600   3.15971   3.17828
 Alpha virt. eigenvalues --    3.21278   3.21852   3.21923   3.25107   3.25126
 Alpha virt. eigenvalues --    3.28340   3.28397   3.29614   3.33267   3.34936
 Alpha virt. eigenvalues --    3.35904   3.37842   3.38616   3.38945   3.43512
 Alpha virt. eigenvalues --    3.43676   3.45224   3.45631   3.46400   3.49188
 Alpha virt. eigenvalues --    3.49535   3.52685   3.54132   3.57132   3.57577
 Alpha virt. eigenvalues --    3.61684   3.62338   3.64857   3.70774   3.73395
 Alpha virt. eigenvalues --    3.76714   3.80649   3.84623   3.85006   3.88308
 Alpha virt. eigenvalues --    3.92592   3.92697   3.95490   3.98625   4.01564
 Alpha virt. eigenvalues --    4.04239   4.11811   4.12125   4.16153   4.17251
 Alpha virt. eigenvalues --    4.20187   4.21974   4.22032   4.24383   4.27449
 Alpha virt. eigenvalues --    4.30801   4.32497   4.37457   4.40509   4.44069
 Alpha virt. eigenvalues --    4.46282   4.57039   4.60744   4.60808   4.68143
 Alpha virt. eigenvalues --    4.69943   4.72793   4.74926   4.75570   4.82322
 Alpha virt. eigenvalues --    4.85027   4.85415   4.90871   4.93772   4.97827
 Alpha virt. eigenvalues --    5.01821   5.02538   5.12229   5.18373   5.23724
 Alpha virt. eigenvalues --    5.29503   5.29855   5.33753   5.43330   5.47031
 Alpha virt. eigenvalues --    5.50691   5.59567   5.68590   5.77379   6.01265
 Alpha virt. eigenvalues --    6.12966  22.22285  22.43314  22.60618  22.63586
 Alpha virt. eigenvalues --   22.81246  22.90625  22.96287  23.57295  32.35205
          Condensed to atoms (all electrons):
               1          2          3          4          5          6
     1  N    6.342662   0.382801  -0.074807  -0.086134  -0.039567  -0.001945
     2  C    0.382801   4.999393   0.433267  -0.028354   0.415926  -0.050325
     3  C   -0.074807   0.433267   4.846845   0.429455   0.002803   0.465116
     4  C   -0.086134  -0.028354   0.429455   5.030429   0.001739  -0.085484
     5  C   -0.039567   0.415926   0.002803   0.001739   4.997188  -0.049327
     6  C   -0.001945  -0.050325   0.465116  -0.085484  -0.049327   5.025634
     7  C    0.381087  -0.127782  -0.076750   0.580267   0.012327   0.006380
     8  C   -0.004493  -0.034408  -0.068561   0.006533   0.518056  -0.012277
     9  C    0.004631  -0.079968  -0.021259  -0.002132  -0.008747   0.521659
    10  H    0.381263  -0.041872   0.011634   0.007902  -0.003896  -0.000644
    11  H    0.004342   0.015007  -0.049168   0.432426  -0.000469  -0.003584
    12  H   -0.000859  -0.065961   0.009418  -0.000943   0.421479  -0.001572
    13  H   -0.000357   0.014555  -0.062504  -0.003263  -0.002539   0.429581
    14  H   -0.034744   0.005246   0.006564  -0.028286  -0.000714  -0.000014
    15  H   -0.000203   0.016033  -0.002584   0.000069  -0.061136   0.010410
    16  H    0.000047  -0.002783   0.014289  -0.000491   0.012254  -0.058984
               7          8          9         10         11         12
     1  N    0.381087  -0.004493   0.004631   0.381263   0.004342  -0.000859
     2  C   -0.127782  -0.034408  -0.079968  -0.041872   0.015007  -0.065961
     3  C   -0.076750  -0.068561  -0.021259   0.011634  -0.049168   0.009418
     4  C    0.580267   0.006533  -0.002132   0.007902   0.432426  -0.000943
     5  C    0.012327   0.518056  -0.008747  -0.003896  -0.000469   0.421479
     6  C    0.006380  -0.012277   0.521659  -0.000644  -0.003584  -0.001572
     7  C    4.907394  -0.002443   0.001609  -0.043324  -0.049711  -0.000186
     8  C   -0.002443   4.879047   0.472527  -0.000013   0.000070  -0.033837
     9  C    0.001609   0.472527   4.887503   0.000032  -0.000321   0.008973
    10  H   -0.043324  -0.000013   0.000032   0.478634  -0.000150   0.003248
    11  H   -0.049711   0.000070  -0.000321  -0.000150   0.545416   0.000022
    12  H   -0.000186  -0.033837   0.008973   0.003248   0.000022   0.573834
    13  H   -0.001040   0.010593  -0.052723   0.000034   0.002963   0.000090
    14  H    0.412302   0.000075  -0.000001  -0.004349  -0.002475  -0.000015
    15  H    0.000039   0.429811  -0.053055  -0.000014  -0.000001  -0.008796
    16  H    0.000078  -0.057442   0.430479  -0.000003  -0.000011  -0.000278
              13         14         15         16
     1  N   -0.000357  -0.034744  -0.000203   0.000047
     2  C    0.014555   0.005246   0.016033  -0.002783
     3  C   -0.062504   0.006564  -0.002584   0.014289
     4  C   -0.003263  -0.028286   0.000069  -0.000491
     5  C   -0.002539  -0.000714  -0.061136   0.012254
     6  C    0.429581  -0.000014   0.010410  -0.058984
     7  C   -0.001040   0.412302   0.000039   0.000078
     8  C    0.010593   0.000075   0.429811  -0.057442
     9  C   -0.052723  -0.000001  -0.053055   0.430479
    10  H    0.000034  -0.004349  -0.000014  -0.000003
    11  H    0.002963  -0.002475  -0.000001  -0.000011
    12  H    0.000090  -0.000015  -0.008796  -0.000278
    13  H    0.576211  -0.000010  -0.000307  -0.008589
    14  H   -0.000010   0.514498  -0.000000  -0.000000
    15  H   -0.000307  -0.000000   0.574328  -0.007284
    16  H   -0.008589  -0.000000  -0.007284   0.578498
 Mulliken charges:
               1
     1  N   -0.253724
     2  C    0.149224
     3  C    0.136242
     4  C   -0.253735
     5  C   -0.215376
     6  C   -0.194625
     7  C   -0.000246
     8  C   -0.103237
     9  C   -0.109208
    10  H    0.211516
    11  H    0.105643
    12  H    0.095384
    13  H    0.097306
    14  H    0.131923
    15  H    0.102692
    16  H    0.100220
 Sum of Mulliken charges =  -0.00000
 Mulliken charges with hydrogens summed into heavy atoms:
               1
     1  N   -0.042208
     2  C    0.149224
     3  C    0.136242
     4  C   -0.148092
     5  C   -0.119992
     6  C   -0.097319
     7  C    0.131677
     8  C   -0.000545
     9  C   -0.008988
 APT charges:
               1
     1  N   -0.423333
     2  C    0.129171
     3  C   -0.010140
     4  C   -0.150510
     5  C    0.004371
     6  C    0.049494
     7  C    0.100467
     8  C   -0.066197
     9  C   -0.097186
    10  H    0.220218
    11  H    0.058644
    12  H    0.029161
    13  H    0.027785
    14  H    0.071855
    15  H    0.030073
    16  H    0.026126
 Sum of APT charges =   0.00000
 APT charges with hydrogens summed into heavy atoms:
               1
     1  N   -0.203115
     2  C    0.129171
     3  C   -0.010140
     4  C   -0.091866
     5  C    0.033533
     6  C    0.077279
     7  C    0.172322
     8  C   -0.036124
     9  C   -0.071060
 Electronic spatial extent (au):  <R**2>=           1005.4023
 Charge=             -0.0000 electrons
 Dipole moment (field-independent basis, Debye):
    X=             -1.5265    Y=             -1.5516    Z=             -0.0000  Tot=              2.1766
 Quadrupole moment (field-independent basis, Debye-Ang):
   XX=            -45.6468   YY=            -44.7215   ZZ=            -58.0095
   XY=              3.1610   XZ=             -0.0001   YZ=              0.0000
 Traceless Quadrupole moment (field-independent basis, Debye-Ang):
   XX=              3.8125   YY=              4.7378   ZZ=             -8.5503
   XY=              3.1610   XZ=             -0.0001   YZ=              0.0000
 Octapole moment (field-independent basis, Debye-Ang**2):
  XXX=            -14.8414  YYY=            -10.4132  ZZZ=             -0.0003  XYY=             -8.0693
  XXY=             -8.1607  XXZ=              0.0007  XZZ=             -2.1128  YZZ=             -2.0633
  YYZ=             -0.0009  XYZ=              0.0005
 Hexadecapole moment (field-independent basis, Debye-Ang**3):
 XXXX=           -815.2117 YYYY=           -369.3271 ZZZZ=            -68.4336 XXXY=             21.3108
 XXXZ=             -0.0090 YYYX=             19.3986 YYYZ=             -0.0031 ZZZX=             -0.0085
 ZZZY=             -0.0044 XXYY=           -196.0330 XXZZ=           -184.7751 YYZZ=            -91.2244
 XXYZ=             -0.0015 YYXZ=             -0.0009 ZZXY=              3.9508
 N-N= 4.012499066836D+02 E-N=-1.647598588812D+03  KE= 3.620914584021D+02
  Exact polarizability: 135.215  -0.314 101.965   0.001   0.001  52.531
 Approx polarizability: 222.103   4.814 179.515   0.001   0.002  84.179
 No NMR shielding tensors so no spin-rotation constants.
 Leave Link  601 at Sat May  4 11:08:44 2024, MaxMem= 13421772800 cpu:               6.6 elap:               0.3
 (Enter /tmpu/scunam/7/gaussian-2016.03/g1/g16/l701.exe)
 ... and contract with generalized density number  0.
 Compute integral second derivatives.
   1 Symmetry operations used in ECPInt.
 ECPInt:  NShTT=    8128 NPrTT=   24972 LenC2=    7970 LenP2D=   19690.
 LDataN:  DoStor=T MaxTD1= 8 Len=  415
 Leave Link  701 at Sat May  4 11:08:45 2024, MaxMem= 13421772800 cpu:               9.3 elap:               0.3
 (Enter /tmpu/scunam/7/gaussian-2016.03/g1/g16/l702.exe)
 L702 exits ... SP integral derivatives will be done elsewhere.
 Leave Link  702 at Sat May  4 11:08:45 2024, MaxMem= 13421772800 cpu:               1.6 elap:               0.1
 (Enter /tmpu/scunam/7/gaussian-2016.03/g1/g16/l703.exe)
 Integral derivatives from FoFJK, PRISM(SPDF).
 Compute integral second derivatives, UseDBF=F ICtDFT=           0.
 Calling FoFJK, ICntrl=    100127 FMM=F ISym2X=0 I1Cent= 0 IOpClX= 0 NMat=1 NMatS=1 NMatT=0.
 FoFJK:  IHMeth= 1 ICntrl=  100127 DoSepK=F KAlg= 0 I1Cent=           0 FoldK=F
 IRaf=         0 NMat=       1 IRICut=       1 DoRegI=T DoRafI=F ISym2E= 0 IDoP0=0 IntGTp=1.
 FoFCou: FMM=F IPFlag=           0 FMFlag=      100000 FMFlg1=         800
         NFxFlg=           0 DoJE=F BraDBF=F KetDBF=F FulRan=T
         wScrn=  0.000000 ICntrl=    100127 IOpCl=  0 I1Cent=           0 NGrid=           0
         NMat0=    1 NMatS0=      1 NMatT0=    0 NMatD0=    1 NMtDS0=    0 NMtDT0=    0
 Symmetry not used in FoFCou.
 Leave Link  703 at Sat May  4 11:10:42 2024, MaxMem= 13421772800 cpu:            3729.0 elap:             116.7
 (Enter /tmpu/scunam/7/gaussian-2016.03/g1/g16/l716.exe)
 Dipole        =-6.00569076D-01-6.10435140D-01-4.54754252D-06
 Polarizability= 1.35214832D+02-3.13874562D-01 1.01964569D+02
                 1.09424149D-03 9.12414716D-04 5.25313343D+01
 HyperPolar    = 1.33225807D+02-4.06568128D+00-5.68663374D+00
                 1.46219139D+01 3.53629130D-03 1.06400224D-03
                 4.10692115D-03-1.16113422D+00 1.03219540D+01
                 7.43642042D-04
 Full mass-weighted force constant matrix:
 Low frequencies ---   -8.6652   -2.9791   -2.7462   -0.0004    0.0003    0.0008
 Low frequencies ---  211.8546  244.3682  367.1229
 Diagonal vibrational polarizability:
        1.9206303       1.9165744      28.9099130
 Diagonal vibrational hyperpolarizability:
      -26.7019291      -3.1501397       0.0068170
 Harmonic frequencies (cm**-1), IR intensities (KM/Mole), Raman scattering
 activities (A**4/AMU), depolarization ratios for plane and unpolarized
 incident light, reduced masses (AMU), force constants (mDyne/A),
 and normal coordinates:
                      1                      2                      3
                      A                      A                      A
 Frequencies --    211.8545               244.3681               367.1229
 Red. masses --      3.9789                 4.5730                 1.2505
 Frc consts  --      0.1052                 0.1609                 0.0993
 IR Inten    --     13.1091                 0.0075                64.6325
 Raman Activ --      0.1283                 0.1876                 0.9335
 Depolar (P) --      0.7500                 0.7500                 0.7500
 Depolar (U) --      0.8571                 0.8571                 0.8571
  Atom  AN      X      Y      Z        X      Y      Z        X      Y      Z
     1   7    -0.00  -0.00   0.07    -0.00  -0.00   0.31    -0.00  -0.00  -0.11
     2   6    -0.00  -0.00   0.25     0.00  -0.00   0.00    -0.00   0.00   0.05
     3   6    -0.00  -0.00   0.23     0.00   0.00  -0.14     0.00   0.00   0.02
     4   6     0.00  -0.00  -0.08     0.00  -0.00  -0.27    -0.00  -0.00  -0.03
     5   6    -0.00  -0.00   0.08     0.00   0.00  -0.21    -0.00   0.00   0.00
     6   6     0.00  -0.00   0.14    -0.00  -0.00   0.12     0.00   0.00   0.03
     7   6    -0.00   0.00  -0.24     0.00   0.00   0.04     0.00   0.00   0.02
     8   6     0.00   0.00  -0.20     0.00   0.00  -0.12     0.00   0.00  -0.04
     9   6     0.00   0.00  -0.14    -0.00  -0.00   0.21     0.00  -0.00   0.01
    10   1    -0.00   0.00  -0.26    -0.00   0.00   0.17     0.00  -0.00   0.97
    11   1     0.00  -0.00  -0.22     0.00  -0.00  -0.43     0.00  -0.00  -0.16
    12   1     0.00   0.00   0.03     0.00   0.00  -0.36    -0.00   0.00  -0.05
    13   1    -0.00  -0.00   0.15    -0.00  -0.00   0.27     0.00   0.00   0.03
    14   1    -0.00   0.00  -0.53     0.00   0.00   0.13     0.00   0.00   0.05
    15   1     0.00   0.00  -0.44     0.00   0.00  -0.24    -0.00   0.00  -0.10
    16   1     0.00   0.00  -0.33    -0.00  -0.00   0.45     0.00  -0.00   0.00
                      4                      5                      6
                      A                      A                      A
 Frequencies --    404.6565               430.2045               552.5967
 Red. masses --      3.7162                 2.9173                 6.6223
 Frc consts  --      0.3585                 0.3181                 1.1915
 IR Inten    --      4.1513                 6.1889                 0.0673
 Raman Activ --      0.2485                 0.4853                 7.5565
 Depolar (P) --      0.6174                 0.7500                 0.3320
 Depolar (U) --      0.7634                 0.8571                 0.4985
  Atom  AN      X      Y      Z        X      Y      Z        X      Y      Z
     1   7     0.16   0.00   0.00     0.00   0.00  -0.02    -0.21  -0.01  -0.00
     2   6     0.05   0.21   0.00     0.00   0.00  -0.16    -0.11   0.02   0.00
     3   6    -0.05   0.21   0.00     0.00   0.00  -0.16    -0.09  -0.02  -0.00
     4   6    -0.18  -0.02  -0.00    -0.00   0.00  -0.05    -0.21  -0.00   0.00
     5   6    -0.09   0.05  -0.00    -0.00  -0.00   0.22     0.12   0.24   0.00
     6   6     0.09   0.04  -0.00    -0.00  -0.00   0.21     0.13  -0.23  -0.00
     7   6    -0.00  -0.16  -0.00     0.00  -0.00   0.08    -0.23   0.00  -0.00
     8   6    -0.02  -0.14   0.00     0.00  -0.00  -0.12     0.30   0.02  -0.00
     9   6     0.02  -0.14   0.00    -0.00  -0.00  -0.10     0.32  -0.01   0.00
    10   1     0.37  -0.07  -0.00     0.00   0.00  -0.09    -0.24  -0.01  -0.00
    11   1    -0.42  -0.10  -0.00    -0.00   0.00   0.01    -0.26  -0.02   0.00
    12   1    -0.33   0.05  -0.00    -0.00  -0.00   0.62     0.17   0.24   0.00
    13   1     0.33   0.03  -0.00    -0.00  -0.00   0.63     0.16  -0.23   0.00
    14   1     0.02  -0.34  -0.00     0.00  -0.00   0.18    -0.24   0.01   0.00
    15   1    -0.06  -0.21   0.00     0.00  -0.00  -0.11     0.19  -0.18  -0.00
    16   1     0.05  -0.21   0.00    -0.00  -0.00  -0.06     0.22   0.18   0.00
                      7                      8                      9
                      A                      A                      A
 Frequencies --    583.7799               617.4087               618.9114
 Red. masses --      3.5474                 2.7064                 6.5264
 Frc consts  --      0.7123                 0.6078                 1.4729
 IR Inten    --      0.5461                 5.8734                 1.1509
 Raman Activ --      0.0426                 0.3814                 7.5881
 Depolar (P) --      0.7500                 0.7500                 0.7442
 Depolar (U) --      0.8571                 0.8571                 0.8533
  Atom  AN      X      Y      Z        X      Y      Z        X      Y      Z
     1   7     0.00   0.00  -0.11    -0.00  -0.00   0.15     0.12   0.17   0.00
     2   6     0.00  -0.00   0.16    -0.00  -0.00  -0.11     0.17   0.00  -0.00
     3   6     0.00   0.00  -0.12     0.00  -0.00  -0.11    -0.19   0.00  -0.00
     4   6    -0.00   0.00   0.05     0.00  -0.00   0.23    -0.14   0.19   0.00
     5   6    -0.00  -0.00   0.17    -0.00   0.00   0.01     0.24  -0.12  -0.00
     6   6    -0.00   0.00  -0.17     0.00   0.00  -0.05    -0.25  -0.15  -0.00
     7   6     0.00   0.00   0.02    -0.00  -0.00  -0.21     0.00   0.12  -0.00
     8   6    -0.00   0.00  -0.24    -0.00   0.00  -0.04     0.26  -0.14  -0.00
     9   6    -0.00  -0.00   0.25     0.00   0.00   0.03    -0.23  -0.13   0.00
    10   1     0.00   0.00  -0.30     0.00  -0.00   0.56     0.02   0.20   0.00
    11   1    -0.00   0.00   0.26     0.00  -0.00   0.21    -0.06   0.21   0.00
    12   1    -0.00  -0.00   0.08    -0.00   0.00   0.21     0.13  -0.12   0.00
    13   1    -0.00   0.00  -0.23     0.00   0.00   0.16    -0.14  -0.16   0.00
    14   1     0.00  -0.00   0.13    -0.00   0.00  -0.61     0.02  -0.08  -0.00
    15   1     0.00   0.00  -0.57    -0.00  -0.00   0.05     0.40   0.10   0.00
    16   1    -0.00  -0.00   0.46     0.00  -0.00   0.22    -0.38   0.14   0.00
                     10                     11                     12
                      A                      A                      A
 Frequencies --    722.7470               749.5625               776.2542
 Red. masses --      1.3559                 1.3081                 5.0034
 Frc consts  --      0.4173                 0.4330                 1.7763
 IR Inten    --     35.4459                87.3151                 2.2979
 Raman Activ --      0.4056                 0.0657                26.4591
 Depolar (P) --      0.7500                 0.7500                 0.0622
 Depolar (U) --      0.8571                 0.8571                 0.1171
  Atom  AN      X      Y      Z        X      Y      Z        X      Y      Z
     1   7    -0.00  -0.00   0.02    -0.00   0.00  -0.02     0.12  -0.07   0.00
     2   6    -0.00  -0.00   0.07     0.00  -0.00   0.10    -0.07   0.09  -0.00
     3   6     0.00   0.00  -0.07    -0.00   0.00   0.02    -0.07  -0.09   0.00
     4   6     0.00   0.00  -0.04    -0.00   0.00  -0.01     0.14   0.06  -0.00
     5   6    -0.00   0.00  -0.01     0.00  -0.00  -0.08    -0.14   0.33   0.00
     6   6    -0.00  -0.00   0.05     0.00   0.00  -0.05    -0.14  -0.30  -0.00
     7   6     0.00  -0.00  -0.12    -0.00  -0.00  -0.02     0.22   0.00  -0.00
     8   6    -0.00   0.00   0.05     0.00   0.00  -0.05    -0.03   0.04  -0.00
     9   6     0.00   0.00  -0.03     0.00   0.00  -0.07    -0.03  -0.04   0.00
    10   1    -0.00  -0.00   0.11    -0.00   0.00  -0.03     0.17  -0.09   0.00
    11   1    -0.00   0.00   0.78    -0.00   0.00   0.04     0.21   0.08   0.00
    12   1    -0.00   0.00  -0.16    -0.00  -0.00   0.39    -0.30   0.33   0.00
    13   1    -0.00  -0.00  -0.01    -0.00  -0.00   0.36    -0.28  -0.31  -0.00
    14   1     0.00   0.00   0.54     0.00  -0.00   0.18     0.23   0.03   0.00
    15   1    -0.00  -0.00  -0.08    -0.00  -0.00   0.58    -0.17  -0.19   0.00
    16   1     0.00   0.00  -0.14    -0.00  -0.00   0.56    -0.15   0.18  -0.00
                     13                     14                     15
                      A                      A                      A
 Frequencies --    777.8914               851.5718               853.9215
 Red. masses --      2.9506                 1.3395                 1.4802
 Frc consts  --      1.0520                 0.5723                 0.6359
 IR Inten    --     14.3624                 0.0877                 2.4576
 Raman Activ --      0.2341                 0.6028                 0.6619
 Depolar (P) --      0.7495                 0.7500                 0.7500
 Depolar (U) --      0.8568                 0.8571                 0.8571
  Atom  AN      X      Y      Z        X      Y      Z        X      Y      Z
     1   7    -0.00   0.00   0.06    -0.00  -0.00   0.02     0.00   0.00   0.01
     2   6     0.00  -0.00  -0.23     0.00   0.00  -0.05     0.00   0.00  -0.06
     3   6     0.00   0.00   0.27    -0.00   0.00   0.05    -0.00  -0.00   0.08
     4   6    -0.00  -0.00  -0.11     0.00   0.00   0.07     0.00  -0.00  -0.10
     5   6     0.00  -0.00   0.04    -0.00  -0.00   0.08    -0.00  -0.00   0.09
     6   6     0.00   0.00  -0.05     0.00   0.00  -0.06     0.00  -0.00  -0.08
     7   6    -0.00  -0.00  -0.06     0.00  -0.00  -0.10     0.00   0.00   0.07
     8   6     0.00  -0.00  -0.13     0.00  -0.00   0.02    -0.00  -0.00   0.02
     9   6     0.00   0.00   0.12    -0.00   0.00  -0.03     0.00   0.00  -0.06
    10   1    -0.00   0.00   0.16    -0.00  -0.00  -0.03     0.00   0.00   0.07
    11   1    -0.00  -0.00   0.31     0.00  -0.00  -0.49     0.00   0.00   0.49
    12   1     0.00  -0.00   0.53     0.00   0.00  -0.40     0.00   0.00  -0.47
    13   1     0.00   0.00  -0.43    -0.00  -0.00   0.31    -0.00  -0.00   0.37
    14   1    -0.00  -0.00   0.44     0.00   0.00   0.62    -0.00  -0.00  -0.41
    15   1     0.00   0.00   0.20     0.00   0.00  -0.18     0.00   0.00  -0.12
    16   1     0.00  -0.00  -0.09    -0.00  -0.00   0.23    -0.00  -0.00   0.42
                     16                     17                     18
                      A                      A                      A
 Frequencies --    889.4260               912.4206               918.4063
 Red. masses --      4.8465                 4.1182                 1.3458
 Frc consts  --      2.2589                 2.0200                 0.6688
 IR Inten    --      0.3524                 6.7474                 1.3145
 Raman Activ --      2.0462                 5.2059                 0.1242
 Depolar (P) --      0.2321                 0.1811                 0.7500
 Depolar (U) --      0.3767                 0.3066                 0.8571
  Atom  AN      X      Y      Z        X      Y      Z        X      Y      Z
     1   7    -0.18  -0.18  -0.00    -0.06  -0.23  -0.00     0.00  -0.00   0.01
     2   6    -0.05   0.06  -0.00    -0.05  -0.13  -0.00    -0.00  -0.00  -0.01
     3   6     0.03   0.11  -0.00    -0.08   0.12   0.00    -0.00   0.00  -0.04
     4   6     0.16  -0.09   0.00    -0.12   0.27  -0.00    -0.00   0.00   0.02
     5   6     0.05   0.17   0.00     0.01  -0.08  -0.00    -0.00  -0.00   0.09
     6   6    -0.02   0.21   0.00     0.03   0.02  -0.00    -0.00  -0.00   0.10
     7   6     0.04  -0.01   0.00     0.27   0.02   0.00     0.00   0.00  -0.00
     8   6     0.23  -0.14  -0.00    -0.02   0.04   0.00    -0.00   0.00  -0.10
     9   6    -0.23  -0.13  -0.00     0.06   0.00   0.00     0.00   0.00  -0.04
    10   1    -0.24  -0.17  -0.00    -0.39  -0.12   0.00    -0.00  -0.00  -0.00
    11   1     0.14  -0.10   0.00    -0.63   0.10  -0.00    -0.00   0.00  -0.04
    12   1    -0.21   0.17  -0.00     0.18  -0.08   0.00     0.00   0.00  -0.52
    13   1     0.27   0.20  -0.00     0.12   0.02   0.00     0.00   0.00  -0.54
    14   1    -0.01   0.44  -0.00     0.27   0.08  -0.00     0.00  -0.00  -0.01
    15   1     0.30  -0.03   0.00    -0.01   0.06  -0.00    -0.00  -0.00   0.60
    16   1    -0.27  -0.05   0.00     0.09  -0.05  -0.00     0.00  -0.00   0.21
                     19                     20                     21
                      A                      A                      A
 Frequencies --    947.4248              1034.6680              1089.8656
 Red. masses --      1.2190                 2.1707                 1.6055
 Frc consts  --      0.6447                 1.3692                 1.1236
 IR Inten    --      0.0216                 6.4198                 9.0958
 Raman Activ --      0.0986                24.6599                21.2657
 Depolar (P) --      0.7500                 0.0605                 0.0883
 Depolar (U) --      0.8571                 0.1141                 0.1622
  Atom  AN      X      Y      Z        X      Y      Z        X      Y      Z
     1   7     0.00   0.00   0.00    -0.00   0.01  -0.00     0.05  -0.12  -0.00
     2   6     0.00  -0.00  -0.02     0.01  -0.02  -0.00    -0.02  -0.02  -0.00
     3   6     0.00  -0.00   0.01     0.02   0.02   0.00    -0.04  -0.00  -0.00
     4   6    -0.00   0.00   0.00    -0.00  -0.02  -0.00    -0.01   0.13  -0.00
     5   6    -0.00   0.00  -0.03     0.09   0.08   0.00     0.01   0.01   0.00
     6   6    -0.00  -0.00   0.07     0.08  -0.09  -0.00     0.01   0.05   0.00
     7   6    -0.00   0.00  -0.00    -0.03   0.00  -0.00    -0.11   0.02   0.00
     8   6    -0.00   0.00   0.07    -0.12   0.15   0.00    -0.01  -0.01  -0.00
     9   6     0.00   0.00  -0.09    -0.13  -0.15  -0.00     0.01  -0.01  -0.00
    10   1     0.00   0.00   0.00     0.00   0.01   0.00     0.28  -0.21  -0.00
    11   1     0.00  -0.00  -0.02    -0.03  -0.03   0.00     0.73   0.41   0.00
    12   1    -0.00  -0.00   0.27     0.58   0.08   0.00     0.08   0.01   0.00
    13   1     0.00   0.00  -0.51     0.55  -0.11   0.00     0.07   0.05  -0.00
    14   1    -0.00  -0.00   0.02    -0.03   0.01   0.00    -0.09  -0.28   0.00
    15   1     0.00   0.00  -0.49    -0.02   0.34   0.00    -0.03  -0.06  -0.00
    16   1     0.00  -0.00   0.64    -0.05  -0.33  -0.00     0.06  -0.10  -0.00
                     22                     23                     24
                      A                      A                      A
 Frequencies --   1109.9648              1143.5591              1175.8165
 Red. masses --      1.4566                 1.4745                 1.1378
 Frc consts  --      1.0573                 1.1361                 0.9268
 IR Inten    --     23.3363                 0.1587                 1.3214
 Raman Activ --      0.7922                 9.8266                 2.0063
 Depolar (P) --      0.5799                 0.4515                 0.6662
 Depolar (U) --      0.7341                 0.6221                 0.7997
  Atom  AN      X      Y      Z        X      Y      Z        X      Y      Z
     1   7     0.04  -0.10  -0.00    -0.04   0.00   0.00    -0.01  -0.01   0.00
     2   6     0.03   0.05   0.00    -0.02   0.04   0.00     0.02   0.01   0.00
     3   6    -0.00   0.04   0.00    -0.02   0.07  -0.00     0.03  -0.04   0.00
     4   6     0.00  -0.02   0.00     0.04  -0.00  -0.00    -0.03   0.02  -0.00
     5   6    -0.00  -0.07  -0.00    -0.05  -0.09  -0.00    -0.02   0.01  -0.00
     6   6    -0.00  -0.07  -0.00     0.05  -0.09  -0.00    -0.00   0.00  -0.00
     7   6    -0.07   0.08   0.00     0.01  -0.06   0.00    -0.01   0.00   0.00
     8   6    -0.01   0.03   0.00     0.02   0.04   0.00     0.03   0.06   0.00
     9   6     0.01   0.02  -0.00    -0.02   0.06  -0.00     0.01  -0.05  -0.00
    10   1     0.46  -0.24  -0.00    -0.14   0.04   0.00    -0.07   0.01  -0.00
    11   1    -0.15  -0.07   0.00     0.26   0.08  -0.00    -0.00   0.03  -0.00
    12   1    -0.10  -0.07  -0.00    -0.34  -0.10  -0.00    -0.48   0.01  -0.00
    13   1     0.01  -0.07  -0.00     0.48  -0.11   0.00    -0.28   0.01  -0.00
    14   1    -0.14   0.76   0.00     0.03  -0.26  -0.00     0.00  -0.09  -0.00
    15   1     0.07   0.17   0.00     0.20   0.34   0.00     0.31   0.55   0.00
    16   1    -0.04   0.11   0.00    -0.24   0.46   0.00     0.23  -0.46  -0.00
                     25                     26                     27
                      A                      A                      A
 Frequencies --   1225.3971              1270.4385              1297.6309
 Red. masses --      2.2455                 1.6235                 2.8489
 Frc consts  --      1.9867                 1.5439                 2.8264
 IR Inten    --      3.0165                 9.6286                18.0907
 Raman Activ --      1.2535                14.5007                18.7796
 Depolar (P) --      0.4928                 0.2323                 0.2597
 Depolar (U) --      0.6603                 0.3770                 0.4123
  Atom  AN      X      Y      Z        X      Y      Z        X      Y      Z
     1   7    -0.07  -0.00  -0.00    -0.04   0.03   0.00    -0.10  -0.10  -0.00
     2   6     0.08   0.12   0.00    -0.15   0.03   0.00     0.16   0.17   0.00
     3   6    -0.15   0.15  -0.00     0.02   0.09  -0.00     0.20  -0.01   0.00
     4   6     0.04  -0.09   0.00     0.10   0.02  -0.00    -0.02   0.10  -0.00
     5   6     0.05  -0.06  -0.00    -0.03  -0.05  -0.00     0.08  -0.00   0.00
     6   6    -0.07  -0.04  -0.00    -0.01  -0.03  -0.00     0.08  -0.08  -0.00
     7   6     0.05  -0.08  -0.00     0.00  -0.04   0.00    -0.07  -0.02   0.00
     8   6    -0.05   0.02  -0.00     0.05  -0.02   0.00    -0.09  -0.03  -0.00
     9   6     0.09  -0.01   0.00     0.01  -0.02  -0.00    -0.08   0.01  -0.00
    10   1    -0.40   0.11   0.00     0.47  -0.13  -0.00    -0.29  -0.06  -0.00
    11   1     0.53   0.08   0.00    -0.15  -0.07   0.00    -0.15   0.06  -0.00
    12   1     0.26  -0.06  -0.00     0.52  -0.07   0.00     0.05   0.01   0.00
    13   1    -0.28  -0.03  -0.00    -0.44  -0.01  -0.00    -0.65  -0.07  -0.00
    14   1     0.02   0.29  -0.00     0.03  -0.30   0.00    -0.06  -0.30  -0.00
    15   1    -0.08  -0.04  -0.00     0.22   0.26   0.00    -0.16  -0.13  -0.00
    16   1     0.26  -0.33  -0.00     0.00  -0.01  -0.00    -0.25   0.30   0.00
                     28                     29                     30
                      A                      A                      A
 Frequencies --   1363.7257              1386.9208              1444.4365
 Red. masses --      5.2894                 1.7226                 2.7274
 Frc consts  --      5.7958                 1.9522                 3.3527
 IR Inten    --     23.1321                 7.0486                17.6339
 Raman Activ --     31.0695                12.8194                26.3724
 Depolar (P) --      0.1751                 0.3836                 0.6582
 Depolar (U) --      0.2981                 0.5545                 0.7938
  Atom  AN      X      Y      Z        X      Y      Z        X      Y      Z
     1   7     0.09  -0.05  -0.00    -0.06  -0.02  -0.00     0.18  -0.08  -0.00
     2   6     0.12  -0.23  -0.00     0.03   0.01   0.00    -0.08  -0.01  -0.00
     3   6     0.13   0.30   0.00    -0.07   0.02  -0.00    -0.12   0.04  -0.00
     4   6     0.07  -0.05   0.00     0.16   0.03   0.00     0.10  -0.05   0.00
     5   6    -0.16   0.00  -0.00     0.11  -0.02   0.00     0.05   0.05   0.00
     6   6    -0.18  -0.01  -0.00    -0.06  -0.04  -0.00     0.09  -0.01   0.00
     7   6    -0.16   0.09   0.00    -0.05   0.03   0.00    -0.10   0.13   0.00
     8   6     0.09   0.20   0.00    -0.01   0.03   0.00    -0.08  -0.14  -0.00
     9   6     0.10  -0.22  -0.00    -0.01   0.07   0.00    -0.00   0.06   0.00
    10   1    -0.37   0.09   0.00     0.21  -0.12  -0.00    -0.68   0.20   0.00
    11   1    -0.06  -0.10   0.00    -0.38  -0.17   0.00    -0.22  -0.18   0.00
    12   1    -0.10   0.00  -0.00    -0.37  -0.02  -0.00     0.07   0.06   0.00
    13   1    -0.21  -0.01   0.00     0.27  -0.05   0.00    -0.19   0.00  -0.00
    14   1    -0.14  -0.30   0.00    -0.02  -0.40   0.00    -0.08  -0.17   0.00
    15   1    -0.22  -0.31  -0.00    -0.21  -0.30  -0.00     0.22   0.37   0.00
    16   1    -0.20   0.32   0.00     0.23  -0.38  -0.00    -0.01   0.09   0.00
                     31                     32                     33
                      A                      A                      A
 Frequencies --   1483.0630              1527.2040              1550.6573
 Red. masses --      2.5990                 2.7105                 3.8722
 Frc consts  --      3.3681                 3.7247                 5.4858
 IR Inten    --     20.9695                 2.2326                 5.5129
 Raman Activ --     14.9692                 5.5510                84.5376
 Depolar (P) --      0.5220                 0.5615                 0.2352
 Depolar (U) --      0.6860                 0.7191                 0.3808
  Atom  AN      X      Y      Z        X      Y      Z        X      Y      Z
     1   7     0.03   0.08   0.00     0.11  -0.02  -0.00    -0.01  -0.05  -0.00
     2   6    -0.09  -0.16  -0.00    -0.11   0.04  -0.00    -0.14   0.07  -0.00
     3   6    -0.04   0.11   0.00     0.15   0.04   0.00     0.01   0.05   0.00
     4   6     0.02   0.05  -0.00    -0.04   0.02  -0.00    -0.17  -0.23   0.00
     5   6     0.14   0.02   0.00    -0.08  -0.06  -0.00     0.11  -0.08  -0.00
     6   6     0.17  -0.03   0.00    -0.00  -0.11  -0.00     0.09  -0.02   0.00
     7   6    -0.01  -0.15   0.00    -0.04  -0.05   0.00     0.14   0.29  -0.00
     8   6    -0.03   0.04   0.00     0.15   0.03   0.00     0.03   0.10   0.00
     9   6    -0.09  -0.01  -0.00    -0.15   0.17   0.00    -0.05  -0.04  -0.00
    10   1     0.12   0.06   0.00    -0.41   0.15   0.00     0.19  -0.12  -0.00
    11   1     0.11   0.09  -0.00     0.05   0.07  -0.00     0.34  -0.08   0.00
    12   1    -0.55   0.03  -0.00     0.18  -0.08   0.00    -0.26  -0.09  -0.00
    13   1    -0.53  -0.01  -0.00     0.12  -0.13   0.00    -0.25  -0.01  -0.00
    14   1    -0.07   0.38   0.00    -0.07   0.17   0.00     0.27  -0.47  -0.00
    15   1    -0.18  -0.20  -0.00    -0.06  -0.36  -0.00    -0.21  -0.30  -0.00
    16   1    -0.13   0.04   0.00     0.25  -0.59  -0.00    -0.08  -0.02  -0.00
                     34                     35                     36
                      A                      A                      A
 Frequencies --   1617.1909              1658.1605              3164.3069
 Red. masses --      5.3575                 6.1632                 1.0851
 Frc consts  --      8.2553                 9.9842                 6.4017
 IR Inten    --      1.3569                 2.7145                 1.8147
 Raman Activ --      7.2596                18.6678                26.3200
 Depolar (P) --      0.3180                 0.5641                 0.7021
 Depolar (U) --      0.4826                 0.7213                 0.8250
  Atom  AN      X      Y      Z        X      Y      Z        X      Y      Z
     1   7     0.10  -0.03  -0.00    -0.09   0.00   0.00    -0.00   0.00   0.00
     2   6    -0.08   0.22   0.00     0.33  -0.14   0.00    -0.00   0.00  -0.00
     3   6    -0.20  -0.24  -0.00    -0.24   0.01  -0.00     0.00   0.00   0.00
     4   6     0.13   0.09  -0.00     0.02  -0.05   0.00     0.00   0.00  -0.00
     5   6    -0.06  -0.16  -0.00    -0.31   0.04  -0.00     0.00  -0.04  -0.00
     6   6     0.13   0.12   0.00     0.30  -0.05   0.00    -0.00  -0.04  -0.00
     7   6    -0.06  -0.06   0.00     0.02   0.10  -0.00    -0.00  -0.00  -0.00
     8   6     0.14   0.27   0.00     0.14   0.01   0.00    -0.04   0.02   0.00
     9   6    -0.00  -0.21  -0.00    -0.17   0.13   0.00     0.04   0.02   0.00
    10   1    -0.37   0.13   0.00     0.31  -0.14  -0.00     0.00  -0.00   0.00
    11   1    -0.28  -0.06  -0.00    -0.02  -0.09   0.00     0.00  -0.00   0.00
    12   1     0.06  -0.17  -0.00     0.38   0.05   0.00     0.00   0.51   0.00
    13   1    -0.18   0.14  -0.00    -0.38  -0.03  -0.00     0.01   0.44   0.00
    14   1    -0.10   0.09   0.00     0.05  -0.17  -0.00     0.00   0.00   0.00
    15   1    -0.24  -0.37  -0.00     0.07  -0.13  -0.00     0.44  -0.26  -0.00
    16   1    -0.21   0.16   0.00     0.02  -0.25  -0.00    -0.47  -0.25  -0.00
                     37                     38                     39
                      A                      A                      A
 Frequencies --   3170.4149              3180.9349              3192.4053
 Red. masses --      1.0882                 1.0930                 1.0963
 Frc consts  --      6.4443                 6.5159                 6.5831
 IR Inten    --      2.8827                28.6577                16.6732
 Raman Activ --    140.5346                53.3584               286.5387
 Depolar (P) --      0.5980                 0.7444                 0.1158
 Depolar (U) --      0.7484                 0.8535                 0.2075
  Atom  AN      X      Y      Z        X      Y      Z        X      Y      Z
     1   7     0.00  -0.00  -0.00     0.00  -0.00   0.00    -0.00   0.00   0.00
     2   6    -0.00   0.00  -0.00    -0.00   0.00   0.00     0.00  -0.00   0.00
     3   6    -0.00   0.00  -0.00     0.00   0.00   0.00     0.00   0.00   0.00
     4   6     0.00  -0.00   0.00    -0.00   0.00  -0.00    -0.00   0.00  -0.00
     5   6     0.00  -0.06  -0.00    -0.00  -0.04  -0.00     0.00   0.03   0.00
     6   6     0.00   0.05   0.00    -0.00  -0.05  -0.00     0.00  -0.03  -0.00
     7   6     0.00   0.00  -0.00    -0.00   0.00   0.00    -0.00  -0.00   0.00
     8   6    -0.02   0.01   0.00     0.04  -0.02   0.00    -0.05   0.03   0.00
     9   6    -0.03  -0.02  -0.00    -0.04  -0.02  -0.00    -0.05  -0.03  -0.00
    10   1     0.00   0.00  -0.00     0.00   0.00  -0.00    -0.00  -0.00   0.00
    11   1     0.00   0.00  -0.00     0.00  -0.01   0.00     0.00  -0.01   0.00
    12   1     0.00   0.66   0.00     0.00   0.46   0.00    -0.01  -0.30  -0.00
    13   1    -0.02  -0.60  -0.00     0.02   0.59   0.00     0.01   0.32   0.00
    14   1     0.00   0.00  -0.00     0.00  -0.00   0.00    -0.00  -0.00   0.00
    15   1     0.21  -0.13  -0.00    -0.43   0.24   0.00     0.57  -0.33  -0.00
    16   1     0.33   0.18   0.00     0.39   0.21   0.00     0.54   0.29   0.00
                     40                     41                     42
                      A                      A                      A
 Frequencies --   3240.4593              3258.9008              3664.7697
 Red. masses --      1.0897                 1.1033                 1.0800
 Frc consts  --      6.7416                 6.9038                 8.5461
 IR Inten    --      1.2557                 2.3890                68.9080
 Raman Activ --     75.6683               167.0236               117.5502
 Depolar (P) --      0.7285                 0.1609                 0.2341
 Depolar (U) --      0.8429                 0.2771                 0.3794
  Atom  AN      X      Y      Z        X      Y      Z        X      Y      Z
     1   7     0.00   0.00  -0.00     0.00  -0.00  -0.00    -0.02  -0.07  -0.00
     2   6     0.00   0.00   0.00     0.00  -0.00  -0.00     0.00  -0.00   0.00
     3   6    -0.00   0.00  -0.00     0.00  -0.00   0.00    -0.00   0.00   0.00
     4   6     0.02  -0.06   0.00    -0.02   0.06  -0.00     0.00   0.00   0.00
     5   6    -0.00   0.00   0.00    -0.00   0.00   0.00     0.00   0.00   0.00
     6   6    -0.00  -0.00   0.00    -0.00   0.00   0.00     0.00  -0.00  -0.00
     7   6    -0.05  -0.00   0.00    -0.07  -0.01   0.00    -0.00   0.00   0.00
     8   6     0.00   0.00   0.00     0.00  -0.00   0.00    -0.00  -0.00  -0.00
     9   6    -0.00  -0.00  -0.00    -0.00  -0.00  -0.00    -0.00   0.00   0.00
    10   1    -0.01  -0.01   0.00    -0.01  -0.01   0.00     0.31   0.95  -0.00
    11   1    -0.27   0.74  -0.00     0.21  -0.58   0.00     0.00  -0.00  -0.00
    12   1     0.00  -0.00  -0.00    -0.00  -0.00  -0.00    -0.00  -0.00   0.00
    13   1     0.00   0.01   0.00    -0.00  -0.00  -0.00    -0.00   0.00  -0.00
    14   1     0.61   0.06  -0.00     0.78   0.08  -0.00     0.01  -0.00  -0.00
    15   1     0.00  -0.00  -0.00    -0.00   0.00  -0.00     0.00  -0.00   0.00
    16   1     0.00   0.00   0.00    -0.00  -0.00  -0.00    -0.00  -0.00   0.00

 -------------------
 - Thermochemistry -
 -------------------
 Temperature   298.150 Kelvin.  Pressure   1.00000 Atm.
 Atom     1 has atomic number  7 and mass  14.00307
 Atom     2 has atomic number  6 and mass  12.00000
 Atom     3 has atomic number  6 and mass  12.00000
 Atom     4 has atomic number  6 and mass  12.00000
 Atom     5 has atomic number  6 and mass  12.00000
 Atom     6 has atomic number  6 and mass  12.00000
 Atom     7 has atomic number  6 and mass  12.00000
 Atom     8 has atomic number  6 and mass  12.00000
 Atom     9 has atomic number  6 and mass  12.00000
 Atom    10 has atomic number  1 and mass   1.00783
 Atom    11 has atomic number  1 and mass   1.00783
 Atom    12 has atomic number  1 and mass   1.00783
 Atom    13 has atomic number  1 and mass   1.00783
 Atom    14 has atomic number  1 and mass   1.00783
 Atom    15 has atomic number  1 and mass   1.00783
 Atom    16 has atomic number  1 and mass   1.00783
 Molecular mass:   117.05785 amu.
 Principal axes and moments of inertia in atomic units:
                           1         2         3
     Eigenvalues --   461.972041098.914981560.88702
           X            1.00000  -0.00078  -0.00002
           Y            0.00078   1.00000  -0.00002
           Z            0.00002   0.00002   1.00000
 This molecule is an asymmetric top.
 Rotational symmetry number  1.
 Warning -- assumption of classical behavior for rotation
           may cause significant error
 Rotational temperatures (Kelvin)      0.18749     0.07882     0.05549
 Rotational constants (GHZ):           3.90660     1.64229     1.15623
 Zero-point vibrational energy     339030.2 (Joules/Mol)
                                   81.03016 (Kcal/Mol)
 Warning -- explicit consideration of   9 degrees of freedom as
           vibrations may cause significant error
 Vibrational temperatures:    304.81   351.59   528.21   582.21   618.97
          (Kelvin)            795.06   839.93   888.31   890.48  1039.87
                             1078.45  1116.86  1119.21  1225.22  1228.60
                             1279.69  1312.77  1321.38  1363.13  1488.66
                             1568.07  1596.99  1645.33  1691.74  1763.07
                             1827.88  1867.00  1962.10  1995.47  2078.22
                             2133.80  2197.31  2231.05  2326.78  2385.72
                             4552.73  4561.52  4576.66  4593.16  4662.30
                             4688.83  5272.79
 
 Zero-point correction=                           0.129130 (Hartree/Particle)
 Thermal correction to Energy=                    0.135489
 Thermal correction to Enthalpy=                  0.136433
 Thermal correction to Gibbs Free Energy=         0.098780
 Sum of electronic and zero-point Energies=           -363.825949
 Sum of electronic and thermal Energies=              -363.819590
 Sum of electronic and thermal Enthalpies=            -363.818646
 Sum of electronic and thermal Free Energies=         -363.856299
 
                     E (Thermal)             CV                S
                      KCal/Mol        Cal/Mol-Kelvin    Cal/Mol-Kelvin
 Total                   85.020             26.590             79.247
 Electronic               0.000              0.000              0.000
 Translational            0.889              2.981             40.187
 Rotational               0.889              2.981             28.162
 Vibrational             83.243             20.629             10.897
 Vibration     1          0.643              1.823              2.028
 Vibration     2          0.660              1.772              1.771
 Vibration     3          0.740              1.540              1.092
 Vibration     4          0.770              1.460              0.946
 Vibration     5          0.791              1.404              0.858
 Vibration     6          0.908              1.134              0.539
 Vibration     7          0.941              1.066              0.478
 Vibration     8          0.977              0.995              0.421
 Vibration     9          0.979              0.992              0.418
                       Q            Log10(Q)             Ln(Q)
 Total Bot       0.366771D-45        -45.435605       -104.619348
 Total V=0       0.911835D+14         13.959916         32.143895
 Vib (Bot)       0.231216D-58        -58.635981       -135.014336
 Vib (Bot)    1  0.936812D+00         -0.028348         -0.065273
 Vib (Bot)    2  0.800789D+00         -0.096482         -0.222158
 Vib (Bot)    3  0.496878D+00         -0.303750         -0.699410
 Vib (Bot)    4  0.438956D+00         -0.357579         -0.823355
 Vib (Bot)    5  0.404948D+00         -0.392600         -0.903995
 Vib (Bot)    6  0.283282D+00         -0.547781         -1.261312
 Vib (Bot)    7  0.260037D+00         -0.584964         -1.346930
 Vib (Bot)    8  0.237509D+00         -0.624320         -1.437550
 Vib (Bot)    9  0.236558D+00         -0.626062         -1.441562
 Vib (V=0)       0.574831D+01          0.759540          1.748906
 Vib (V=0)    1  0.156189D+01          0.193651          0.445898
 Vib (V=0)    2  0.144407D+01          0.159587          0.367464
 Vib (V=0)    3  0.120490D+01          0.080952          0.186399
 Vib (V=0)    4  0.116534D+01          0.066454          0.153016
 Vib (V=0)    5  0.114342D+01          0.058204          0.134020
 Vib (V=0)    6  0.107467D+01          0.031276          0.072016
 Vib (V=0)    7  0.106358D+01          0.026769          0.061638
 Vib (V=0)    8  0.105354D+01          0.022653          0.052159
 Vib (V=0)    9  0.105314D+01          0.022485          0.051773
 Electronic      0.100000D+01          0.000000          0.000000
 Translational   0.497800D+08          7.697055         17.723123
 Rotational      0.318655D+06          5.503321         12.671865
 
                                                                indole
                                                             IR Spectrum
 
     3            333333                                                   11  1111 11 11 1 1111 1                                   
     6            221111                                                   66  5544 33 22 2 1110 09998887777  6655   44 3   22       
     6            549876                                                   51  5284 86 97 2 7419 34118557752  1185   30 6   41       
     5            902104                                                   87  1734 74 80 5 6400 57829428603  9743   05 7   42       
 
     X            XXXXXX                                                   XX  XXXX XX XX X XXXX X XXXXXXXXX  XXXX   XX X    X       
     X              XX                                                           XX XX XX     XX    X   X XX            X    X       
     X              XX                                                           XX  X X      X         X XX            X    X       
     X              XX                                                           XX  X X      X           XX            X            
     X               X                                                           X   X        X           XX            X            
     X               X                                                                                    XX            X            
     X               X                                                                                    XX            X            
     X                                                                                                    XX            X            
     X                                                                                                    X             X            
     X                                                                                                    X             X            
     X                                                                                                    X             X            
     X                                                                                                    X             X            
     X                                                                                                    X             X            
     X                                                                                                    X             X            
     X                                                                                                    X             X            
     X                                                                                                    X                          
                                                                                                          X                          
                                                                                                          X                          
                                                                                                          X                          
                                                                                                          X                          
 
 
                                                                indole
                                                            Raman Spectrum
 
     3            333333                                                   11  1111 11 11 1 1111 1                                   
     6            221111                                                   66  5544 33 22 2 1110 09998887777  6655   44 3   22       
     6            549876                                                   51  5284 86 97 2 7419 34118557752  1185   30 6   41       
     5            902104                                                   87  1734 74 80 5 6400 57829428603  9743   05 7   42       
 
     X            XXXXXX                                                   XX  XXXX XX XX X XXXX XXXXXXXXXXX  XX X   XX X   XX       
     X            XXXXXX                                                       X  X  X           X       X                           
     X            XXXXX                                                        X                                                     
     X            XXXXX                                                        X                                                     
     X            XXX X                                                        X                                                     
     X            X X X                                                        X                                                     
     X            X X X                                                                                                              
     X            X X X                                                                                                              
                  X X X                                                                                                              
                  X X X                                                                                                              
                  X X                                                                                                                
                  X X                                                                                                                
                    X                                                                                                                
                    X                                                                                                                
                    X                                                                                                                
                    X                                                                                                                
                    X                                                                                                                
                    X                                                                                                                
                    X                                                                                                                
                    X                                                                                                                
 
 ***** Axes restored to original set *****
 -------------------------------------------------------------------
 Center     Atomic                   Forces (Hartrees/Bohr)
 Number     Number              X              Y              Z
 -------------------------------------------------------------------
      1        7          -0.000318969   -0.000039744    0.000008926
      2        6           0.000203582   -0.000009438    0.000002706
      3        6          -0.000043675    0.000082055   -0.000012329
      4        6          -0.000004990   -0.000027589    0.000017107
      5        6          -0.000123969   -0.000015404    0.000000455
      6        6          -0.000011043    0.000035653   -0.000003804
      7        6           0.000129516   -0.000021309   -0.000017354
      8        6           0.000107474    0.000106164   -0.000000376
      9        6           0.000012737   -0.000106656    0.000000400
     10        1           0.000025299   -0.000008684    0.000001689
     11        1          -0.000018586   -0.000023364    0.000003139
     12        1           0.000009911    0.000027704   -0.000000211
     13        1           0.000028268   -0.000022217    0.000000758
     14        1          -0.000000454    0.000006850   -0.000002050
     15        1          -0.000004492   -0.000010555    0.000000126
     16        1           0.000009390    0.000026534    0.000000821
 -------------------------------------------------------------------
 Cartesian Forces:  Max     0.000318969 RMS     0.000068991
 FormGI is forming the generalized inverse of G from B-inverse, IUseBI=4.
 Leave Link  716 at Sat May  4 11:10:42 2024, MaxMem= 13421772800 cpu:               3.8 elap:               0.1
 (Enter /tmpu/scunam/7/gaussian-2016.03/g1/g16/l103.exe)

 GradGradGradGradGradGradGradGradGradGradGradGradGradGradGradGradGradGrad
 Berny optimization.
 Red2BG is reusing G-inverse.
 Internal  Forces:  Max     0.000196805 RMS     0.000033180
 Search for a local minimum.
 Step number   1 out of a maximum of    2
 All quantities printed in internal units (Hartrees-Bohrs-Radians)
 Second derivative matrix not updated -- analytic derivatives used.
 ITU=  0
     Eigenvalues ---    0.00244   0.01036   0.01210   0.01529   0.01555
     Eigenvalues ---    0.01777   0.01911   0.01942   0.02302   0.02770
     Eigenvalues ---    0.02937   0.03566   0.04738   0.09641   0.10608
     Eigenvalues ---    0.10836   0.10950   0.11116   0.12161   0.12325
     Eigenvalues ---    0.16673   0.19219   0.19406   0.21943   0.23102
     Eigenvalues ---    0.26270   0.31516   0.33946   0.35274   0.35644
     Eigenvalues ---    0.35811   0.35875   0.37031   0.37355   0.39032
     Eigenvalues ---    0.40033   0.40984   0.42798   0.46578   0.47866
     Eigenvalues ---    0.49678   0.51646
 Angle between quadratic step and forces=  32.12 degrees.
 Linear search not attempted -- first point.
 Iteration  1 RMS(Cart)=  0.00019176 RMS(Int)=  0.00000003
 Iteration  2 RMS(Cart)=  0.00000003 RMS(Int)=  0.00000001
 ITry= 1 IFail=0 DXMaxC= 9.22D-04 DCOld= 1.00D+10 DXMaxT= 3.00D-01 DXLimC= 3.00D+00 Rises=F
 Variable       Old X    -DE/DX   Delta X   Delta X   Delta X     New X
                                 (Linear)    (Quad)   (Total)
    R1        2.60165  -0.00020   0.00000  -0.00060  -0.00060   2.60105
    R2        2.60480   0.00009   0.00000   0.00031   0.00031   2.60511
    R3        1.89674  -0.00000   0.00000   0.00001   0.00001   1.89675
    R4        2.68091  -0.00004   0.00000  -0.00019  -0.00019   2.68071
    R5        2.63396   0.00004   0.00000   0.00022   0.00022   2.63418
    R6        2.70900   0.00001   0.00000   0.00003   0.00003   2.70903
    R7        2.64828  -0.00005   0.00000  -0.00004  -0.00004   2.64824
    R8        2.57945   0.00002   0.00000   0.00008   0.00008   2.57953
    R9        2.03585   0.00001   0.00000   0.00004   0.00004   2.03589
   R10        2.61631  -0.00009   0.00000  -0.00028  -0.00028   2.61604
   R11        2.04708   0.00003   0.00000   0.00007   0.00007   2.04715
   R12        2.61361  -0.00004   0.00000  -0.00014  -0.00014   2.61347
   R13        2.04691   0.00002   0.00000   0.00006   0.00006   2.04697
   R14        2.03609   0.00000   0.00000  -0.00002  -0.00002   2.03607
   R15        2.65602   0.00007   0.00000   0.00027   0.00027   2.65629
   R16        2.04578  -0.00000   0.00000   0.00001   0.00001   2.04578
   R17        2.04596  -0.00002   0.00000  -0.00007  -0.00007   2.04589
    A1        1.90753   0.00005   0.00000   0.00021   0.00021   1.90775
    A2        2.18983  -0.00000   0.00000   0.00020   0.00020   2.19003
    A3        2.18582  -0.00005   0.00000  -0.00041  -0.00041   2.18541
    A4        1.87046   0.00001   0.00000   0.00002   0.00002   1.87048
    A5        2.27865  -0.00002   0.00000   0.00004   0.00004   2.27869
    A6        2.13408   0.00001   0.00000  -0.00006  -0.00006   2.13401
    A7        1.86492   0.00003   0.00000   0.00008   0.00008   1.86500
    A8        2.07264   0.00002   0.00000   0.00020   0.00020   2.07284
    A9        2.34563  -0.00005   0.00000  -0.00028  -0.00028   2.34535
   A10        1.86947  -0.00003   0.00000  -0.00005  -0.00005   1.86942
   A11        2.21813  -0.00001   0.00000  -0.00027  -0.00027   2.21786
   A12        2.19559   0.00004   0.00000   0.00032   0.00032   2.19591
   A13        2.05148  -0.00003   0.00000  -0.00012  -0.00012   2.05136
   A14        2.11946   0.00000   0.00000  -0.00007  -0.00007   2.11940
   A15        2.11224   0.00002   0.00000   0.00019   0.00019   2.11243
   A16        2.07890  -0.00001   0.00000  -0.00009  -0.00009   2.07881
   A17        2.10153  -0.00002   0.00000  -0.00023  -0.00023   2.10130
   A18        2.10275   0.00004   0.00000   0.00033   0.00033   2.10308
   A19        1.91240  -0.00006   0.00000  -0.00027  -0.00027   1.91213
   A20        2.10336   0.00002   0.00000  -0.00003  -0.00003   2.10333
   A21        2.26742   0.00004   0.00000   0.00030   0.00030   2.26773
   A22        2.11509   0.00002   0.00000   0.00016   0.00016   2.11524
   A23        2.08413   0.00000   0.00000   0.00010   0.00010   2.08423
   A24        2.08397  -0.00002   0.00000  -0.00025  -0.00025   2.08371
   A25        2.11419  -0.00001   0.00000  -0.00008  -0.00008   2.11410
   A26        2.08890   0.00002   0.00000   0.00028   0.00028   2.08918
   A27        2.08010  -0.00001   0.00000  -0.00020  -0.00020   2.07991
    D1       -0.00004   0.00000   0.00000   0.00004   0.00004  -0.00000
    D2        3.14154   0.00000   0.00000   0.00006   0.00006   3.14159
    D3       -3.14154  -0.00000   0.00000  -0.00005  -0.00005  -3.14159
    D4        0.00004  -0.00000   0.00000  -0.00004  -0.00004   0.00000
    D5        0.00014  -0.00001   0.00000  -0.00014  -0.00014   0.00000
    D6       -3.14154  -0.00000   0.00000  -0.00005  -0.00005  -3.14159
    D7       -3.14154  -0.00000   0.00000  -0.00005  -0.00005   3.14159
    D8       -0.00004   0.00000   0.00000   0.00004   0.00004  -0.00000
    D9       -0.00007   0.00000   0.00000   0.00007   0.00007   0.00000
   D10        3.14158   0.00000   0.00000   0.00002   0.00002  -3.14159
   D11        3.14154   0.00000   0.00000   0.00006   0.00006  -3.14159
   D12       -0.00000   0.00000   0.00000   0.00000   0.00000   0.00000
   D13       -3.14158  -0.00000   0.00000  -0.00002  -0.00002   3.14159
   D14        0.00001  -0.00000   0.00000  -0.00001  -0.00001  -0.00000
   D15        0.00000  -0.00000   0.00000  -0.00000  -0.00000   0.00000
   D16        3.14159   0.00000   0.00000   0.00001   0.00001   3.14159
   D17        0.00016  -0.00001   0.00000  -0.00016  -0.00016  -0.00000
   D18       -3.14153  -0.00000   0.00000  -0.00006  -0.00006  -3.14159
   D19       -3.14150  -0.00000   0.00000  -0.00009  -0.00009   3.14159
   D20       -0.00000   0.00000   0.00000   0.00000   0.00000   0.00000
   D21        0.00000  -0.00000   0.00000  -0.00000  -0.00000  -0.00000
   D22        3.14156   0.00000   0.00000   0.00003   0.00003   3.14159
   D23       -3.14151  -0.00000   0.00000  -0.00008  -0.00008   3.14159
   D24        0.00004  -0.00000   0.00000  -0.00004  -0.00004  -0.00000
   D25       -0.00018   0.00001   0.00000   0.00018   0.00018   0.00000
   D26        3.14152   0.00000   0.00000   0.00008   0.00008   3.14159
   D27        3.14150   0.00000   0.00000   0.00009   0.00009   3.14159
   D28        0.00001  -0.00000   0.00000  -0.00001  -0.00001  -0.00000
   D29       -0.00000   0.00000   0.00000   0.00000   0.00000  -0.00000
   D30       -3.14159  -0.00000   0.00000  -0.00000  -0.00000   3.14159
   D31       -3.14159  -0.00000   0.00000  -0.00001  -0.00001   3.14159
   D32        0.00001  -0.00000   0.00000  -0.00001  -0.00001   0.00000
   D33       -0.00001   0.00000   0.00000   0.00001   0.00001   0.00000
   D34        3.14157   0.00000   0.00000   0.00002   0.00002   3.14159
   D35       -3.14156  -0.00000   0.00000  -0.00003  -0.00003  -3.14159
   D36        0.00002  -0.00000   0.00000  -0.00002  -0.00002   0.00000
   D37        0.00000  -0.00000   0.00000  -0.00000  -0.00000   0.00000
   D38       -3.14158  -0.00000   0.00000  -0.00002  -0.00002  -3.14159
   D39       -3.14159   0.00000   0.00000  -0.00000  -0.00000   3.14159
   D40        0.00001  -0.00000   0.00000  -0.00001  -0.00001   0.00000
         Item               Value     Threshold  Converged?
 Maximum Force            0.000197     0.000450     YES
 RMS     Force            0.000033     0.000300     YES
 Maximum Displacement     0.000922     0.001800     YES
 RMS     Displacement     0.000192     0.001200     YES
 Predicted change in Energy=-1.844984D-07
 Optimization completed.
    -- Stationary point found.
                           ----------------------------
                           !   Optimized Parameters   !
                           ! (Angstroms and Degrees)  !
 --------------------------                            --------------------------
 ! Name  Definition              Value          Derivative Info.                !
 --------------------------------------------------------------------------------
 ! R1    R(1,2)                  1.3767         -DE/DX =   -0.0002              !
 ! R2    R(1,7)                  1.3784         -DE/DX =    0.0001              !
 ! R3    R(1,10)                 1.0037         -DE/DX =    0.0                 !
 ! R4    R(2,3)                  1.4187         -DE/DX =    0.0                 !
 ! R5    R(2,5)                  1.3938         -DE/DX =    0.0                 !
 ! R6    R(3,4)                  1.4335         -DE/DX =    0.0                 !
 ! R7    R(3,6)                  1.4014         -DE/DX =    0.0                 !
 ! R8    R(4,7)                  1.365          -DE/DX =    0.0                 !
 ! R9    R(4,11)                 1.0773         -DE/DX =    0.0                 !
 ! R10   R(5,8)                  1.3845         -DE/DX =   -0.0001              !
 ! R11   R(5,12)                 1.0833         -DE/DX =    0.0                 !
 ! R12   R(6,9)                  1.3831         -DE/DX =    0.0                 !
 ! R13   R(6,13)                 1.0832         -DE/DX =    0.0                 !
 ! R14   R(7,14)                 1.0775         -DE/DX =    0.0                 !
 ! R15   R(8,9)                  1.4055         -DE/DX =    0.0001              !
 ! R16   R(8,15)                 1.0826         -DE/DX =    0.0                 !
 ! R17   R(9,16)                 1.0827         -DE/DX =    0.0                 !
 ! A1    A(2,1,7)              109.2937         -DE/DX =    0.0001              !
 ! A2    A(2,1,10)             125.4683         -DE/DX =    0.0                 !
 ! A3    A(7,1,10)             125.2381         -DE/DX =   -0.0001              !
 ! A4    A(1,2,3)              107.1694         -DE/DX =    0.0                 !
 ! A5    A(1,2,5)              130.557          -DE/DX =    0.0                 !
 ! A6    A(3,2,5)              122.2735         -DE/DX =    0.0                 !
 ! A7    A(2,3,4)              106.8518         -DE/DX =    0.0                 !
 ! A8    A(2,3,6)              118.7536         -DE/DX =    0.0                 !
 ! A9    A(4,3,6)              134.3946         -DE/DX =   -0.0001              !
 ! A10   A(3,4,7)              107.1127         -DE/DX =    0.0                 !
 ! A11   A(3,4,11)             127.0894         -DE/DX =    0.0                 !
 ! A12   A(7,4,11)             125.7979         -DE/DX =    0.0                 !
 ! A13   A(2,5,8)              117.5413         -DE/DX =    0.0                 !
 ! A14   A(2,5,12)             121.4364         -DE/DX =    0.0                 !
 ! A15   A(8,5,12)             121.0224         -DE/DX =    0.0                 !
 ! A16   A(3,6,9)              119.1122         -DE/DX =    0.0                 !
 ! A17   A(3,6,13)             120.4088         -DE/DX =    0.0                 !
 ! A18   A(9,6,13)             120.479          -DE/DX =    0.0                 !
 ! A19   A(1,7,4)              109.5724         -DE/DX =   -0.0001              !
 ! A20   A(1,7,14)             120.5137         -DE/DX =    0.0                 !
 ! A21   A(4,7,14)             129.9139         -DE/DX =    0.0                 !
 ! A22   A(5,8,9)              121.1855         -DE/DX =    0.0                 !
 ! A23   A(5,8,15)             119.4121         -DE/DX =    0.0                 !
 ! A24   A(9,8,15)             119.4024         -DE/DX =    0.0                 !
 ! A25   A(6,9,8)              121.1339         -DE/DX =    0.0                 !
 ! A26   A(6,9,16)             119.685          -DE/DX =    0.0                 !
 ! A27   A(8,9,16)             119.1811         -DE/DX =    0.0                 !
 ! D1    D(7,1,2,3)             -0.0023         -DE/DX =    0.0                 !
 ! D2    D(7,1,2,5)            179.9968         -DE/DX =    0.0                 !
 ! D3    D(10,1,2,3)          -179.9971         -DE/DX =    0.0                 !
 ! D4    D(10,1,2,5)             0.0021         -DE/DX =    0.0                 !
 ! D5    D(2,1,7,4)              0.0082         -DE/DX =    0.0                 !
 ! D6    D(2,1,7,14)          -179.9973         -DE/DX =    0.0                 !
 ! D7    D(10,1,7,4)           180.003          -DE/DX =    0.0                 !
 ! D8    D(10,1,7,14)           -0.0025         -DE/DX =    0.0                 !
 ! D9    D(1,2,3,4)             -0.004          -DE/DX =    0.0                 !
 ! D10   D(1,2,3,6)           -180.0009         -DE/DX =    0.0                 !
 ! D11   D(5,2,3,4)           -180.0033         -DE/DX =    0.0                 !
 ! D12   D(5,2,3,6)             -0.0001         -DE/DX =    0.0                 !
 ! D13   D(1,2,5,8)            180.001          -DE/DX =    0.0                 !
 ! D14   D(1,2,5,12)             0.0005         -DE/DX =    0.0                 !
 ! D15   D(3,2,5,8)              0.0            -DE/DX =    0.0                 !
 ! D16   D(3,2,5,12)           179.9996         -DE/DX =    0.0                 !
 ! D17   D(2,3,4,7)              0.0089         -DE/DX =    0.0                 !
 ! D18   D(2,3,4,11)          -179.9963         -DE/DX =    0.0                 !
 ! D19   D(6,3,4,7)            180.0051         -DE/DX =    0.0                 !
 ! D20   D(6,3,4,11)            -0.0002         -DE/DX =    0.0                 !
 ! D21   D(2,3,6,9)              0.0003         -DE/DX =    0.0                 !
 ! D22   D(2,3,6,13)           179.9983         -DE/DX =    0.0                 !
 ! D23   D(4,3,6,9)            180.0045         -DE/DX =    0.0                 !
 ! D24   D(4,3,6,13)             0.0025         -DE/DX =    0.0                 !
 ! D25   D(3,4,7,1)             -0.0106         -DE/DX =    0.0                 !
 ! D26   D(3,4,7,14)           179.9956         -DE/DX =    0.0                 !
 ! D27   D(11,4,7,1)           179.9946         -DE/DX =    0.0                 !
 ! D28   D(11,4,7,14)            0.0008         -DE/DX =    0.0                 !
 ! D29   D(2,5,8,9)             -0.0001         -DE/DX =    0.0                 !
 ! D30   D(2,5,8,15)           180.0001         -DE/DX =    0.0                 !
 ! D31   D(12,5,8,9)           180.0004         -DE/DX =    0.0                 !
 ! D32   D(12,5,8,15)            0.0006         -DE/DX =    0.0                 !
 ! D33   D(3,6,9,8)             -0.0003         -DE/DX =    0.0                 !
 ! D34   D(3,6,9,16)           179.9989         -DE/DX =    0.0                 !
 ! D35   D(13,6,9,8)          -179.9983         -DE/DX =    0.0                 !
 ! D36   D(13,6,9,16)            0.0009         -DE/DX =    0.0                 !
 ! D37   D(5,8,9,6)              0.0002         -DE/DX =    0.0                 !
 ! D38   D(5,8,9,16)          -179.999          -DE/DX =    0.0                 !
 ! D39   D(15,8,9,6)           180.0            -DE/DX =    0.0                 !
 ! D40   D(15,8,9,16)            0.0008         -DE/DX =    0.0                 !
 --------------------------------------------------------------------------------
 GradGradGradGradGradGradGradGradGradGradGradGradGradGradGradGradGradGrad

 Leave Link  103 at Sat May  4 11:10:42 2024, MaxMem= 13421772800 cpu:               1.5 elap:               0.1
 (Enter /tmpu/scunam/7/gaussian-2016.03/g1/g16/l9999.exe)

 ----------------------------------------------------------------------

 Electric dipole moment (input orientation):
 (Debye = 10**-18 statcoulomb cm , SI units = C m)
                  (au)            (Debye)         (10**-30 SI)
   Tot        0.856338D+00      0.217659D+01      0.726033D+01
   x          0.589545D+00      0.149847D+01      0.499837D+01
   y          0.621089D+00      0.157865D+01      0.526581D+01
   z          0.000000D+00      0.000000D+00      0.000000D+00

 Dipole polarizability, Alpha (input orientation).
 (esu units = cm**3 , SI units = C**2 m**2 J**-1)
 Alpha(0;0):
               (au)            (10**-24 esu)      (10**-40 SI)
   iso        0.965702D+02      0.143102D+02      0.159223D+02
   aniso      0.720638D+02      0.106788D+02      0.118817D+02
   xx         0.135215D+03      0.200369D+02      0.222940D+02
   yx         0.281472D+00      0.417099D-01      0.464085D-01
   yy         0.101964D+03      0.151095D+02      0.168116D+02
   zx        -0.107773D-02     -0.159703D-03     -0.177694D-03
   zy        -0.931857D-03     -0.138087D-03     -0.153643D-03
   zz         0.525313D+02      0.778434D+01      0.866125D+01

 First dipole hyperpolarizability, Beta (input orientation).
 ||, _|_  parallel and perpendicular components, (z) with respect to z axis,
 vector components x,y,z.  Values do not include the 1/n! factor of 1/2.
 (esu units = statvolt**-1 cm**4 , SI units = C**3 m**3 J**-2)
 Beta(0;0,0):
               (au)            (10**-30 esu)      (10**-50 SI)
   || (z)     0.503211D-02      0.434735D-04      0.161348D-04
   _|_(z)     0.167737D-02      0.144912D-04      0.537826D-05
   x         -0.377952D+03     -0.326521D+01     -0.121185D+01
   y         -0.694117D+02     -0.599663D+00     -0.222559D+00
   z          0.251606D-01      0.217368D-03      0.806739D-04
   ||         0.768546D+02      0.663964D+00      0.246424D+00
   xxx       -0.133374D+03     -0.115225D+01     -0.427647D+00
   xxy        0.146871D+01      0.126885D-01      0.470921D-02
   yxy        0.604474D+01      0.522218D-01      0.193816D-01
   yyy       -0.143064D+02     -0.123596D+00     -0.458716D-01
   xxz        0.349839D-02      0.302233D-04      0.112171D-04
   yxz        0.105311D-02      0.909802D-05      0.337664D-05
   yyz        0.414483D-02      0.358081D-04      0.132898D-04
   zxz        0.134573D+01      0.116261D-01      0.431490D-02
   zyz       -0.102995D+02     -0.889798D-01     -0.330240D-01
   zzz        0.743642D-03      0.642449D-05      0.238439D-05

 ----------------------------------------------------------------------

 Dipole orientation:
     7          0.48303496         -0.45835234          3.56783565
     6         -0.41010801          0.38937511          1.27605827
     6          0.95465058         -0.90619015         -0.63344472
     6          2.69392644         -2.55689418          0.62703175
     6         -2.27657263          2.16105115          0.71461463
     6          0.40374564         -0.38338913         -3.17048565
     6          2.34911559         -2.22987836          3.16232978
     6         -2.77523936          2.63427244         -1.80976535
     6         -1.44730865          1.37366635         -3.73380067
     1         -0.12611310          0.11983689          5.26850262
     1          4.03023904         -3.82520553         -0.23919682
     1         -3.30311638          3.13553296          2.19350418
     1          1.41481502         -1.34312831         -4.66930869
     1          3.28778219         -3.12098426          4.73411122
     1         -4.21381014          3.99978771         -2.31085425
     1         -1.88708137          1.79105601         -5.68785557

 Electric dipole moment (dipole orientation):
 (Debye = 10**-18 statcoulomb cm , SI units = C m)
                  (au)            (Debye)         (10**-30 SI)
   Tot        0.856338D+00      0.217659D+01      0.726033D+01
   x          0.000000D+00      0.000000D+00      0.000000D+00
   y          0.000000D+00      0.000000D+00      0.000000D+00
   z          0.856338D+00      0.217659D+01      0.726033D+01

 Dipole polarizability, Alpha (dipole orientation).
 (esu units = cm**3 , SI units = C**2 m**2 J**-1)
 Alpha(0;0):
               (au)            (10**-24 esu)      (10**-40 SI)
   iso        0.965702D+02      0.143102D+02      0.159223D+02
   aniso      0.720638D+02      0.106788D+02      0.118817D+02
   xx         0.875882D+02      0.129792D+02      0.144413D+02
   yx        -0.332763D+02     -0.493104D+01     -0.548652D+01
   yy         0.841176D+02      0.124649D+02      0.138691D+02
   zx         0.120534D+02      0.178613D+01      0.198733D+01
   zy        -0.114397D+02     -0.169519D+01     -0.188616D+01
   zz         0.118005D+03      0.174865D+02      0.194564D+02

 First dipole hyperpolarizability, Beta (dipole orientation).
 ||, _|_  parallel and perpendicular components, (z) with respect to z axis,
 vector components x,y,z.  Values do not include the 1/n! factor of 1/2.
 (esu units = statvolt**-1 cm**4 , SI units = C**3 m**3 J**-2)
 Beta(0;0,0):
               (au)            (10**-30 esu)      (10**-50 SI)
   || (z)    -0.621088D+02     -0.536572D+00     -0.199143D+00
   _|_(z)    -0.207029D+02     -0.178857D+00     -0.663811D-01
   x         -0.164175D+03     -0.141834D+01     -0.526403D+00
   y          0.155804D+03      0.134603D+01      0.499564D+00
   z         -0.310544D+03     -0.268286D+01     -0.995716D+00
   ||         0.768546D+02      0.663964D+00      0.246424D+00
   xxx       -0.754768D+01     -0.652061D-01     -0.242006D-01
   xxy        0.182692D+02      0.157832D+00      0.585777D-01
   yxy       -0.167609D+02     -0.144801D+00     -0.537416D-01
   yyy        0.480054D+01      0.414729D-01      0.153923D-01
   xxz       -0.325983D+02     -0.281624D+00     -0.104522D+00
   yxz        0.247320D+02      0.213665D+00      0.792998D-01
   yyz       -0.300200D+02     -0.259350D+00     -0.962551D-01
   zxz       -0.304162D+02     -0.262773D+00     -0.975255D-01
   zyz        0.288649D+02      0.249371D+00      0.925514D-01
   zzz       -0.408963D+02     -0.353312D+00     -0.131128D+00

 ----------------------------------------------------------------------
 1\1\GINC-MN429\Freq\RB3LYP\def2TZVP\C8H7N1\ANDFAG_A\04-May-2024\0\\#P 
 Geom=AllCheck Guess=TCheck SCRF=Check GenChk RB3LYP/def2TZVP Freq\\ind
 ole\\0,1\N,1.5553751662,1.126758552,-0.0000677335\C,0.2478377266,0.695
 7782492,-0.0000402637\C,0.2744144661,-0.7226471496,0.0000110415\C,1.65
 39429109,-1.1124522713,-0.0000838127\C,-0.9443945428,1.4178230743,-0.0
 000405922\C,-0.9413522856,-1.4196848144,0.0000660293\C,2.3951900126,0.
 033733611,0.0000176251\C,-2.1279069271,0.6994067649,0.0000122795\C,-2.
 1261134029,-0.7060970862,0.0000629725\H,1.8526062445,2.0854521018,-0.0
 000642375\H,2.0454768703,-2.1161128314,-0.0001323971\H,-0.9488610618,2
 .5010799633,-0.00007312\H,-0.9523507659,-2.5028058763,0.0000778213\H,3
 .4645587576,0.1654680662,0.0000562223\H,-3.0717199401,1.2296845927,0.0
 000112786\H,-3.0707032286,-1.2351849462,0.0000868866\\Version=ES64L-G1
 6RevA.03\State=1-A\HF=-363.9550789\RMSD=4.757e-09\RMSF=6.899e-05\ZeroP
 oint=0.1291298\Thermal=0.1354887\Dipole=0.5895449,0.6210886,-0.0000045
 \DipoleDeriv=-0.4512874,0.1281906,0.0000253,-0.2769516,-0.5844838,0.00
 00023,0.000042,0.0000825,-0.2342277,0.3823985,0.1417584,-0.0000246,0.4
 810326,-0.0430809,-0.0000133,0.0000234,-0.0000077,0.0481953,0.2037908,
 0.0102268,-0.0000242,-0.3231591,-0.1893347,0.0000034,-0.0000577,0.0000
 191,-0.0448752,-0.1376616,-0.1941777,0.000006,-0.0348753,-0.0868888,0.
 0000225,0.0000619,-0.0000381,-0.2269809,0.0909812,-0.0915691,0.0000042
 ,-0.0122798,0.0727627,-0.0000069,-0.0000094,-0.0000021,-0.1506299,0.13
 31282,-0.0120276,0.0000014,0.0183045,0.1284865,-0.0000031,0.0000167,0.
 0000001,-0.1131321,-0.1686847,-0.1396497,0.0000203,0.0134755,0.5937563
 ,-0.0000014,-0.0000974,-0.0000357,-0.123671,-0.1076402,0.0024281,-0.00
 00083,-0.1074588,0.0779096,-0.0000126,0.0000072,-0.0000111,-0.1688607,
 -0.0700446,0.08414,-0.0000024,0.1614689,-0.0474943,-0.0000015,-0.00000
 1,-0.0000157,-0.1740177,0.1628078,0.0512237,-0.000004,0.0532068,0.1993
 916,-0.0000015,-0.0000195,-0.0000185,0.2984554,0.0346622,0.0416047,0.0
 000005,0.0646961,-0.0265613,-0.0000072,-0.0000106,0.0000122,0.167832,0
 .0553729,-0.0208209,0.0000027,0.0045707,-0.1096316,0.0000082,-0.000004
 1,0.0000018,0.1417422,0.0588313,0.0117045,0.000002,-0.0139352,-0.10394
 15,0.0000058,-0.0000023,-0.0000027,0.1284641,-0.0337925,-0.0138689,-0.
 0000059,-0.0262508,0.0782915,-0.0000027,0.0000469,0.0000016,0.1710653,
 -0.0711486,0.0785757,0.0000013,0.0768315,0.0215864,0.0000023,0.0000025
 ,0.0000063,0.1397822,-0.0817132,-0.0777387,0.0000057,-0.078676,0.01923
 21,0.0000059,0.0000012,0.0000081,0.1408587\Polar=135.2154122,0.2814724
 ,101.9639884,-0.0010777,-0.0009319,52.5313343\PolarDeriv=-4.3899784,-0
 .6980038,-0.657179,-0.0000339,-0.0000166,0.0865695,-2.6787165,1.409700
 3,-3.0782719,0.0003667,-0.0000852,0.3856523,-0.001492,-0.0004513,-0.00
 12006,0.974608,1.1711149,-0.000323,-1.3435866,0.4663228,0.1082659,-0.0
 002152,0.0000101,0.8866452,20.4251204,-0.2999449,1.8807668,-0.0004471,
 0.0001048,0.2118864,-0.0028837,0.0009417,-0.0017673,0.3984368,2.596242
 2,-0.0003208,17.0666975,-2.0231167,-0.6713092,0.0002699,-0.0003729,0.1
 711714,-18.4238085,1.2234578,-2.2248412,0.0004093,0.0000823,-0.4410236
 ,0.0047874,-0.0016835,0.0040382,1.2444466,-2.7485366,0.0005375,-21.361
 2004,0.5883657,-1.0323732,-0.0003625,0.0001113,-0.3277214,-7.1455736,-
 0.3307401,-1.0026608,-0.0002826,-0.0001899,-2.6723995,-0.0067639,0.001
 8288,-0.0042473,1.3992136,-2.6428154,-0.0018612,9.2877603,1.5116748,3.
 8430542,-0.0000045,-0.000018,0.4036473,0.7655786,-0.5913081,0.7034068,
 0.0000152,0.0000181,2.0934612,0.0002011,-0.0001722,0.0005134,0.0582022
 ,2.8622957,-0.0005547,-3.3468873,1.5477102,4.4060552,-0.0000688,-0.000
 0966,0.5157396,-3.1656275,-0.9526203,-0.7416583,0.0000719,0.0001107,-1
 .7319238,-0.00083,0.0005175,-0.0006591,-1.1259663,-2.8062824,0.000676,
 11.4044162,0.0920409,2.4930281,-0.0000194,-0.000068,2.1072779,11.23289
 81,-0.5684612,2.781747,-0.0002959,0.0005819,2.2030849,0.0070827,-0.001
 0076,0.0029821,6.2367389,1.2220056,0.0014226,-5.6129727,-0.715935,-4.4
 787701,-0.0000977,0.0001531,-1.9317179,3.7561425,-2.6560404,-5.3799136
 ,-0.0003057,0.0002584,0.7406389,-0.0006262,0.0001061,0.0002648,-5.2139
 216,2.1827252,0.0000661,0.4595047,-1.4680388,-4.2731197,0.0000177,0.00
 00437,-1.9735007,-6.0936152,2.5338435,5.8714598,-0.0000834,-0.0002867,
 -0.7548907,0.0003997,-0.0003104,-0.0003628,-4.2467502,-1.9672094,0.000
 3916,2.2406016,2.0769964,2.0116623,-0.0000231,-0.000003,0.140648,3.142
 8876,3.5354639,8.6106324,-0.0000568,-0.0001209,0.3833858,-0.0000704,0.
 0001176,0.0002871,0.4093218,0.8509533,0.0000027,2.2144045,-2.5680083,2
 .3686101,-0.0000383,0.0000324,0.14516,-3.0845229,3.9115593,-8.217712,0
 .0002364,-0.0004723,-0.4548126,0.0007143,-0.0002215,0.0003638,0.327953
 8,-0.5150598,0.0001682,-0.072016,1.3765148,-0.1064221,-0.0000315,-0.00
 0015,0.0001431,0.9171848,-1.159437,11.4455603,0.0000283,-0.0003051,0.5
 146791,-0.0000347,0.000031,-0.000208,-0.072597,0.6562172,0.0000028,-0.
 2241649,-1.2976246,-0.148656,0.0000148,0.0000167,-0.0089297,-0.8061454
 ,-1.3001423,-11.1790493,0.0000503,0.0002047,-0.5084658,0.0000423,-0.00
 01312,0.0001562,0.0847601,-0.7131803,-0.0000714,13.4091896,1.1454222,0
 .9058393,0.0003233,0.0001121,0.5186379,1.2151683,1.673773,0.5395443,0.
 0001093,-0.0000072,0.0379225,-0.0008725,0.0002829,-0.0002657,0.0830858
 ,-0.0964505,-0.0001421,-9.8687919,3.888609,-2.3790743,0.0000396,0.0000
 035,-0.3687153,4.0515497,-3.2774417,2.3464247,0.0000434,-0.0000083,0.1
 836373,0.0001102,0.0000158,-0.0000169,-0.1957261,0.3114306,-0.0000128,
 -9.8629764,-3.9229297,-2.3896119,0.0002297,0.0001072,-0.365055,-4.1085
 206,-3.1516617,-2.355435,0.0001408,0.0001149,-0.1908324,0.0002356,0.00
 01362,0.000122,-0.3618063,-0.3634502,0.0000186\HyperPolar=-133.3744983
 ,1.4687078,6.044739,-14.3064357,0.0034984,0.0010531,0.0041448,1.345730
 2,-10.2995134,0.0007436\Quadrupole=2.7505879,3.6063193,-6.3569072,2.33
 63202,0.0000544,-0.0000191\PG=C01 [X(C8H7N1)]\NImag=0\\0.62693948,0.08
 928280,0.91356035,0.00000931,-0.00001010,0.06069129,-0.26256741,-0.043
 42591,-0.00000037,0.76932163,-0.05874960,-0.14554392,0.00000211,-0.084
 09920,0.64328412,0.00000581,0.00000244,-0.05056572,-0.00000532,-0.0000
 1348,0.14782609,-0.02423526,-0.01457699,-0.00000155,-0.11527387,0.0291
 1621,-0.00000114,0.73448163,-0.04250039,-0.04666619,0.00000313,-0.0168
 8633,-0.25195250,0.00000655,0.08081816,0.61453337,0.00000098,0.0000005
 1,0.00983235,0.00000211,0.00000511,-0.08143495,-0.00002302,-0.00000918
 ,0.15080508,0.00515166,-0.01153388,0.00000222,-0.00513823,0.04446957,0
 .00000091,-0.22784348,0.05027170,0.00001274,0.56230200,0.01621278,-0.0
 8732433,-0.00000172,0.01972801,-0.02770267,-0.00000231,0.05355911,-0.1
 2389224,-0.00000140,-0.03712059,0.85156759,0.00000100,0.00000262,0.015
 68085,-0.00000182,0.00000090,0.00930800,0.00001079,-0.00000557,-0.0595
 2309,-0.00000479,0.00003480,0.10981410,-0.04756210,0.00823612,0.000001
 45,-0.24803491,0.07638059,0.00000117,0.03005742,0.05368552,-0.00000292
 ,-0.00547259,0.00061840,0.00000130,0.65632203,-0.01040404,0.02084050,-
 0.00000085,0.11934577,-0.19602198,0.00000337,0.02699023,-0.01822439,-0
 .00000012,-0.00061451,-0.00592384,-0.00000010,0.01063736,0.74027402,0.
 00000125,-0.00000104,-0.00113795,-0.00000018,0.00000414,-0.05293650,-0
 .00000102,-0.00000129,0.00595351,-0.00000015,0.00000018,0.00174340,-0.
 00001150,-0.00002079,0.11795778,0.00210553,-0.00701077,0.00000105,0.03
 030744,-0.05733322,0.00000186,-0.24841229,-0.07516433,0.00000965,-0.04
 671777,-0.01879867,0.00000103,-0.05344287,-0.00428275,0.00000120,0.652
 66009,0.00223457,-0.00576638,0.00000009,-0.03200824,-0.02104909,0.0000
 0130,-0.10399661,-0.18094063,0.00000503,0.00306129,0.01492053,-0.00000
 010,0.00606616,0.00010256,0.00000009,-0.01418389,0.73543078,-0.0000013
 9,-0.00000013,0.00204667,0.00000128,0.00000226,0.00329050,0.00001015,0
 .00000475,-0.05725617,0.00000152,0.00000112,-0.00007264,-0.00000010,0.
 00000046,-0.00329512,-0.00001358,-0.00001213,0.12744315,-0.18343110,0.
 08765067,-0.00000747,-0.08395873,0.01873356,-0.00000344,-0.05903585,-0
 .01772237,-0.00000262,-0.19307947,-0.14088156,-0.00001203,0.00696469,-
 0.00637624,-0.00000014,0.00305119,0.00572330,0.00000035,0.84004798,0.0
 8559907,-0.22708415,0.00000671,0.03425300,0.00474830,0.00000144,-0.062
 17949,0.00980033,-0.00000077,-0.12676850,-0.31439941,-0.00001969,-0.00
 300175,-0.00169928,0.00000066,0.02194029,0.00067977,-0.00000127,0.0940
 8178,0.62440993,-0.00000818,0.00000773,-0.04555578,-0.00000140,-0.0000
 0193,0.01186573,0.00000247,0.00000143,0.00830445,-0.00001330,-0.000018
 10,-0.05970712,-0.00000010,0.00000013,0.00158165,-0.00000013,0.0000001
 0,0.00384403,0.00003111,0.00001395,0.11590487,0.00975762,0.00768082,-0
 .00000066,-0.06902290,0.01429186,0.00000102,-0.01230581,-0.01941706,0.
 00000062,0.00188427,-0.00237444,-0.00000076,-0.28646484,-0.12874867,0.
 00001015,0.02579594,0.02699162,-0.00000025,-0.00666260,0.00068451,0.00
 000011,0.72561182,0.00867057,0.00529081,-0.00000100,-0.02332540,0.0560
 8404,-0.00000107,-0.03458504,-0.03805781,0.00000210,0.01400565,0.00042
 189,-0.00000062,-0.07127557,-0.18566651,0.00000611,0.07356573,-0.03130
 426,0.00000036,-0.00459020,-0.01010096,0.00000024,-0.02464507,0.648571
 29,-0.00000076,-0.00000026,0.00555173,0.00000212,-0.00000181,0.0037096
 8,0.00000132,0.00000147,-0.00463719,-0.00000052,0.00000010,-0.00087461
 ,0.00000842,0.00000770,-0.05307623,-0.00000292,0.00000090,0.00583453,0
 .00000044,0.00000017,0.00064522,-0.00001164,-0.00001893,0.12256685,-0.
 00480209,0.00514151,-0.00000062,-0.01204484,0.02118886,-0.00000024,-0.
 06720817,-0.01254343,0.00000238,0.01297843,-0.00180830,-0.00000034,0.0
 2496629,-0.02720543,0.00000034,-0.28873910,0.12791914,0.00000065,-0.00
 314712,-0.01099670,0.00000036,-0.12424685,-0.03159296,0.00000226,0.726
 99988,-0.00787031,-0.00808198,0.00000090,0.03355063,-0.04000263,0.0000
 0076,0.02457954,0.05106951,-0.00000120,-0.01740015,-0.00255361,0.00000
 105,-0.07160310,-0.02995342,0.00000264,0.06974339,-0.18637260,0.000000
 90,0.00676619,0.00868339,-0.00000006,0.03078788,-0.29538092,0.00000822
 ,0.02478620,0.64901388,0.00000072,0.00000008,-0.00107136,-0.00000091,0
 .00000048,-0.00479995,0.00000126,-0.00000082,0.00517455,0.,-0.00000008
 ,0.00595182,0.00000190,0.00000184,0.00637397,0.00000078,0.00000123,-0.
 05498846,0.,0.00000060,0.00042862,-0.00000003,0.00000947,-0.05712398,-
 0.00000922,-0.00001754,0.12165708,-0.10802186,-0.11065793,-0.00000361,
 0.00334326,-0.03015599,-0.00000040,-0.00782002,-0.00108767,0.00000016,
 -0.00335943,0.00521765,-0.00000004,0.00199706,0.00021315,-0.00000002,0
 .00158294,-0.00157970,-0.00000002,0.01564359,0.01837426,0.00000151,-0.
 00030263,-0.00038095,0.00000008,-0.00022099,0.00050195,0.,0.09739522,-
 0.10919760,-0.42621568,0.00000134,-0.00062595,-0.00236377,-0.00000052,
 -0.00172995,0.00169384,-0.00000009,0.00437242,-0.00109451,0.00000008,0
 .00088045,0.00146449,0.,0.00079374,-0.00056513,0.00000017,-0.01205431,
 -0.01378781,-0.00000157,-0.00029618,-0.00099251,0.00000012,-0.00007994
 ,0.00079299,-0.00000004,0.11860443,0.44085725,-0.00000554,-0.00000283,
 0.00359758,0.00000191,0.00000131,-0.00688691,0.00000081,-0.00000023,0.
 00220805,-0.00000098,-0.00000090,0.00166714,-0.00000047,-0.00000004,-0
 .00128130,-0.00000010,0.00000016,0.00129659,0.00000165,0.00000243,-0.0
 0818211,0.00000016,0.00000017,-0.00020321,-0.00000004,-0.00000020,-0.0
 0020715,0.00000241,0.00000044,0.00650383,-0.00196591,-0.00458635,-0.00
 000025,-0.00650040,0.00063511,0.00000061,-0.00019486,0.02555359,-0.000
 00051,-0.09667907,0.10148060,0.00000522,0.00097001,0.00146226,-0.00000
 007,0.00180711,-0.00018064,-0.00000003,0.01190665,-0.01567969,0.000000
 30,0.00001087,-0.00015003,0.00000002,-0.00013257,-0.00000263,-0.000000
 05,0.00095785,-0.00067613,0.00000007,0.09061702,-0.00265519,-0.0024059
 6,-0.00000082,-0.00000456,0.00009749,-0.00000013,-0.00116386,0.0003259
 4,0.00000037,0.09818066,-0.31383953,-0.00001432,-0.00026791,-0.0001913
 6,-0.00000009,-0.00004774,0.00038142,0.00000008,0.01293071,-0.01309670
 ,0.00000087,0.00009245,0.00030263,0.00000002,0.00034501,-0.00023749,-0
 .00000002,0.00080561,-0.00025693,-0.00000020,-0.10833117,0.32862889,-0
 .00000115,0.00000089,0.00487348,0.00000043,0.00000041,0.00323012,0.000
 00021,-0.00000116,-0.00129893,0.00000435,-0.00001216,-0.02367531,0.000
 00005,-0.00000012,0.00069952,-0.00000008,-0.00000003,-0.00149991,0.000
 00149,-0.00000207,-0.00150559,-0.00000004,0.,-0.00026806,-0.00000003,0
 .,-0.00012641,-0.00000008,0.00000011,0.00235270,-0.00000538,0.00001400
 ,0.02013054,0.00268703,-0.00131274,0.,0.00538262,0.02794890,-0.0000011
 4,-0.00404122,0.00129314,0.00000029,-0.00013442,0.00145498,0.00000002,
 -0.06013997,0.00409250,0.00000040,-0.00137888,-0.00008258,0.,-0.000077
 35,0.00073936,-0.00000007,0.00566122,-0.02814437,0.00000079,-0.0042666
 4,-0.00209775,0.00000032,-0.00061824,-0.00028231,0.,-0.00044227,0.0000
 4356,0.00000002,0.05611614,-0.00050024,0.00174777,-0.00000017,-0.00309
 943,-0.01321691,0.00000060,0.00241904,0.00139503,0.,-0.00013252,-0.000
 56336,0.00000004,0.00293639,-0.33250670,0.00000917,0.00037986,0.000497
 14,-0.00000007,0.00069537,-0.00064947,0.00000006,0.00229568,-0.0127180
 3,0.00000039,-0.00336555,0.00120965,0.00000030,0.00095134,-0.00039411,
 0.,0.00025629,0.00003962,0.,-0.00282950,0.35500844,0.00000017,0.000000
 04,-0.00266795,0.00000015,-0.00000025,0.00254061,-0.00000009,0.0000004
 0,0.00576597,0.00000010,0.00000013,-0.00019518,0.00000017,0.00000883,-
 0.03107753,-0.00000022,-0.00000020,-0.00040340,-0.00000006,0.,-0.00042
 218,-0.00000005,0.00000135,0.00114084,0.00000057,0.00000005,0.00778385
 ,-0.00000005,-0.00000007,0.00007769,-0.00000003,-0.00000003,0.00021993
 ,-0.00000053,-0.00001015,0.02229980,-0.00027087,-0.00164459,0.00000003
 ,-0.00405216,-0.00154029,0.00000028,0.00518627,-0.02818404,0.00000040,
 0.00160499,0.00076589,-0.00000010,-0.00122728,-0.00008872,0.00000005,-
 0.05987568,-0.00449185,0.00000066,0.00040054,-0.00030747,-0.00000003,-
 0.00427854,0.00221846,0.00000018,0.00517303,0.02817806,-0.00000051,-0.
 00050440,-0.00010991,0.00000003,-0.00041250,0.00039712,0.00000005,0.00
 014892,-0.00001206,-0.00000005,0.05705556,-0.00017035,-0.00065102,-0.0
 0000002,-0.00222282,0.00119276,0.00000006,0.00165477,-0.01243196,0.000
 00022,0.00066601,0.00118591,0.00000004,-0.00034217,0.00049504,-0.00000
 002,-0.00335019,-0.33324157,0.00000374,-0.00018745,-0.00051862,-0.0000
 0003,0.00333273,0.00095613,0.,-0.00247829,-0.01255793,0.00000027,-0.00
 022339,0.00007455,0.00000002,-0.00070398,-0.00007235,0.,0.00001798,-0.
 00010356,-0.00000002,0.00395656,0.35546775,0.00000017,0.00000013,-0.00
 032067,0.00000032,0.00000028,0.00650637,-0.00000067,0.00000098,0.00253
 777,-0.00000011,0.00000006,-0.00286290,0.00000033,-0.00000014,-0.00055
 398,0.00000147,0.00000298,-0.03391210,-0.00000011,-0.00000008,-0.00022
 658,-0.00000012,-0.00000011,0.00800770,-0.00000042,0.00000027,0.001876
 50,0.00000004,0.00000002,0.00025312,0.00000003,0.,0.00008578,-0.000000
 02,-0.00000005,-0.00143043,-0.00000081,-0.00000425,0.02374591,-0.01309
 292,-0.00443797,0.00000051,0.00068689,0.00251682,-0.00000030,-0.000358
 89,-0.00173446,-0.00000047,-0.00555312,0.00286253,0.00000056,-0.000629
 22,-0.00048467,-0.00000022,-0.00033851,0.00033795,-0.00000017,-0.34773
 887,-0.03640214,-0.00001267,0.00010707,0.00043034,-0.00000002,-0.00002
 356,-0.00043679,0.00000006,-0.00005499,0.00033698,0.00000009,0.0001316
 0,-0.00038425,0.00000017,-0.00001579,0.00003305,0.,-0.00003165,-0.0000
 4328,0.,0.36701585,0.03067231,0.00717499,0.00000039,0.00116773,-0.0055
 8108,0.00000061,-0.00331296,-0.00490440,-0.00000067,-0.02180202,0.0084
 2913,0.00000089,0.00126484,0.00122440,-0.00000004,-0.00047313,0.001359
 39,-0.00000003,-0.04478810,-0.06668793,-0.00000279,0.00014012,-0.00069
 783,-0.00000002,-0.00054217,-0.00010963,0.00000012,-0.00067227,0.00078
 638,-0.00000014,0.00096264,0.00032883,0.00000011,-0.00005426,0.0000072
 0,0.00000001,0.00004714,-0.00001887,-0.00000001,0.03741750,0.05851376,
 -0.00000242,-0.00000014,-0.00202937,0.00000134,0.00000030,0.00177025,0
 .00000046,-0.00000067,0.00658287,-0.00000210,0.00000037,0.00218126,-0.
 00000065,0.00000020,0.00218560,-0.00000035,0.00000014,0.00100074,-0.00
 000922,-0.00000197,-0.02618213,0.00000041,0.00000037,-0.00001406,0.000
 00010,-0.00000048,-0.00048921,0.00000002,0.00000004,-0.00133840,0.0000
 0004,0.00000029,-0.00335940,0.,-0.00000001,0.00008582,-0.00000001,0.,0
 .00019475,0.00001241,0.00000159,0.02007151,-0.00100727,0.00138224,-0.0
 0000004,-0.00249762,-0.00409487,0.00000034,-0.00005282,-0.00054324,0.0
 0000001,0.00031979,0.00022070,0.,-0.01987457,0.01502773,-0.00000007,0.
 00160911,-0.00038278,0.00000012,-0.00028132,-0.00073127,0.00000002,-0.
 26878962,0.11777518,0.00000029,0.00323792,-0.00182941,0.00000008,-0.00
 000198,0.00005614,0.,-0.00002528,0.00002151,0.,0.00108735,-0.00020262,
 -0.00000007,0.00001338,-0.00016543,0.,-0.00006375,0.00010585,-0.000000
 02,0.28553258,-0.00052376,0.00100912,0.,-0.00341567,-0.00127788,0.0000
 0042,-0.00108156,-0.00057017,-0.00000002,0.00023667,0.00015694,-0.0000
 0004,-0.01553879,0.01120809,-0.00000004,-0.00130211,-0.00561318,0.0000
 0040,-0.00023261,-0.00033738,0.00000001,0.11838278,-0.12544815,0.00000
 114,0.02911479,-0.01059145,-0.00000009,0.00000170,0.00000716,0.,-0.000
 03780,0.00000446,0.,0.00058064,0.00096513,-0.00000020,0.00136388,-0.00
 071350,0.00000002,-0.00002907,0.00008181,-0.00000002,-0.12707071,0.130
 02991,-0.00000014,0.00000005,0.00125531,0.00000052,0.00000034,0.007275
 65,-0.00000020,-0.00000001,-0.00108267,0.00000016,0.,-0.00024749,0.000
 00100,-0.00000076,0.00104149,0.00000057,0.00000038,0.00604124,0.000000
 06,-0.00000020,-0.00019668,0.00000004,0.00000094,-0.03137008,-0.000001
 32,0.00000098,0.00063408,-0.00000001,0.,0.00015639,0.00000001,0.,0.000
 04247,-0.00000013,-0.00000017,-0.00417712,-0.00000010,0.00000006,0.000
 28119,0.00000005,-0.00000002,-0.00044010,-0.00000054,-0.00000146,0.023
 78375,0.00031547,-0.00018704,0.,0.00004924,0.00069168,-0.00000002,-0.0
 0294277,0.00416123,0.00000019,-0.00026357,-0.00113709,-0.00000004,0.00
 157084,0.00043604,-0.00000005,-0.02001424,-0.01542775,0.00000082,-0.00
 060223,0.00039474,0.,0.00324500,0.00202367,-0.00000007,-0.26852364,-0.
 11765371,0.00000560,-0.00001539,0.00000812,0.,-0.00004824,0.00003805,0
 .,0.00003149,0.00017489,-0.00000001,0.00107038,0.00025931,-0.00000008,
 -0.00004015,-0.00013323,0.,0.00079410,-0.00044838,0.00000001,0.2853737
 2,-0.00010063,0.00011607,0.,0.00106837,-0.00069429,-0.00000003,0.00348
 942,-0.00117772,0.00000009,0.00010819,0.00061150,0.00000002,0.00132344
 ,-0.00542161,0.00000032,0.01552379,0.01148124,-0.00000060,0.00025126,0
 .00003999,-0.00000004,-0.02919906,-0.01125980,0.00000080,-0.11788273,-
 0.12492775,0.00000420,0.00008781,-0.00000623,0.,-0.00000207,-0.0000089
 6,0.,-0.00136754,-0.00071784,0.00000009,-0.00054818,0.00093726,-0.0000
 0009,0.00001746,0.00009384,0.,0.00043099,0.00108910,-0.00000014,0.1267
 9948,0.12984520,0.00000016,0.00000001,-0.00018049,-0.00000019,-0.00000
 017,-0.00069898,0.00000020,0.00000023,0.00806840,-0.00000004,-0.000000
 11,0.00081176,-0.00000004,0.00000039,0.00582169,-0.00000025,0.00000005
 ,0.00063034,-0.00000001,0.00000011,-0.00059639,0.00000103,0.00000062,0
 .00011086,0.00000557,0.00000371,-0.03107393,0.,-0.00000003,-0.00001401
 ,0.,0.,0.00009908,0.00000007,0.00000005,0.00045929,-0.00000008,-0.0000
 0008,-0.00418243,0.00000002,0.,-0.00022015,-0.00000010,-0.00000014,-0.
 00299744,-0.00000635,-0.00000463,0.02396240\\0.00031897,0.00003974,-0.
 00000893,-0.00020358,0.00000944,-0.00000271,0.00004367,-0.00008205,0.0
 0001233,0.00000499,0.00002759,-0.00001711,0.00012397,0.00001540,-0.000
 00045,0.00001104,-0.00003565,0.00000380,-0.00012952,0.00002131,0.00001
 735,-0.00010747,-0.00010616,0.00000038,-0.00001274,0.00010666,-0.00000
 040,-0.00002530,0.00000868,-0.00000169,0.00001859,0.00002336,-0.000003
 14,-0.00000991,-0.00002770,0.00000021,-0.00002827,0.00002222,-0.000000
 76,0.00000045,-0.00000685,0.00000205,0.00000449,0.00001055,-0.00000013
 ,-0.00000939,-0.00002653,-0.00000082\\\@


 A MAN IS NEVER SO BRILLIANT AS WHEN HE TAKES THE WORDS RIGHT OUT
 OF YOUR MOUTH. -- ARNOT SHEPPARD, JR.
 Job cpu time:       0 days  2 hours 46 minutes 33.6 seconds.
 Elapsed time:       0 days  0 hours  5 minutes 13.2 seconds.
 File lengths (MBytes):  RWF=    169 Int=      0 D2E=      0 Chk=      9 Scr=      1
 Normal termination of Gaussian 16 at Sat May  4 11:10:42 2024.


PS:

Read file <indole.err> for stderr output of this job.

