Sender: LSF System <lsfadmin@mn429>
Subject: Job 504856: <#!/bin/bash;#BSUB -q q_hpc;#BSUB -oo linalool.out;#BSUB -eo linalool.err;#BSUB -n 32; #BSUB -R "span[hosts=1]";#BSUB -m "g3_a g3_b"; module load gaussian/2016.03;input=linalool.com; sed -i "s/\( % nprocshared =\).*/\1 $LSB_DJOB_NUMPROC /g" $input;echo " Ejecucion de Gaussian ";g16 < $input> in cluster <cluster1> Done

Job <#!/bin/bash;#BSUB -q q_hpc;#BSUB -oo linalool.out;#BSUB -eo linalool.err;#BSUB -n 32; #BSUB -R "span[hosts=1]";#BSUB -m "g3_a g3_b"; module load gaussian/2016.03;input=linalool.com; sed -i "s/\( % nprocshared =\).*/\1 $LSB_DJOB_NUMPROC /g" $input;echo " Ejecucion de Gaussian ";g16 < $input> was submitted from host <mn325> by user <andfag_a> in cluster <cluster1>.
Job was executed on host(s) <32*mn429>, in queue <q_hpc>, as user <andfag_a> in cluster <cluster1>.
</home/ilgs_g/andfag_a> was used as the home directory.
</home/ilgs_g/andfag_a/work/Jobs/Georgina/Structures> was used as the working directory.
Started at Sat May  4 10:34:26 2024
Results reported on Sat May  4 11:03:07 2024

Your job looked like:

------------------------------------------------------------
# LSBATCH: User input
#!/bin/bash
#BSUB -q q_hpc
#BSUB -oo linalool.out
#BSUB -eo linalool.err
#BSUB -n 32

#BSUB -R "span[hosts=1]"
#BSUB -m "g3_a g3_b"

module load gaussian/2016.03
input=linalool.com

sed -i "s/\( % nprocshared =\).*/\1 $LSB_DJOB_NUMPROC /g" $input
echo " Ejecucion de Gaussian "
g16 < $input


------------------------------------------------------------

Successfully completed.

Resource usage summary:

    CPU time :                                   54560.72 sec.
    Max Memory :                                 8147.80 MB
    Average Memory :                             3166.50 MB
    Total Requested Memory :                     -
    Delta Memory :                               -
    Max Swap :                                   107094 MB
    Max Processes :                              5
    Max Threads :                                37

The output (if any) follows:

 Ejecucion de Gaussian 
 Entering Gaussian System, Link 0=g16
 Initial command:
 /tmpu/scunam/7/gaussian-2016.03/g1/g16/l1.exe "/tmpu/ilgs_g/andfag_a/g16scrdir/Gau-7714.inp" -scrdir="/tmpu/ilgs_g/andfag_a/g16scrdir/"
 Entering Link 1 = /tmpu/scunam/7/gaussian-2016.03/g1/g16/l1.exe PID=      7715.
  
 Copyright (c) 1988,1990,1992,1993,1995,1998,2003,2009,2016,
            Gaussian, Inc.  All Rights Reserved.
  
 This is part of the Gaussian(R) 16 program.  It is based on
 the Gaussian(R) 09 system (copyright 2009, Gaussian, Inc.),
 the Gaussian(R) 03 system (copyright 2003, Gaussian, Inc.),
 the Gaussian(R) 98 system (copyright 1998, Gaussian, Inc.),
 the Gaussian(R) 94 system (copyright 1995, Gaussian, Inc.),
 the Gaussian 92(TM) system (copyright 1992, Gaussian, Inc.),
 the Gaussian 90(TM) system (copyright 1990, Gaussian, Inc.),
 the Gaussian 88(TM) system (copyright 1988, Gaussian, Inc.),
 the Gaussian 86(TM) system (copyright 1986, Carnegie Mellon
 University), and the Gaussian 82(TM) system (copyright 1983,
 Carnegie Mellon University). Gaussian is a federally registered
 trademark of Gaussian, Inc.
  
 This software contains proprietary and confidential information,
 including trade secrets, belonging to Gaussian, Inc.
  
 This software is provided under written license and may be
 used, copied, transmitted, or stored only in accord with that
 written license.
  
 The following legend is applicable only to US Government
 contracts under FAR:
  
                    RESTRICTED RIGHTS LEGEND
  
 Use, reproduction and disclosure by the US Government is
 subject to restrictions as set forth in subparagraphs (a)
 and (c) of the Commercial Computer Software - Restricted
 Rights clause in FAR 52.227-19.
  
 Gaussian, Inc.
 340 Quinnipiac St., Bldg. 40, Wallingford CT 06492
  
  
 ---------------------------------------------------------------
 Warning -- This program may not be used in any manner that
 competes with the business of Gaussian, Inc. or will provide
 assistance to any competitor of Gaussian, Inc.  The licensee
 of this program is prohibited from giving any competitor of
 Gaussian, Inc. access to this program.  By using this program,
 the user acknowledges that Gaussian, Inc. is engaged in the
 business of creating and licensing software in the field of
 computational chemistry and represents and warrants to the
 licensee that it is not a competitor of Gaussian, Inc. and that
 it will not use this program in any manner prohibited above.
 ---------------------------------------------------------------
  

 Cite this work as:
 Gaussian 16, Revision A.03,
 M. J. Frisch, G. W. Trucks, H. B. Schlegel, G. E. Scuseria, 
 M. A. Robb, J. R. Cheeseman, G. Scalmani, V. Barone, 
 G. A. Petersson, H. Nakatsuji, X. Li, M. Caricato, A. V. Marenich, 
 J. Bloino, B. G. Janesko, R. Gomperts, B. Mennucci, H. P. Hratchian, 
 J. V. Ortiz, A. F. Izmaylov, J. L. Sonnenberg, D. Williams-Young, 
 F. Ding, F. Lipparini, F. Egidi, J. Goings, B. Peng, A. Petrone, 
 T. Henderson, D. Ranasinghe, V. G. Zakrzewski, J. Gao, N. Rega, 
 G. Zheng, W. Liang, M. Hada, M. Ehara, K. Toyota, R. Fukuda, 
 J. Hasegawa, M. Ishida, T. Nakajima, Y. Honda, O. Kitao, H. Nakai, 
 T. Vreven, K. Throssell, J. A. Montgomery, Jr., J. E. Peralta, 
 F. Ogliaro, M. J. Bearpark, J. J. Heyd, E. N. Brothers, K. N. Kudin, 
 V. N. Staroverov, T. A. Keith, R. Kobayashi, J. Normand, 
 K. Raghavachari, A. P. Rendell, J. C. Burant, S. S. Iyengar, 
 J. Tomasi, M. Cossi, J. M. Millam, M. Klene, C. Adamo, R. Cammi, 
 J. W. Ochterski, R. L. Martin, K. Morokuma, O. Farkas, 
 J. B. Foresman, and D. J. Fox, Gaussian, Inc., Wallingford CT, 2016.
 
 ******************************************
 Gaussian 16:  ES64L-G16RevA.03 25-Dec-2016
                 4-May-2024 
 ******************************************
 %nprocshared=32
 Will use up to   32 processors via shared memory.
 %mem=100GB
 %chk=linalool.chk
 ----------------------------------------------------------------------
 #p opt=(maxcycle=2000) freq=raman b3lyp/def2tzvp scf=(maxcycle=2000,di
 rect,NoInCore, xqc)
 ----------------------------------------------------------------------
 1/6=2000,18=20,19=15,26=3,38=1/1,3;
 2/9=110,12=2,17=6,18=5,40=1/2;
 3/5=44,7=101,11=2,25=1,30=1,71=1,74=-5/1,2,3;
 4//1;
 5/5=2,7=2000,8=3,13=1,38=5/2,8;
 6/7=2,8=2,9=2,10=2,28=1/1;
 7//1,2,3,16;
 1/6=2000,18=20,19=15,26=3/3(2);
 2/9=110/2;
 99//99;
 2/9=110/2;
 3/5=44,7=101,11=2,25=1,30=1,71=1,74=-5/1,2,3;
 4/5=5,16=3,69=1/1;
 5/5=2,7=2000,8=3,13=1,38=5/2,8;
 7//1,2,3,16;
 1/6=2000,18=20,19=15,26=3/3(-5);
 2/9=110/2;
 6/7=2,8=2,9=2,10=2,19=2,28=1/1;
 99/9=1/99;
 Leave Link    1 at Sat May  4 10:34:27 2024, MaxMem= 13421772800 cpu:               1.5 elap:               0.1
 (Enter /tmpu/scunam/7/gaussian-2016.03/g1/g16/l101.exe)
 --------
 Linalool
 --------
 Symbolic Z-matrix:
 Charge =  0 Multiplicity = 1
 O                     2.5076   -0.9774   -1.4002 
 C                     1.883    -0.4122   -0.2342 
 C                     0.3689   -0.715    -0.3439 
 C                    -0.4866   -0.1797    0.8095 
 C                     2.5075   -1.1429    0.9608 
 C                     2.1411    1.08     -0.2757 
 C                    -1.9254   -0.5861    0.6467 
 C                    -2.9016    0.089     0.0107 
 C                    -4.3257   -0.3726   -0.1177 
 C                    -2.6098    1.4061   -0.6568 
 C                     2.841     1.8107    0.6008 
 H                    -0.0094   -0.315    -1.2958 
 H                     0.2328   -1.8028   -0.4294 
 H                    -0.3903    0.906     0.9086 
 H                    -0.1374   -0.5931    1.7628 
 H                     2.2879   -2.2162    0.915 
 H                     3.601    -1.0598    0.945 
 H                     2.1479   -0.7622    1.9218 
 H                     1.7142    1.6101   -1.1263 
 H                    -2.1827   -1.5444    1.0956 
 H                     2.1069   -0.5717   -2.1882 
 H                    -4.5922   -0.5032   -1.1713 
 H                    -5.0055    0.3604    0.3282 
 H                    -4.4864   -1.3298    0.3893 
 H                    -3.1266    2.2142   -0.1283 
 H                    -1.5505    1.6655   -0.7108 
 H                    -2.9756    1.3876   -1.6897 
 H                     2.9549    2.879     0.4489 
 H                     3.3104    1.3791    1.4764 
 
 ITRead=  0  0  0  0  0  0  0  0  0  0  0  0  0  0  0  0  0  0  0  0
 ITRead=  0  0  0  0  0  0  0  0  0
 MicOpt= -1 -1 -1 -1 -1 -1 -1 -1 -1 -1 -1 -1 -1 -1 -1 -1 -1 -1 -1 -1
 MicOpt= -1 -1 -1 -1 -1 -1 -1 -1 -1
 NAtoms=     29 NQM=       29 NQMF=       0 NMMI=      0 NMMIF=      0
                NMic=       0 NMicF=      0.
                    Isotopes and Nuclear Properties:
 (Nuclear quadrupole moments (NQMom) in fm**2, nuclear magnetic moments (NMagM)
  in nuclear magnetons)

  Atom         1           2           3           4           5           6           7           8           9          10
 IAtWgt=          16          12          12          12          12          12          12          12          12          12
 AtmWgt=  15.9949146  12.0000000  12.0000000  12.0000000  12.0000000  12.0000000  12.0000000  12.0000000  12.0000000  12.0000000
 NucSpn=           0           0           0           0           0           0           0           0           0           0
 AtZEff=  -0.0000000  -0.0000000  -0.0000000  -0.0000000  -0.0000000  -0.0000000  -0.0000000  -0.0000000  -0.0000000  -0.0000000
 NQMom=    0.0000000   0.0000000   0.0000000   0.0000000   0.0000000   0.0000000   0.0000000   0.0000000   0.0000000   0.0000000
 NMagM=    0.0000000   0.0000000   0.0000000   0.0000000   0.0000000   0.0000000   0.0000000   0.0000000   0.0000000   0.0000000
 AtZNuc=   8.0000000   6.0000000   6.0000000   6.0000000   6.0000000   6.0000000   6.0000000   6.0000000   6.0000000   6.0000000

  Atom        11          12          13          14          15          16          17          18          19          20
 IAtWgt=          12           1           1           1           1           1           1           1           1           1
 AtmWgt=  12.0000000   1.0078250   1.0078250   1.0078250   1.0078250   1.0078250   1.0078250   1.0078250   1.0078250   1.0078250
 NucSpn=           0           1           1           1           1           1           1           1           1           1
 AtZEff=  -0.0000000  -0.0000000  -0.0000000  -0.0000000  -0.0000000  -0.0000000  -0.0000000  -0.0000000  -0.0000000  -0.0000000
 NQMom=    0.0000000   0.0000000   0.0000000   0.0000000   0.0000000   0.0000000   0.0000000   0.0000000   0.0000000   0.0000000
 NMagM=    0.0000000   2.7928460   2.7928460   2.7928460   2.7928460   2.7928460   2.7928460   2.7928460   2.7928460   2.7928460
 AtZNuc=   6.0000000   1.0000000   1.0000000   1.0000000   1.0000000   1.0000000   1.0000000   1.0000000   1.0000000   1.0000000

  Atom        21          22          23          24          25          26          27          28          29
 IAtWgt=           1           1           1           1           1           1           1           1           1
 AtmWgt=   1.0078250   1.0078250   1.0078250   1.0078250   1.0078250   1.0078250   1.0078250   1.0078250   1.0078250
 NucSpn=           1           1           1           1           1           1           1           1           1
 AtZEff=  -0.0000000  -0.0000000  -0.0000000  -0.0000000  -0.0000000  -0.0000000  -0.0000000  -0.0000000  -0.0000000
 NQMom=    0.0000000   0.0000000   0.0000000   0.0000000   0.0000000   0.0000000   0.0000000   0.0000000   0.0000000
 NMagM=    2.7928460   2.7928460   2.7928460   2.7928460   2.7928460   2.7928460   2.7928460   2.7928460   2.7928460
 AtZNuc=   1.0000000   1.0000000   1.0000000   1.0000000   1.0000000   1.0000000   1.0000000   1.0000000   1.0000000
 Leave Link  101 at Sat May  4 10:34:27 2024, MaxMem= 13421772800 cpu:              11.6 elap:               0.4
 (Enter /tmpu/scunam/7/gaussian-2016.03/g1/g16/l103.exe)

 GradGradGradGradGradGradGradGradGradGradGradGradGradGradGradGradGradGrad
 Berny optimization.
 Initialization pass.
                           ----------------------------
                           !    Initial Parameters    !
                           ! (Angstroms and Degrees)  !
 --------------------------                            --------------------------
 ! Name  Definition              Value          Derivative Info.                !
 --------------------------------------------------------------------------------
 ! R1    R(1,2)                  1.4384         estimate D2E/DX2                !
 ! R2    R(1,21)                 0.9727         estimate D2E/DX2                !
 ! R3    R(2,3)                  1.548          estimate D2E/DX2                !
 ! R4    R(2,5)                  1.5336         estimate D2E/DX2                !
 ! R5    R(2,6)                  1.5149         estimate D2E/DX2                !
 ! R6    R(3,4)                  1.5326         estimate D2E/DX2                !
 ! R7    R(3,12)                 1.0996         estimate D2E/DX2                !
 ! R8    R(3,13)                 1.0996         estimate D2E/DX2                !
 ! R9    R(4,7)                  1.5039         estimate D2E/DX2                !
 ! R10   R(4,14)                 1.0945         estimate D2E/DX2                !
 ! R11   R(4,15)                 1.0962         estimate D2E/DX2                !
 ! R12   R(5,16)                 1.0965         estimate D2E/DX2                !
 ! R13   R(5,17)                 1.0968         estimate D2E/DX2                !
 ! R14   R(5,18)                 1.0944         estimate D2E/DX2                !
 ! R15   R(6,11)                 1.3387         estimate D2E/DX2                !
 ! R16   R(6,19)                 1.0894         estimate D2E/DX2                !
 ! R17   R(7,8)                  1.3466         estimate D2E/DX2                !
 ! R18   R(7,20)                 1.0891         estimate D2E/DX2                !
 ! R19   R(8,9)                  1.5025         estimate D2E/DX2                !
 ! R20   R(8,10)                 1.5051         estimate D2E/DX2                !
 ! R21   R(9,22)                 1.0946         estimate D2E/DX2                !
 ! R22   R(9,23)                 1.0946         estimate D2E/DX2                !
 ! R23   R(9,24)                 1.095          estimate D2E/DX2                !
 ! R24   R(10,25)                1.0952         estimate D2E/DX2                !
 ! R25   R(10,26)                1.0919         estimate D2E/DX2                !
 ! R26   R(10,27)                1.0959         estimate D2E/DX2                !
 ! R27   R(11,28)                1.085          estimate D2E/DX2                !
 ! R28   R(11,29)                1.0832         estimate D2E/DX2                !
 ! A1    A(2,1,21)             108.2961         estimate D2E/DX2                !
 ! A2    A(1,2,3)              106.8826         estimate D2E/DX2                !
 ! A3    A(1,2,5)              105.5211         estimate D2E/DX2                !
 ! A4    A(1,2,6)              106.9086         estimate D2E/DX2                !
 ! A5    A(3,2,5)              111.1198         estimate D2E/DX2                !
 ! A6    A(3,2,6)              110.9393         estimate D2E/DX2                !
 ! A7    A(5,2,6)              114.9154         estimate D2E/DX2                !
 ! A8    A(2,3,4)              115.109          estimate D2E/DX2                !
 ! A9    A(2,3,12)             109.0676         estimate D2E/DX2                !
 ! A10   A(2,3,13)             108.6679         estimate D2E/DX2                !
 ! A11   A(4,3,12)             109.4137         estimate D2E/DX2                !
 ! A12   A(4,3,13)             109.5701         estimate D2E/DX2                !
 ! A13   A(12,3,13)            104.4751         estimate D2E/DX2                !
 ! A14   A(3,4,7)              110.9888         estimate D2E/DX2                !
 ! A15   A(3,4,14)             111.4394         estimate D2E/DX2                !
 ! A16   A(3,4,15)             110.1786         estimate D2E/DX2                !
 ! A17   A(7,4,14)             111.2257         estimate D2E/DX2                !
 ! A18   A(7,4,15)             107.2771         estimate D2E/DX2                !
 ! A19   A(14,4,15)            105.5057         estimate D2E/DX2                !
 ! A20   A(2,5,16)             110.6268         estimate D2E/DX2                !
 ! A21   A(2,5,17)             111.0186         estimate D2E/DX2                !
 ! A22   A(2,5,18)             112.6237         estimate D2E/DX2                !
 ! A23   A(16,5,17)            105.8573         estimate D2E/DX2                !
 ! A24   A(16,5,18)            108.1417         estimate D2E/DX2                !
 ! A25   A(17,5,18)            108.2938         estimate D2E/DX2                !
 ! A26   A(2,6,11)             127.5022         estimate D2E/DX2                !
 ! A27   A(2,6,19)             115.7172         estimate D2E/DX2                !
 ! A28   A(11,6,19)            116.7764         estimate D2E/DX2                !
 ! A29   A(4,7,8)              127.5326         estimate D2E/DX2                !
 ! A30   A(4,7,20)             114.7833         estimate D2E/DX2                !
 ! A31   A(8,7,20)             117.6818         estimate D2E/DX2                !
 ! A32   A(7,8,9)              124.9914         estimate D2E/DX2                !
 ! A33   A(7,8,10)             120.5062         estimate D2E/DX2                !
 ! A34   A(9,8,10)             114.4993         estimate D2E/DX2                !
 ! A35   A(8,9,22)             110.4669         estimate D2E/DX2                !
 ! A36   A(8,9,23)             110.3697         estimate D2E/DX2                !
 ! A37   A(8,9,24)             111.5966         estimate D2E/DX2                !
 ! A38   A(22,9,23)            108.7104         estimate D2E/DX2                !
 ! A39   A(22,9,24)            107.7961         estimate D2E/DX2                !
 ! A40   A(23,9,24)            107.7941         estimate D2E/DX2                !
 ! A41   A(8,10,25)            109.8885         estimate D2E/DX2                !
 ! A42   A(8,10,26)            114.7012         estimate D2E/DX2                !
 ! A43   A(8,10,27)            109.7853         estimate D2E/DX2                !
 ! A44   A(25,10,26)           107.8399         estimate D2E/DX2                !
 ! A45   A(25,10,27)           108.0453         estimate D2E/DX2                !
 ! A46   A(26,10,27)           106.3324         estimate D2E/DX2                !
 ! A47   A(6,11,28)            120.0424         estimate D2E/DX2                !
 ! A48   A(6,11,29)            122.5716         estimate D2E/DX2                !
 ! A49   A(28,11,29)           117.386          estimate D2E/DX2                !
 ! D1    D(21,1,2,3)            58.8522         estimate D2E/DX2                !
 ! D2    D(21,1,2,5)           177.2171         estimate D2E/DX2                !
 ! D3    D(21,1,2,6)           -60.0036         estimate D2E/DX2                !
 ! D4    D(1,2,3,4)           -179.5052         estimate D2E/DX2                !
 ! D5    D(1,2,3,12)           -56.1133         estimate D2E/DX2                !
 ! D6    D(1,2,3,13)            57.211          estimate D2E/DX2                !
 ! D7    D(5,2,3,4)             65.8488         estimate D2E/DX2                !
 ! D8    D(5,2,3,12)          -170.7593         estimate D2E/DX2                !
 ! D9    D(5,2,3,13)           -57.435          estimate D2E/DX2                !
 ! D10   D(6,2,3,4)            -63.3012         estimate D2E/DX2                !
 ! D11   D(6,2,3,12)            60.0907         estimate D2E/DX2                !
 ! D12   D(6,2,3,13)           173.415          estimate D2E/DX2                !
 ! D13   D(1,2,5,16)           -61.8255         estimate D2E/DX2                !
 ! D14   D(1,2,5,17)            55.3939         estimate D2E/DX2                !
 ! D15   D(1,2,5,18)           177.0234         estimate D2E/DX2                !
 ! D16   D(3,2,5,16)            53.6663         estimate D2E/DX2                !
 ! D17   D(3,2,5,17)           170.8857         estimate D2E/DX2                !
 ! D18   D(3,2,5,18)           -67.4849         estimate D2E/DX2                !
 ! D19   D(6,2,5,16)          -179.3311         estimate D2E/DX2                !
 ! D20   D(6,2,5,17)           -62.1116         estimate D2E/DX2                !
 ! D21   D(6,2,5,18)            59.5178         estimate D2E/DX2                !
 ! D22   D(1,2,6,11)          -116.7067         estimate D2E/DX2                !
 ! D23   D(1,2,6,19)            62.5194         estimate D2E/DX2                !
 ! D24   D(3,2,6,11)           127.1054         estimate D2E/DX2                !
 ! D25   D(3,2,6,19)           -53.6685         estimate D2E/DX2                !
 ! D26   D(5,2,6,11)             0.0108         estimate D2E/DX2                !
 ! D27   D(5,2,6,19)           179.2369         estimate D2E/DX2                !
 ! D28   D(2,3,4,7)           -177.0406         estimate D2E/DX2                !
 ! D29   D(2,3,4,14)            58.4008         estimate D2E/DX2                !
 ! D30   D(2,3,4,15)           -58.3624         estimate D2E/DX2                !
 ! D31   D(12,3,4,7)            59.7514         estimate D2E/DX2                !
 ! D32   D(12,3,4,14)          -64.8072         estimate D2E/DX2                !
 ! D33   D(12,3,4,15)          178.4297         estimate D2E/DX2                !
 ! D34   D(13,3,4,7)           -54.2376         estimate D2E/DX2                !
 ! D35   D(13,3,4,14)         -178.7962         estimate D2E/DX2                !
 ! D36   D(13,3,4,15)           64.4407         estimate D2E/DX2                !
 ! D37   D(3,4,7,8)            -90.4739         estimate D2E/DX2                !
 ! D38   D(3,4,7,20)            88.9591         estimate D2E/DX2                !
 ! D39   D(14,4,7,8)            34.2057         estimate D2E/DX2                !
 ! D40   D(14,4,7,20)         -146.3613         estimate D2E/DX2                !
 ! D41   D(15,4,7,8)           149.1123         estimate D2E/DX2                !
 ! D42   D(15,4,7,20)          -31.4547         estimate D2E/DX2                !
 ! D43   D(2,6,11,28)          179.6316         estimate D2E/DX2                !
 ! D44   D(2,6,11,29)           -0.4289         estimate D2E/DX2                !
 ! D45   D(19,6,11,28)           0.4126         estimate D2E/DX2                !
 ! D46   D(19,6,11,29)        -179.6479         estimate D2E/DX2                !
 ! D47   D(4,7,8,9)            179.9973         estimate D2E/DX2                !
 ! D48   D(4,7,8,10)             0.6808         estimate D2E/DX2                !
 ! D49   D(20,7,8,9)             0.5786         estimate D2E/DX2                !
 ! D50   D(20,7,8,10)         -178.7378         estimate D2E/DX2                !
 ! D51   D(7,8,9,22)          -118.8882         estimate D2E/DX2                !
 ! D52   D(7,8,9,23)           120.859          estimate D2E/DX2                !
 ! D53   D(7,8,9,24)             1.0193         estimate D2E/DX2                !
 ! D54   D(10,8,9,22)           60.4646         estimate D2E/DX2                !
 ! D55   D(10,8,9,23)          -59.7882         estimate D2E/DX2                !
 ! D56   D(10,8,9,24)         -179.6279         estimate D2E/DX2                !
 ! D57   D(7,8,10,25)         -112.6048         estimate D2E/DX2                !
 ! D58   D(7,8,10,26)            9.064          estimate D2E/DX2                !
 ! D59   D(7,8,10,27)          128.6953         estimate D2E/DX2                !
 ! D60   D(9,8,10,25)           68.0106         estimate D2E/DX2                !
 ! D61   D(9,8,10,26)         -170.3207         estimate D2E/DX2                !
 ! D62   D(9,8,10,27)          -50.6893         estimate D2E/DX2                !
 --------------------------------------------------------------------------------
 Trust Radius=3.00D-01 FncErr=1.00D-07 GrdErr=1.00D-06 EigMax=2.50D+02 EigMin=1.00D-04
 Number of steps in this run=    174 maximum allowed number of steps=    174.
 GradGradGradGradGradGradGradGradGradGradGradGradGradGradGradGradGradGrad

 Leave Link  103 at Sat May  4 10:34:28 2024, MaxMem= 13421772800 cpu:               1.4 elap:               0.1
 (Enter /tmpu/scunam/7/gaussian-2016.03/g1/g16/l202.exe)
                          Input orientation:                          
 ---------------------------------------------------------------------
 Center     Atomic      Atomic             Coordinates (Angstroms)
 Number     Number       Type             X           Y           Z
 ---------------------------------------------------------------------
      1          8           0        2.507600   -0.977400   -1.400200
      2          6           0        1.883000   -0.412200   -0.234200
      3          6           0        0.368900   -0.715000   -0.343900
      4          6           0       -0.486600   -0.179700    0.809500
      5          6           0        2.507500   -1.142900    0.960800
      6          6           0        2.141100    1.080000   -0.275700
      7          6           0       -1.925400   -0.586100    0.646700
      8          6           0       -2.901600    0.089000    0.010700
      9          6           0       -4.325700   -0.372600   -0.117700
     10          6           0       -2.609800    1.406100   -0.656800
     11          6           0        2.841000    1.810700    0.600800
     12          1           0       -0.009400   -0.315000   -1.295800
     13          1           0        0.232800   -1.802800   -0.429400
     14          1           0       -0.390300    0.906000    0.908600
     15          1           0       -0.137400   -0.593100    1.762800
     16          1           0        2.287900   -2.216200    0.915000
     17          1           0        3.601000   -1.059800    0.945000
     18          1           0        2.147900   -0.762200    1.921800
     19          1           0        1.714200    1.610100   -1.126300
     20          1           0       -2.182700   -1.544400    1.095600
     21          1           0        2.106900   -0.571700   -2.188200
     22          1           0       -4.592200   -0.503200   -1.171300
     23          1           0       -5.005500    0.360400    0.328200
     24          1           0       -4.486400   -1.329800    0.389300
     25          1           0       -3.126600    2.214200   -0.128300
     26          1           0       -1.550500    1.665500   -0.710800
     27          1           0       -2.975600    1.387600   -1.689700
     28          1           0        2.954900    2.879000    0.448900
     29          1           0        3.310400    1.379100    1.476400
 ---------------------------------------------------------------------
                    Distance matrix (angstroms):
                    1          2          3          4          5
     1  O    0.000000
     2  C    1.438448   0.000000
     3  C    2.399721   1.547973   0.000000
     4  C    3.805829   2.599687   1.532566   0.000000
     5  C    2.366793   1.533606   2.541447   3.148854   0.000000
     6  C    2.373124   1.514925   2.523365   3.109551   2.569915
     7  C    4.898408   3.912817   2.502342   1.503932   4.478760
     8  C    5.690983   4.817009   3.386492   2.557832   5.628377
     9  C    6.978867   6.209919   4.712502   3.954188   6.960542
    10  C    5.693988   4.865188   3.670099   3.028659   5.941447
    11  C    3.447993   2.560522   3.658264   3.883062   2.994090
    12  H    2.604796   2.172008   1.099647   2.162941   3.480294
    13  H    2.607384   2.166802   1.099610   2.164916   2.746340
    14  H    4.156390   2.865578   2.184670   1.094458   3.549361
    15  H    4.141048   2.846533   2.170112   1.096185   2.817974
    16  H    2.634966   2.176929   2.742443   3.443300   1.096492
    17  H    2.588876   2.182068   3.496658   4.183469   1.096767
    18  H    3.348340   2.200229   2.881053   2.918408   1.094425
    19  H    2.720232   2.216762   2.797869   3.434272   3.544618
    20  H    5.343166   4.424948   3.044787   2.195681   4.709283
    21  H    0.972675   1.973243   2.538232   3.983229   3.225361
    22  H    7.119299   6.543291   5.034080   4.569920   7.440484
    23  H    7.824560   6.954469   5.521990   4.576441   7.687995
    24  H    7.227900   6.465292   4.948687   4.183025   7.019699
    25  H    6.599110   5.657321   4.565656   3.685082   6.648259
    26  H    4.891663   4.041399   3.079853   2.616860   5.210443
    27  H    5.978505   5.381798   4.173462   3.859735   6.594920
    28  H    4.300124   3.528115   4.498084   4.618398   4.078957
    29  H    3.804262   2.858737   4.043658   4.158344   2.696475
                    6          7          8          9         10
     6  C    0.000000
     7  C    4.490338   0.000000
     8  C    5.147128   1.346559   0.000000
     9  C    6.629820   2.528108   1.502538   0.000000
    10  C    4.777304   2.477171   1.505143   2.529568   0.000000
    11  C    1.338669   5.335291   6.024112   7.526263   5.608608
    12  H    2.758855   2.741871   3.199215   4.474560   3.183172
    13  H    3.460602   2.701144   3.687419   4.787750   4.292916
    14  H    2.800148   2.156730   2.789326   4.263271   2.761658
    15  H    3.485155   2.107765   3.343040   4.596385   3.995501
    16  H    3.507742   4.525606   5.750010   6.942985   6.291190
    17  H    2.863592   5.554680   6.669068   8.027088   6.871715
    18  H    2.867534   4.271846   5.465738   6.798444   5.829787
    19  H    1.089390   4.605813   4.991205   6.436518   4.354196
    20  H    5.240533   1.089061   2.088497   2.727208   3.458146
    21  H    2.527239   4.929129   5.509697   6.760544   5.338927
    22  H    6.974665   3.228594   2.146148   1.094601   2.800008
    23  H    7.208080   3.237950   2.144961   1.094643   2.793402
    24  H    7.083298   2.679191   2.160538   1.095037   3.478664
    25  H    5.390436   3.144072   2.141593   2.851226   1.095180
    26  H    3.762982   2.655760   2.198041   3.493902   1.091934
    27  H    5.317390   3.233756   2.140841   2.718871   1.095917
    28  H    2.103263   5.988603   6.501901   7.993815   5.861561
    29  H    2.127576   5.653673   6.511649   7.994975   6.292856
                   11         12         13         14         15
    11  C    0.000000
    12  H    4.029947   0.000000
    13  H    4.573992   1.738637   0.000000
    14  H    3.369647   2.548589   3.084817   0.000000
    15  H    3.999921   3.073883   2.531040   1.743822   0.000000
    16  H    4.076833   3.712113   2.490331   4.113506   3.038963
    17  H    2.989288   4.314035   3.712923   4.449289   3.855158
    18  H    2.974095   3.899600   3.206025   3.201863   2.297057
    19  H    2.071906   2.589505   3.785248   3.010896   4.077918
    20  H    6.061277   3.457376   2.868281   3.041731   2.352314
    21  H    3.740756   2.311060   2.849778   4.243793   4.543979
    22  H    7.984168   4.588352   5.051732   4.895691   5.335004
    23  H    7.984062   5.296655   5.717795   4.683440   5.163878
    24  H    7.974852   4.890083   4.812987   4.695371   4.619852
    25  H    6.025500   4.180532   5.245238   3.205290   4.515807
    26  H    4.585483   2.576741   3.910045   2.131985   3.635495
    27  H    6.265640   3.442724   4.696897   3.696874   4.888590
    28  H    1.085040   4.693899   5.486391   3.910808   4.831576
    29  H    1.083185   4.645012   4.819563   3.773778   3.982326
                   16         17         18         19         20
    16  H    0.000000
    17  H    1.749969   0.000000
    18  H    1.774081   1.776008   0.000000
    19  H    4.374541   3.870228   3.886749   0.000000
    20  H    4.524400   5.805920   4.477560   5.483935   0.000000
    21  H    3.516673   3.505356   4.114617   2.458068   5.489094
    22  H    7.390723   8.480392   7.420465   6.651221   3.468231
    23  H    7.757376   8.744670   7.414238   6.987967   3.490754
    24  H    6.852241   8.110964   6.832618   7.027624   2.419080
    25  H    7.073452   7.558548   6.393920   4.979386   4.063982
    26  H    5.695975   6.058621   5.148055   3.291500   3.737140
    27  H    6.890303   7.495537   6.626826   4.728758   4.121069
    28  H    5.159768   4.022152   4.009865   2.372909   6.810259
    29  H    3.779796   2.512980   2.476884   3.061905   6.234261
                   21         22         23         24         25
    21  H    0.000000
    22  H    6.776188   0.000000
    23  H    7.601797   1.779079   0.000000
    24  H    7.119679   1.769162   1.769173   0.000000
    25  H    6.276460   3.258849   2.678662   3.831044   0.000000
    26  H    4.534793   3.763942   3.836643   4.336076   1.767617
    27  H    5.469841   2.541114   3.040979   3.740190   1.773144
    28  H    4.425012   8.427517   8.350203   8.549298   6.144897
    29  H    4.322421   8.544264   8.456377   8.325264   6.686361
                   26         27         28         29
    26  H    0.000000
    27  H    1.751109   0.000000
    28  H    4.807922   6.478326   0.000000
    29  H    5.337998   7.038328   1.852522   0.000000
 Stoichiometry    C10H18O
 Framework group  C1[X(C10H18O)]
 Deg. of freedom    81
 Full point group                 C1      NOp   1
 Largest Abelian subgroup         C1      NOp   1
 Largest concise Abelian subgroup C1      NOp   1
                         Standard orientation:                         
 ---------------------------------------------------------------------
 Center     Atomic      Atomic             Coordinates (Angstroms)
 Number     Number       Type             X           Y           Z
 ---------------------------------------------------------------------
      1          8           0       -2.509527   -0.826422    1.495762
      2          6           0       -1.896636   -0.365691    0.278707
      3          6           0       -0.384652   -0.678143    0.390510
      4          6           0        0.458942   -0.249173   -0.814932
      5          6           0       -2.548213   -1.182698   -0.843743
      6          6           0       -2.136590    1.128175    0.202632
      7          6           0        1.895257   -0.659600   -0.640695
      8          6           0        2.889093    0.052149   -0.075960
      9          6           0        4.309528   -0.415890    0.068692
     10          6           0        2.623168    1.422671    0.486544
     11          6           0       -2.841493    1.794423   -0.720005
     12          1           0        0.013111   -0.207240    1.301147
     13          1           0       -0.259964   -1.757104    0.562087
     14          1           0        0.373809    0.826078   -1.000473
     15          1           0        0.090095   -0.733921   -1.726300
     16          1           0       -2.340490   -2.251504   -0.714128
     17          1           0       -3.640287   -1.084468   -0.818773
     18          1           0       -2.199229   -0.885807   -1.837640
     19          1           0       -1.690296    1.719902    1.001037
     20          1           0        2.134296   -1.654371   -1.013985
     21          1           0       -2.091860   -0.363410    2.242268
     22          1           0        4.590895   -0.464110    1.125413
     23          1           0        4.990811    0.269719   -0.445155
     24          1           0        4.451092   -1.413024   -0.361177
     25          1           0        3.141070    2.178539   -0.113340
     26          1           0        1.567946    1.699260    0.534764
     27          1           0        3.004804    1.483212    1.512080
     28          1           0       -2.940508    2.872902   -0.653732
     29          1           0       -3.329517    1.299387   -1.550704
 ---------------------------------------------------------------------
 Rotational constants (GHZ):           1.9823849           0.4749974           0.4468310
 Leave Link  202 at Sat May  4 10:34:28 2024, MaxMem= 13421772800 cpu:               0.3 elap:               0.0
 (Enter /tmpu/scunam/7/gaussian-2016.03/g1/g16/l301.exe)
 Standard basis: def2TZVP (5D, 7F)
 Ernie: Thresh=  0.10000D-02 Tol=  0.10000D-05 Strict=F.
 There are   504 symmetry adapted cartesian basis functions of A   symmetry.
 There are   449 symmetry adapted basis functions of A   symmetry.
   449 basis functions,   705 primitive gaussians,   504 cartesian basis functions
    43 alpha electrons       43 beta electrons
       nuclear repulsion energy       621.6101117350 Hartrees.
 IExCor=  402 DFT=T Ex+Corr=B3LYP ExCW=0 ScaHFX=  0.200000
 ScaDFX=  0.800000  0.720000  1.000000  0.810000 ScalE2=  1.000000  1.000000
 IRadAn=      5 IRanWt=     -1 IRanGd=            0 ICorTp=0 IEmpDi=  4
 NAtoms=   29 NActive=   29 NUniq=   29 SFac= 1.00D+00 NAtFMM=   60 NAOKFM=F Big=F
 Integral buffers will be    131072 words long.
 Raffenetti 2 integral format.
 Two-electron integral symmetry is turned on.
 Leave Link  301 at Sat May  4 10:34:28 2024, MaxMem= 13421772800 cpu:               3.2 elap:               0.1
 (Enter /tmpu/scunam/7/gaussian-2016.03/g1/g16/l302.exe)
 NPDir=0 NMtPBC=     1 NCelOv=     1 NCel=       1 NClECP=     1 NCelD=      1
         NCelK=      1 NCelE2=     1 NClLst=     1 CellRange=     0.0.
 One-electron integrals computed using PRISM.
 One-electron integral symmetry used in STVInt
   1 Symmetry operations used in ECPInt.
 ECPInt:  NShTT=   18721 NPrTT=   54252 LenC2=   17495 LenP2D=   38808.
 LDataN:  DoStor=T MaxTD1= 6 Len=  172
 NBasis=   449 RedAO= T EigKep=  5.95D-05  NBF=   449
 NBsUse=   449 1.00D-06 EigRej= -1.00D+00 NBFU=   449
 Precomputing XC quadrature grid using
 IXCGrd= 4 IRadAn=           5 IRanWt=          -1 IRanGd=           0 AccXCQ= 0.00D+00.
 Generated NRdTot=       0 NPtTot=           0 NUsed=           0 NTot=          32
 NSgBfM=   501   501   501   501   501 MxSgAt=    29 MxSgA2=    29.
 Leave Link  302 at Sat May  4 10:34:29 2024, MaxMem= 13421772800 cpu:              15.9 elap:               0.5
 (Enter /tmpu/scunam/7/gaussian-2016.03/g1/g16/l303.exe)
 DipDrv:  MaxL=1.
 Leave Link  303 at Sat May  4 10:34:30 2024, MaxMem= 13421772800 cpu:               2.1 elap:               0.1
 (Enter /tmpu/scunam/7/gaussian-2016.03/g1/g16/l401.exe)
 ExpMin= 9.52D-02 ExpMax= 2.70D+04 ExpMxC= 9.22D+02 IAcc=3 IRadAn=         5 AccDes= 0.00D+00
 Harris functional with IExCor=  402 and IRadAn=       5 diagonalized for initial guess.
 HarFok:  IExCor=  402 AccDes= 0.00D+00 IRadAn=         5 IDoV= 1 UseB2=F ITyADJ=14
 ICtDFT=  3500011 ScaDFX=  1.000000  1.000000  1.000000  1.000000
 FoFCou: FMM=F IPFlag=           0 FMFlag=      100000 FMFlg1=           0
         NFxFlg=           0 DoJE=T BraDBF=F KetDBF=T FulRan=T
         wScrn=  0.000000 ICntrl=       500 IOpCl=  0 I1Cent=   200000004 NGrid=           0
         NMat0=    1 NMatS0=      1 NMatT0=    0 NMatD0=    1 NMtDS0=    0 NMtDT0=    0
 Petite list used in FoFCou.
 Harris En= -467.396543986085    
 JPrj=0 DoOrth=F DoCkMO=F.
 Leave Link  401 at Sat May  4 10:34:32 2024, MaxMem= 13421772800 cpu:              52.1 elap:               1.7
 (Enter /tmpu/scunam/7/gaussian-2016.03/g1/g16/l502.exe)
 Integral symmetry usage will be decided dynamically.
 Closed shell SCF:
 Using DIIS extrapolation, IDIIS=  1040.
 NGot= 13421772800 LenX= 13421243903 LenY= 13420989383
 Requested convergence on RMS density matrix=1.00D-08 within 128 cycles.
 Requested convergence on MAX density matrix=1.00D-06.
 Requested convergence on             energy=1.00D-06.
 No special actions if energy rises.
 Fock matrices will be formed incrementally for  20 cycles.
 Integral accuracy reduced to 1.0D-05 until final iterations.

 Cycle   1  Pass 0  IDiag  1:
 FoFJK:  IHMeth= 1 ICntrl=       0 DoSepK=F KAlg= 0 I1Cent=           0 FoldK=F
 IRaf= 890000000 NMat=       1 IRICut=       1 DoRegI=T DoRafI=F ISym2E= 0 IDoP0=0 IntGTp=1.
 FoFCou: FMM=F IPFlag=           0 FMFlag=      100000 FMFlg1=           0
         NFxFlg=           0 DoJE=F BraDBF=F KetDBF=F FulRan=T
         wScrn=  0.000000 ICntrl=         0 IOpCl=  0 I1Cent=           0 NGrid=           0
         NMat0=    1 NMatS0=      1 NMatT0=    0 NMatD0=    1 NMtDS0=    0 NMtDT0=    0
 Symmetry not used in FoFCou.
 E= -466.817406474928    
 DIIS: error= 3.18D-02 at cycle   1 NSaved=   1.
 NSaved= 1 IEnMin= 1 EnMin= -466.817406474928     IErMin= 1 ErrMin= 3.18D-02
 ErrMax= 3.18D-02  0.00D+00 EMaxC= 1.00D-01 BMatC= 4.71D-01 BMatP= 4.71D-01
 IDIUse=3 WtCom= 6.82D-01 WtEn= 3.18D-01
 Coeff-Com:  0.100D+01
 Coeff-En:   0.100D+01
 Coeff:      0.100D+01
 Gap=     0.217 Goal=   None    Shift=    0.000
 GapD=    0.217 DampG=1.000 DampE=0.500 DampFc=0.5000 IDamp=-1.
 Damping current iteration by 5.00D-01
 RMSDP=3.99D-03 MaxDP=2.12D-01              OVMax= 1.89D-01

 Cycle   2  Pass 0  IDiag  1:
 RMSU=  1.99D-03    CP:  9.71D-01
 E= -467.008484690533     Delta-E=       -0.191078215604 Rises=F Damp=T
 DIIS: error= 4.13D-03 at cycle   2 NSaved=   2.
 NSaved= 2 IEnMin= 2 EnMin= -467.008484690533     IErMin= 2 ErrMin= 4.13D-03
 ErrMax= 4.13D-03  0.00D+00 EMaxC= 1.00D-01 BMatC= 2.27D-02 BMatP= 4.71D-01
 IDIUse=3 WtCom= 9.59D-01 WtEn= 4.13D-02
 Coeff-Com:  0.826D-01 0.917D+00
 Coeff-En:   0.164D+00 0.836D+00
 Coeff:      0.860D-01 0.914D+00
 Gap=     0.265 Goal=   None    Shift=    0.000
 RMSDP=1.24D-03 MaxDP=9.28D-02 DE=-1.91D-01 OVMax= 1.18D-01

 Cycle   3  Pass 0  IDiag  1:
 RMSU=  7.22D-04    CP:  9.70D-01  4.94D-01
 E= -467.263027000413     Delta-E=       -0.254542309880 Rises=F Damp=F
 DIIS: error= 2.99D-03 at cycle   3 NSaved=   3.
 NSaved= 3 IEnMin= 3 EnMin= -467.263027000413     IErMin= 3 ErrMin= 2.99D-03
 ErrMax= 2.99D-03  0.00D+00 EMaxC= 1.00D-01 BMatC= 8.57D-03 BMatP= 2.27D-02
 IDIUse=3 WtCom= 9.70D-01 WtEn= 2.99D-02
 Coeff-Com: -0.828D-02 0.349D+00 0.659D+00
 Coeff-En:   0.000D+00 0.000D+00 0.100D+01
 Coeff:     -0.803D-02 0.338D+00 0.670D+00
 Gap=     0.226 Goal=   None    Shift=    0.000
 RMSDP=3.14D-04 MaxDP=1.46D-02 DE=-2.55D-01 OVMax= 3.06D-02

 Cycle   4  Pass 0  IDiag  1:
 RMSU=  2.41D-04    CP:  9.71D-01  5.85D-01  8.75D-01
 E= -467.266969535796     Delta-E=       -0.003942535383 Rises=F Damp=F
 DIIS: error= 1.67D-03 at cycle   4 NSaved=   4.
 NSaved= 4 IEnMin= 4 EnMin= -467.266969535796     IErMin= 4 ErrMin= 1.67D-03
 ErrMax= 1.67D-03  0.00D+00 EMaxC= 1.00D-01 BMatC= 3.33D-03 BMatP= 8.57D-03
 IDIUse=3 WtCom= 9.83D-01 WtEn= 1.67D-02
 Coeff-Com: -0.156D-01 0.900D-01 0.407D+00 0.519D+00
 Coeff-En:   0.000D+00 0.000D+00 0.284D+00 0.716D+00
 Coeff:     -0.154D-01 0.885D-01 0.405D+00 0.522D+00
 Gap=     0.227 Goal=   None    Shift=    0.000
 RMSDP=1.44D-04 MaxDP=6.54D-03 DE=-3.94D-03 OVMax= 1.63D-02

 Cycle   5  Pass 0  IDiag  1:
 RMSU=  8.68D-05    CP:  9.69D-01  5.63D-01  9.09D-01  5.71D-01
 E= -467.269431992754     Delta-E=       -0.002462456958 Rises=F Damp=F
 DIIS: error= 2.62D-04 at cycle   5 NSaved=   5.
 NSaved= 5 IEnMin= 5 EnMin= -467.269431992754     IErMin= 5 ErrMin= 2.62D-04
 ErrMax= 2.62D-04  0.00D+00 EMaxC= 1.00D-01 BMatC= 1.10D-04 BMatP= 3.33D-03
 IDIUse=3 WtCom= 9.97D-01 WtEn= 2.62D-03
 Coeff-Com: -0.591D-02 0.162D-01 0.130D+00 0.236D+00 0.624D+00
 Coeff-En:   0.000D+00 0.000D+00 0.000D+00 0.000D+00 0.100D+01
 Coeff:     -0.589D-02 0.162D-01 0.130D+00 0.235D+00 0.625D+00
 Gap=     0.228 Goal=   None    Shift=    0.000
 RMSDP=3.48D-05 MaxDP=1.85D-03 DE=-2.46D-03 OVMax= 4.32D-03

 Cycle   6  Pass 0  IDiag  1:
 RMSU=  1.77D-05    CP:  9.70D-01  5.63D-01  9.16D-01  6.11D-01  6.79D-01
 E= -467.269519891925     Delta-E=       -0.000087899171 Rises=F Damp=F
 DIIS: error= 1.42D-04 at cycle   6 NSaved=   6.
 NSaved= 6 IEnMin= 6 EnMin= -467.269519891925     IErMin= 6 ErrMin= 1.42D-04
 ErrMax= 1.42D-04  0.00D+00 EMaxC= 1.00D-01 BMatC= 1.37D-05 BMatP= 1.10D-04
 IDIUse=3 WtCom= 9.99D-01 WtEn= 1.42D-03
 Coeff-Com: -0.212D-02 0.294D-02 0.463D-01 0.973D-01 0.346D+00 0.509D+00
 Coeff-En:   0.000D+00 0.000D+00 0.000D+00 0.000D+00 0.302D-01 0.970D+00
 Coeff:     -0.212D-02 0.293D-02 0.462D-01 0.972D-01 0.346D+00 0.510D+00
 Gap=     0.227 Goal=   None    Shift=    0.000
 RMSDP=7.64D-06 MaxDP=4.45D-04 DE=-8.79D-05 OVMax= 1.72D-03

 Initial convergence to 1.0D-05 achieved.  Increase integral accuracy.
 Cycle   7  Pass 1  IDiag  1:
 E= -467.269539140914     Delta-E=       -0.000019248989 Rises=F Damp=F
 DIIS: error= 1.87D-04 at cycle   1 NSaved=   1.
 NSaved= 1 IEnMin= 1 EnMin= -467.269539140914     IErMin= 1 ErrMin= 1.87D-04
 ErrMax= 1.87D-04  0.00D+00 EMaxC= 1.00D-01 BMatC= 8.25D-06 BMatP= 8.25D-06
 IDIUse=3 WtCom= 9.98D-01 WtEn= 1.87D-03
 Coeff-Com:  0.100D+01
 Coeff-En:   0.100D+01
 Coeff:      0.100D+01
 Gap=     0.228 Goal=   None    Shift=    0.000
 RMSDP=7.64D-06 MaxDP=4.45D-04 DE=-1.92D-05 OVMax= 1.20D-03

 Cycle   8  Pass 1  IDiag  1:
 RMSU=  1.46D-04    CP:  1.00D+00
 E= -467.269541190855     Delta-E=       -0.000002049940 Rises=F Damp=F
 DIIS: error= 9.29D-05 at cycle   2 NSaved=   2.
 NSaved= 2 IEnMin= 2 EnMin= -467.269541190855     IErMin= 2 ErrMin= 9.29D-05
 ErrMax= 9.29D-05  0.00D+00 EMaxC= 1.00D-01 BMatC= 3.27D-06 BMatP= 8.25D-06
 IDIUse=1 WtCom= 1.00D+00 WtEn= 0.00D+00
 Coeff-Com:  0.332D+00 0.668D+00
 Coeff:      0.332D+00 0.668D+00
 Gap=     0.227 Goal=   None    Shift=    0.000
 RMSDP=6.24D-06 MaxDP=3.93D-04 DE=-2.05D-06 OVMax= 1.57D-03

 Cycle   9  Pass 1  IDiag  1:
 RMSU=  6.13D-06    CP:  1.00D+00  1.01D+00
 E= -467.269541237199     Delta-E=       -0.000000046344 Rises=F Damp=F
 DIIS: error= 9.13D-05 at cycle   3 NSaved=   3.
 NSaved= 3 IEnMin= 3 EnMin= -467.269541237199     IErMin= 3 ErrMin= 9.13D-05
 ErrMax= 9.13D-05  0.00D+00 EMaxC= 1.00D-01 BMatC= 3.18D-06 BMatP= 3.27D-06
 IDIUse=1 WtCom= 1.00D+00 WtEn= 0.00D+00
 Coeff-Com: -0.309D-03 0.497D+00 0.504D+00
 Coeff:     -0.309D-03 0.497D+00 0.504D+00
 Gap=     0.227 Goal=   None    Shift=    0.000
 RMSDP=3.26D-06 MaxDP=1.99D-04 DE=-4.63D-08 OVMax= 8.14D-04

 Cycle  10  Pass 1  IDiag  1:
 RMSU=  9.07D-07    CP:  1.00D+00  1.01D+00  5.07D-01
 E= -467.269544383922     Delta-E=       -0.000003146723 Rises=F Damp=F
 DIIS: error= 3.29D-06 at cycle   4 NSaved=   4.
 NSaved= 4 IEnMin= 4 EnMin= -467.269544383922     IErMin= 4 ErrMin= 3.29D-06
 ErrMax= 3.29D-06  0.00D+00 EMaxC= 1.00D-01 BMatC= 9.52D-09 BMatP= 3.18D-06
 IDIUse=1 WtCom= 1.00D+00 WtEn= 0.00D+00
 Coeff-Com: -0.189D-02 0.247D+00 0.255D+00 0.500D+00
 Coeff:     -0.189D-02 0.247D+00 0.255D+00 0.500D+00
 Gap=     0.227 Goal=   None    Shift=    0.000
 RMSDP=3.24D-07 MaxDP=1.71D-05 DE=-3.15D-06 OVMax= 3.22D-05

 Cycle  11  Pass 1  IDiag  1:
 RMSU=  2.41D-07    CP:  1.00D+00  1.01D+00  5.13D-01  7.67D-01
 E= -467.269544392211     Delta-E=       -0.000000008290 Rises=F Damp=F
 DIIS: error= 9.76D-07 at cycle   5 NSaved=   5.
 NSaved= 5 IEnMin= 5 EnMin= -467.269544392211     IErMin= 5 ErrMin= 9.76D-07
 ErrMax= 9.76D-07  0.00D+00 EMaxC= 1.00D-01 BMatC= 1.01D-09 BMatP= 9.52D-09
 IDIUse=1 WtCom= 1.00D+00 WtEn= 0.00D+00
 Coeff-Com: -0.117D-02 0.124D+00 0.129D+00 0.307D+00 0.441D+00
 Coeff:     -0.117D-02 0.124D+00 0.129D+00 0.307D+00 0.441D+00
 Gap=     0.227 Goal=   None    Shift=    0.000
 RMSDP=7.41D-08 MaxDP=3.05D-06 DE=-8.29D-09 OVMax= 8.76D-06

 Cycle  12  Pass 1  IDiag  1:
 RMSU=  6.65D-08    CP:  1.00D+00  1.01D+00  5.13D-01  7.73D-01  8.75D-01
 E= -467.269544392977     Delta-E=       -0.000000000766 Rises=F Damp=F
 DIIS: error= 1.24D-07 at cycle   6 NSaved=   6.
 NSaved= 6 IEnMin= 6 EnMin= -467.269544392977     IErMin= 6 ErrMin= 1.24D-07
 ErrMax= 1.24D-07  0.00D+00 EMaxC= 1.00D-01 BMatC= 1.18D-11 BMatP= 1.01D-09
 IDIUse=1 WtCom= 1.00D+00 WtEn= 0.00D+00
 Coeff-Com: -0.426D-03 0.435D-01 0.451D-01 0.112D+00 0.183D+00 0.616D+00
 Coeff:     -0.426D-03 0.435D-01 0.451D-01 0.112D+00 0.183D+00 0.616D+00
 Gap=     0.227 Goal=   None    Shift=    0.000
 RMSDP=1.15D-08 MaxDP=4.60D-07 DE=-7.66D-10 OVMax= 1.91D-06

 Cycle  13  Pass 1  IDiag  1:
 RMSU=  9.55D-09    CP:  1.00D+00  1.01D+00  5.13D-01  7.77D-01  8.88D-01
                    CP:  1.01D+00
 E= -467.269544392990     Delta-E=       -0.000000000013 Rises=F Damp=F
 DIIS: error= 6.45D-08 at cycle   7 NSaved=   7.
 NSaved= 7 IEnMin= 7 EnMin= -467.269544392990     IErMin= 7 ErrMin= 6.45D-08
 ErrMax= 6.45D-08  0.00D+00 EMaxC= 1.00D-01 BMatC= 3.45D-12 BMatP= 1.18D-11
 IDIUse=1 WtCom= 1.00D+00 WtEn= 0.00D+00
 Coeff-Com: -0.490D-04 0.433D-02 0.450D-02 0.135D-01 0.315D-01 0.364D+00
 Coeff-Com:  0.583D+00
 Coeff:     -0.490D-04 0.433D-02 0.450D-02 0.135D-01 0.315D-01 0.364D+00
 Coeff:      0.583D+00
 Gap=     0.227 Goal=   None    Shift=    0.000
 RMSDP=4.94D-09 MaxDP=2.54D-07 DE=-1.32D-11 OVMax= 1.02D-06

 SCF Done:  E(RB3LYP) =  -467.269544393     A.U. after   13 cycles
            NFock= 13  Conv=0.49D-08     -V/T= 2.0057
 KE= 4.646275836982D+02 PE=-2.328395409126D+03 EE= 7.748881692997D+02
 Leave Link  502 at Sat May  4 10:35:28 2024, MaxMem= 13421772800 cpu:            1778.3 elap:              55.7
 (Enter /tmpu/scunam/7/gaussian-2016.03/g1/g16/l508.exe)
 QCSCF skips out because SCF is already converged.
 Leave Link  508 at Sat May  4 10:35:28 2024, MaxMem= 13421772800 cpu:               0.1 elap:               0.0
 (Enter /tmpu/scunam/7/gaussian-2016.03/g1/g16/l601.exe)
 Copying SCF densities to generalized density rwf, IOpCl= 0 IROHF=0.

 **********************************************************************

            Population analysis using the SCF density.

 **********************************************************************

 Orbital symmetries:
       Occupied  (A) (A) (A) (A) (A) (A) (A) (A) (A) (A) (A) (A)
                 (A) (A) (A) (A) (A) (A) (A) (A) (A) (A) (A) (A)
                 (A) (A) (A) (A) (A) (A) (A) (A) (A) (A) (A) (A)
                 (A) (A) (A) (A) (A) (A) (A)
       Virtual   (A) (A) (A) (A) (A) (A) (A) (A) (A) (A) (A) (A)
                 (A) (A) (A) (A) (A) (A) (A) (A) (A) (A) (A) (A)
                 (A) (A) (A) (A) (A) (A) (A) (A) (A) (A) (A) (A)
                 (A) (A) (A) (A) (A) (A) (A) (A) (A) (A) (A) (A)
                 (A) (A) (A) (A) (A) (A) (A) (A) (A) (A) (A) (A)
                 (A) (A) (A) (A) (A) (A) (A) (A) (A) (A) (A) (A)
                 (A) (A) (A) (A) (A) (A) (A) (A) (A) (A) (A) (A)
                 (A) (A) (A) (A) (A) (A) (A) (A) (A) (A) (A) (A)
                 (A) (A) (A) (A) (A) (A) (A) (A) (A) (A) (A) (A)
                 (A) (A) (A) (A) (A) (A) (A) (A) (A) (A) (A) (A)
                 (A) (A) (A) (A) (A) (A) (A) (A) (A) (A) (A) (A)
                 (A) (A) (A) (A) (A) (A) (A) (A) (A) (A) (A) (A)
                 (A) (A) (A) (A) (A) (A) (A) (A) (A) (A) (A) (A)
                 (A) (A) (A) (A) (A) (A) (A) (A) (A) (A) (A) (A)
                 (A) (A) (A) (A) (A) (A) (A) (A) (A) (A) (A) (A)
                 (A) (A) (A) (A) (A) (A) (A) (A) (A) (A) (A) (A)
                 (A) (A) (A) (A) (A) (A) (A) (A) (A) (A) (A) (A)
                 (A) (A) (A) (A) (A) (A) (A) (A) (A) (A) (A) (A)
                 (A) (A) (A) (A) (A) (A) (A) (A) (A) (A) (A) (A)
                 (A) (A) (A) (A) (A) (A) (A) (A) (A) (A) (A) (A)
                 (A) (A) (A) (A) (A) (A) (A) (A) (A) (A) (A) (A)
                 (A) (A) (A) (A) (A) (A) (A) (A) (A) (A) (A) (A)
                 (A) (A) (A) (A) (A) (A) (A) (A) (A) (A) (A) (A)
                 (A) (A) (A) (A) (A) (A) (A) (A) (A) (A) (A) (A)
                 (A) (A) (A) (A) (A) (A) (A) (A) (A) (A) (A) (A)
                 (A) (A) (A) (A) (A) (A) (A) (A) (A) (A) (A) (A)
                 (A) (A) (A) (A) (A) (A) (A) (A) (A) (A) (A) (A)
                 (A) (A) (A) (A) (A) (A) (A) (A) (A) (A) (A) (A)
                 (A) (A) (A) (A) (A) (A) (A) (A) (A) (A) (A) (A)
                 (A) (A) (A) (A) (A) (A) (A) (A) (A) (A) (A) (A)
                 (A) (A) (A) (A) (A) (A) (A) (A) (A) (A) (A) (A)
                 (A) (A) (A) (A) (A) (A) (A) (A) (A) (A) (A) (A)
                 (A) (A) (A) (A) (A) (A) (A) (A) (A) (A) (A) (A)
                 (A) (A) (A) (A) (A) (A) (A) (A) (A) (A)
 The electronic state is 1-A.
 Alpha  occ. eigenvalues --  -19.12324 -10.23605 -10.18004 -10.17687 -10.17151
 Alpha  occ. eigenvalues --  -10.17107 -10.16985 -10.16649 -10.16453 -10.16273
 Alpha  occ. eigenvalues --  -10.16092  -1.02228  -0.82356  -0.80231  -0.76411
 Alpha  occ. eigenvalues --   -0.72815  -0.69388  -0.68356  -0.63367  -0.60260
 Alpha  occ. eigenvalues --   -0.55635  -0.51830  -0.50088  -0.48183  -0.47228
 Alpha  occ. eigenvalues --   -0.45296  -0.43857  -0.43205  -0.41359  -0.40677
 Alpha  occ. eigenvalues --   -0.39236  -0.38924  -0.38566  -0.37580  -0.36907
 Alpha  occ. eigenvalues --   -0.36351  -0.35798  -0.34836  -0.32830  -0.32493
 Alpha  occ. eigenvalues --   -0.28288  -0.26679  -0.23558
 Alpha virt. eigenvalues --   -0.00811   0.01192   0.02422   0.03975   0.04696
 Alpha virt. eigenvalues --    0.06102   0.07234   0.07682   0.08336   0.09792
 Alpha virt. eigenvalues --    0.10195   0.10676   0.11194   0.11498   0.12106
 Alpha virt. eigenvalues --    0.12447   0.13436   0.14214   0.14259   0.14800
 Alpha virt. eigenvalues --    0.16219   0.16660   0.17222   0.17665   0.19059
 Alpha virt. eigenvalues --    0.19382   0.19966   0.21253   0.21962   0.22834
 Alpha virt. eigenvalues --    0.23705   0.24330   0.24623   0.26127   0.26993
 Alpha virt. eigenvalues --    0.28106   0.28784   0.30050   0.30776   0.31881
 Alpha virt. eigenvalues --    0.33011   0.33310   0.34465   0.34751   0.35428
 Alpha virt. eigenvalues --    0.35837   0.36485   0.37517   0.38302   0.39026
 Alpha virt. eigenvalues --    0.39106   0.40340   0.40779   0.41472   0.41946
 Alpha virt. eigenvalues --    0.43158   0.44198   0.44335   0.44699   0.45173
 Alpha virt. eigenvalues --    0.45776   0.46258   0.46497   0.46848   0.47143
 Alpha virt. eigenvalues --    0.48057   0.48179   0.48241   0.49506   0.49897
 Alpha virt. eigenvalues --    0.50704   0.51403   0.53099   0.53388   0.54266
 Alpha virt. eigenvalues --    0.55622   0.56854   0.57616   0.58958   0.59060
 Alpha virt. eigenvalues --    0.61557   0.61769   0.62889   0.63426   0.64416
 Alpha virt. eigenvalues --    0.65266   0.66653   0.67417   0.69291   0.70746
 Alpha virt. eigenvalues --    0.71646   0.71902   0.75327   0.76557   0.78564
 Alpha virt. eigenvalues --    0.80258   0.81884   0.82817   0.83849   0.84546
 Alpha virt. eigenvalues --    0.86702   0.88069   0.89348   0.90531   0.93002
 Alpha virt. eigenvalues --    0.94942   0.96438   0.96720   0.97862   0.98717
 Alpha virt. eigenvalues --    1.00640   1.00838   1.02244   1.04062   1.04846
 Alpha virt. eigenvalues --    1.06388   1.07167   1.08298   1.09233   1.10843
 Alpha virt. eigenvalues --    1.11480   1.14882   1.15842   1.16630   1.17724
 Alpha virt. eigenvalues --    1.18664   1.19234   1.21763   1.22696   1.24923
 Alpha virt. eigenvalues --    1.26611   1.27235   1.27456   1.29012   1.30627
 Alpha virt. eigenvalues --    1.34049   1.36203   1.38895   1.39737   1.40907
 Alpha virt. eigenvalues --    1.43155   1.44827   1.46548   1.47692   1.49680
 Alpha virt. eigenvalues --    1.50482   1.51761   1.51851   1.52845   1.53635
 Alpha virt. eigenvalues --    1.54446   1.55988   1.56473   1.56745   1.57721
 Alpha virt. eigenvalues --    1.58735   1.59108   1.60086   1.60716   1.60867
 Alpha virt. eigenvalues --    1.62660   1.63299   1.63737   1.65787   1.65876
 Alpha virt. eigenvalues --    1.68129   1.69629   1.70802   1.72293   1.72792
 Alpha virt. eigenvalues --    1.73282   1.75210   1.78427   1.79707   1.81729
 Alpha virt. eigenvalues --    1.82394   1.83732   1.86941   1.88133   1.90597
 Alpha virt. eigenvalues --    1.91615   1.92710   1.93738   1.94257   1.94946
 Alpha virt. eigenvalues --    1.96482   1.97313   1.99300   2.01002   2.01920
 Alpha virt. eigenvalues --    2.03049   2.04503   2.07174   2.08158   2.08507
 Alpha virt. eigenvalues --    2.11366   2.12298   2.13555   2.17235   2.17570
 Alpha virt. eigenvalues --    2.18566   2.21661   2.22623   2.23685   2.25408
 Alpha virt. eigenvalues --    2.26751   2.27838   2.29607   2.29813   2.30350
 Alpha virt. eigenvalues --    2.32125   2.32861   2.35155   2.36110   2.37983
 Alpha virt. eigenvalues --    2.38857   2.38880   2.40840   2.42170   2.43606
 Alpha virt. eigenvalues --    2.44751   2.45284   2.47150   2.47400   2.49223
 Alpha virt. eigenvalues --    2.50653   2.51859   2.52335   2.53611   2.54647
 Alpha virt. eigenvalues --    2.55265   2.55906   2.57160   2.58175   2.58923
 Alpha virt. eigenvalues --    2.59594   2.60864   2.61099   2.63202   2.64429
 Alpha virt. eigenvalues --    2.66432   2.66927   2.67851   2.69494   2.71843
 Alpha virt. eigenvalues --    2.72198   2.72521   2.75164   2.76157   2.76182
 Alpha virt. eigenvalues --    2.78301   2.79916   2.80710   2.82141   2.82904
 Alpha virt. eigenvalues --    2.84415   2.86879   2.89919   2.90343   2.91487
 Alpha virt. eigenvalues --    2.93277   2.94273   2.95385   2.97243   2.99059
 Alpha virt. eigenvalues --    3.00606   3.01825   3.03337   3.04508   3.05463
 Alpha virt. eigenvalues --    3.06322   3.07670   3.08296   3.09668   3.10963
 Alpha virt. eigenvalues --    3.12523   3.13007   3.14271   3.15476   3.16608
 Alpha virt. eigenvalues --    3.17823   3.18538   3.19656   3.20030   3.20928
 Alpha virt. eigenvalues --    3.21995   3.22281   3.23745   3.25007   3.27352
 Alpha virt. eigenvalues --    3.28652   3.29204   3.31381   3.32695   3.33012
 Alpha virt. eigenvalues --    3.33434   3.34570   3.35583   3.36214   3.37706
 Alpha virt. eigenvalues --    3.39297   3.40200   3.41161   3.42050   3.43758
 Alpha virt. eigenvalues --    3.44678   3.47320   3.48271   3.49392   3.49712
 Alpha virt. eigenvalues --    3.50468   3.51998   3.54077   3.54816   3.58481
 Alpha virt. eigenvalues --    3.59537   3.61181   3.62194   3.64725   3.66192
 Alpha virt. eigenvalues --    3.67595   3.67965   3.69971   3.72614   3.74296
 Alpha virt. eigenvalues --    3.77514   3.78693   3.79691   3.83172   3.85383
 Alpha virt. eigenvalues --    3.86211   3.90484   3.91991   3.93670   3.97256
 Alpha virt. eigenvalues --    3.98068   3.99229   4.00109   4.01976   4.03616
 Alpha virt. eigenvalues --    4.04341   4.07124   4.07645   4.07884   4.10298
 Alpha virt. eigenvalues --    4.10802   4.13948   4.15771   4.20187   4.22004
 Alpha virt. eigenvalues --    4.25739   4.26997   4.32593   4.33316   4.36710
 Alpha virt. eigenvalues --    4.39809   4.41039   4.42557   4.44223   4.45837
 Alpha virt. eigenvalues --    4.47476   4.49926   4.53046   4.54625   4.57990
 Alpha virt. eigenvalues --    4.58616   4.63007   4.64445   4.65264   4.68427
 Alpha virt. eigenvalues --    4.76475   4.78765   4.81237   4.84505   4.89111
 Alpha virt. eigenvalues --    4.92563   4.93834   4.98388   5.02038   5.11852
 Alpha virt. eigenvalues --    5.17548   5.25394   5.33098   5.37323   5.42050
 Alpha virt. eigenvalues --    5.53866   5.76153   5.79439   5.92535   6.28050
 Alpha virt. eigenvalues --    6.48884   6.74523   6.86579   7.00740   7.18824
 Alpha virt. eigenvalues --   22.19661  22.26866  22.37424  22.39298  22.42994
 Alpha virt. eigenvalues --   22.48472  22.58603  22.67398  22.70489  23.01329
 Alpha virt. eigenvalues --   44.08650
          Condensed to atoms (all electrons):
               1          2          3          4          5          6
     1  O    8.029580   0.256753  -0.056498   0.013718  -0.063968  -0.049307
     2  C    0.256753   4.904902   0.310424  -0.047899   0.224257   0.279149
     3  C   -0.056498   0.310424   5.222343   0.180365  -0.044031  -0.001990
     4  C    0.013718  -0.047899   0.180365   5.116774   0.001329  -0.014559
     5  C   -0.063968   0.224257  -0.044031   0.001329   5.133677  -0.081102
     6  C   -0.049307   0.279149  -0.001990  -0.014559  -0.081102   5.238531
     7  C   -0.000257   0.006464  -0.058802   0.283386   0.000691  -0.000214
     8  C   -0.000187   0.001730   0.010401  -0.047686  -0.000113   0.000838
     9  C   -0.000003   0.000047   0.000632   0.011528  -0.000005   0.000030
    10  C   -0.000016  -0.001060  -0.003251  -0.006196   0.000029  -0.000890
    11  C    0.012195  -0.044273   0.003639  -0.010073   0.003154   0.530236
    12  H   -0.001240  -0.025489   0.392282  -0.042409   0.012445  -0.025146
    13  H    0.010264  -0.051002   0.416634  -0.028536  -0.014043   0.012353
    14  H    0.000010   0.001755  -0.052840   0.435909  -0.000327   0.000672
    15  H    0.000144  -0.003081  -0.048067   0.410034   0.002225  -0.004341
    16  H    0.003229  -0.040918  -0.001799  -0.000263   0.403091   0.008054
    17  H    0.004277  -0.043955   0.008915  -0.000826   0.404306   0.004717
    18  H    0.004321  -0.039740  -0.011700   0.002867   0.410040   0.006598
    19  H   -0.001922  -0.045268  -0.004230  -0.000602   0.008949   0.379655
    20  H    0.000017  -0.000305  -0.003238  -0.039492   0.000100  -0.000075
    21  H    0.281351  -0.028318  -0.011827   0.000423   0.016148  -0.015999
    22  H    0.000000  -0.000007   0.000423  -0.000416   0.000001  -0.000001
    23  H   -0.000000  -0.000000  -0.000168  -0.001018  -0.000000  -0.000000
    24  H    0.000000   0.000007   0.000026   0.001130   0.000000  -0.000001
    25  H   -0.000000   0.000084  -0.000496  -0.001874  -0.000003   0.000005
    26  H    0.000013  -0.001446  -0.000731   0.000698   0.000011   0.002311
    27  H    0.000002  -0.000120   0.001718  -0.001116   0.000002   0.000019
    28  H   -0.000459   0.009758  -0.000639   0.000280  -0.001043  -0.037500
    29  H    0.000181  -0.013591   0.000422  -0.000695   0.005023  -0.042456
               7          8          9         10         11         12
     1  O   -0.000257  -0.000187  -0.000003  -0.000016   0.012195  -0.001240
     2  C    0.006464   0.001730   0.000047  -0.001060  -0.044273  -0.025489
     3  C   -0.058802   0.010401   0.000632  -0.003251   0.003639   0.392282
     4  C    0.283386  -0.047686   0.011528  -0.006196  -0.010073  -0.042409
     5  C    0.000691  -0.000113  -0.000005   0.000029   0.003154   0.012445
     6  C   -0.000214   0.000838   0.000030  -0.000890   0.530236  -0.025146
     7  C    5.076148   0.654640  -0.048807  -0.062568  -0.000405   0.001288
     8  C    0.654640   5.089687   0.299397   0.271226   0.000329  -0.001291
     9  C   -0.048807   0.299397   4.929250  -0.069860   0.000003  -0.000226
    10  C   -0.062568   0.271226  -0.069860   4.979243  -0.000195  -0.000303
    11  C   -0.000405   0.000329   0.000003  -0.000195   4.959174   0.001559
    12  H    0.001288  -0.001291  -0.000226  -0.000303   0.001559   0.604588
    13  H   -0.003158   0.002137  -0.000228   0.000040  -0.001248  -0.025553
    14  H   -0.052458  -0.000501  -0.000650  -0.003795   0.001455  -0.000541
    15  H   -0.030287   0.001211  -0.000492   0.000884   0.000911   0.007014
    16  H   -0.000245   0.000005  -0.000001   0.000000  -0.000723   0.000161
    17  H    0.000017   0.000007   0.000000   0.000001  -0.000338  -0.000524
    18  H    0.000483  -0.000043   0.000001  -0.000007  -0.005625  -0.000481
    19  H   -0.000327  -0.000005   0.000001  -0.000044  -0.023979   0.005117
    20  H    0.394186  -0.038938  -0.017393   0.011667  -0.000010   0.000479
    21  H    0.000045  -0.000010  -0.000001   0.000003   0.002720   0.011020
    22  H   -0.004776  -0.045604   0.410263  -0.005503  -0.000000  -0.000012
    23  H   -0.002226  -0.045099   0.399128   0.001668  -0.000000   0.000024
    24  H    0.000542  -0.056239   0.414584   0.008212  -0.000000  -0.000022
    25  H    0.002222  -0.048503  -0.001140   0.400485   0.000001   0.000301
    26  H   -0.004152  -0.053430   0.006090   0.430236   0.000599   0.000318
    27  H   -0.000328  -0.048420   0.000819   0.401808  -0.000002  -0.000670
    28  H    0.000012  -0.000006  -0.000000   0.000004   0.407427  -0.000048
    29  H   -0.000028   0.000004   0.000000  -0.000004   0.416089   0.000004
              13         14         15         16         17         18
     1  O    0.010264   0.000010   0.000144   0.003229   0.004277   0.004321
     2  C   -0.051002   0.001755  -0.003081  -0.040918  -0.043955  -0.039740
     3  C    0.416634  -0.052840  -0.048067  -0.001799   0.008915  -0.011700
     4  C   -0.028536   0.435909   0.410034  -0.000263  -0.000826   0.002867
     5  C   -0.014043  -0.000327   0.002225   0.403091   0.404306   0.410040
     6  C    0.012353   0.000672  -0.004341   0.008054   0.004717   0.006598
     7  C   -0.003158  -0.052458  -0.030287  -0.000245   0.000017   0.000483
     8  C    0.002137  -0.000501   0.001211   0.000005   0.000007  -0.000043
     9  C   -0.000228  -0.000650  -0.000492  -0.000001   0.000000   0.000001
    10  C    0.000040  -0.003795   0.000884   0.000000   0.000001  -0.000007
    11  C   -0.001248   0.001455   0.000911  -0.000723  -0.000338  -0.005625
    12  H   -0.025553  -0.000541   0.007014   0.000161  -0.000524  -0.000481
    13  H    0.563949   0.005736  -0.002469   0.003986  -0.000216   0.001755
    14  H    0.005736   0.552266  -0.020018   0.000087  -0.000055   0.000413
    15  H   -0.002469  -0.020018   0.593552   0.000582   0.000063  -0.002577
    16  H    0.003986   0.000087   0.000582   0.552020  -0.021877  -0.023942
    17  H   -0.000216  -0.000055   0.000063  -0.021877   0.546386  -0.026608
    18  H    0.001755   0.000413  -0.002577  -0.023942  -0.026608   0.566521
    19  H   -0.000567  -0.000696   0.000240  -0.000273  -0.000297  -0.000179
    20  H    0.002159   0.005104  -0.005584   0.000049  -0.000004   0.000031
    21  H   -0.002263  -0.000005   0.000122  -0.000302  -0.000591  -0.000879
    22  H   -0.000027  -0.000065  -0.000010   0.000000  -0.000000  -0.000000
    23  H    0.000011   0.000121   0.000062  -0.000000   0.000000   0.000000
    24  H    0.000018   0.000042  -0.000084   0.000000  -0.000000  -0.000000
    25  H    0.000009   0.001140   0.000143  -0.000000   0.000000   0.000001
    26  H    0.000059  -0.001856   0.000358  -0.000002  -0.000000   0.000004
    27  H   -0.000033  -0.000028  -0.000101   0.000000  -0.000000   0.000000
    28  H    0.000031   0.000085  -0.000012   0.000023   0.000013   0.000097
    29  H   -0.000024  -0.000066  -0.000034   0.000013  -0.000630  -0.000859
              19         20         21         22         23         24
     1  O   -0.001922   0.000017   0.281351   0.000000  -0.000000   0.000000
     2  C   -0.045268  -0.000305  -0.028318  -0.000007  -0.000000   0.000007
     3  C   -0.004230  -0.003238  -0.011827   0.000423  -0.000168   0.000026
     4  C   -0.000602  -0.039492   0.000423  -0.000416  -0.001018   0.001130
     5  C    0.008949   0.000100   0.016148   0.000001  -0.000000   0.000000
     6  C    0.379655  -0.000075  -0.015999  -0.000001  -0.000000  -0.000001
     7  C   -0.000327   0.394186   0.000045  -0.004776  -0.002226   0.000542
     8  C   -0.000005  -0.038938  -0.000010  -0.045604  -0.045099  -0.056239
     9  C    0.000001  -0.017393  -0.000001   0.410263   0.399128   0.414584
    10  C   -0.000044   0.011667   0.000003  -0.005503   0.001668   0.008212
    11  C   -0.023979  -0.000010   0.002720  -0.000000  -0.000000  -0.000000
    12  H    0.005117   0.000479   0.011020  -0.000012   0.000024  -0.000022
    13  H   -0.000567   0.002159  -0.002263  -0.000027   0.000011   0.000018
    14  H   -0.000696   0.005104  -0.000005  -0.000065   0.000121   0.000042
    15  H    0.000240  -0.005584   0.000122  -0.000010   0.000062  -0.000084
    16  H   -0.000273   0.000049  -0.000302   0.000000  -0.000000   0.000000
    17  H   -0.000297  -0.000004  -0.000591  -0.000000   0.000000  -0.000000
    18  H   -0.000179   0.000031  -0.000879  -0.000000   0.000000  -0.000000
    19  H    0.586052  -0.000009   0.004541   0.000001  -0.000000  -0.000000
    20  H   -0.000009   0.593616  -0.000002   0.000087   0.000505   0.005137
    21  H    0.004541  -0.000002   0.456612   0.000000   0.000000   0.000000
    22  H    0.000001   0.000087   0.000000   0.595389  -0.040049  -0.024423
    23  H   -0.000000   0.000505   0.000000  -0.040049   0.598562  -0.024524
    24  H   -0.000000   0.005137   0.000000  -0.024423  -0.024524   0.568355
    25  H   -0.000028  -0.000442   0.000000  -0.001292   0.005795  -0.000306
    26  H    0.000655   0.000110  -0.000024   0.000014  -0.000079  -0.000360
    27  H    0.000043  -0.000427   0.000000   0.006184  -0.002138   0.000056
    28  H   -0.011737   0.000000  -0.000040   0.000000   0.000000  -0.000000
    29  H    0.007110  -0.000001   0.000028   0.000000  -0.000000  -0.000000
              25         26         27         28         29
     1  O   -0.000000   0.000013   0.000002  -0.000459   0.000181
     2  C    0.000084  -0.001446  -0.000120   0.009758  -0.013591
     3  C   -0.000496  -0.000731   0.001718  -0.000639   0.000422
     4  C   -0.001874   0.000698  -0.001116   0.000280  -0.000695
     5  C   -0.000003   0.000011   0.000002  -0.001043   0.005023
     6  C    0.000005   0.002311   0.000019  -0.037500  -0.042456
     7  C    0.002222  -0.004152  -0.000328   0.000012  -0.000028
     8  C   -0.048503  -0.053430  -0.048420  -0.000006   0.000004
     9  C   -0.001140   0.006090   0.000819  -0.000000   0.000000
    10  C    0.400485   0.430236   0.401808   0.000004  -0.000004
    11  C    0.000001   0.000599  -0.000002   0.407427   0.416089
    12  H    0.000301   0.000318  -0.000670  -0.000048   0.000004
    13  H    0.000009   0.000059  -0.000033   0.000031  -0.000024
    14  H    0.001140  -0.001856  -0.000028   0.000085  -0.000066
    15  H    0.000143   0.000358  -0.000101  -0.000012  -0.000034
    16  H   -0.000000  -0.000002   0.000000   0.000023   0.000013
    17  H    0.000000  -0.000000  -0.000000   0.000013  -0.000630
    18  H    0.000001   0.000004   0.000000   0.000097  -0.000859
    19  H   -0.000028   0.000655   0.000043  -0.011737   0.007110
    20  H   -0.000442   0.000110  -0.000427   0.000000  -0.000001
    21  H    0.000000  -0.000024   0.000000  -0.000040   0.000028
    22  H   -0.001292   0.000014   0.006184   0.000000   0.000000
    23  H    0.005795  -0.000079  -0.002138   0.000000  -0.000000
    24  H   -0.000306  -0.000360   0.000056  -0.000000  -0.000000
    25  H    0.588929  -0.025070  -0.033941   0.000000  -0.000000
    26  H   -0.025070   0.562154  -0.027091  -0.000016   0.000006
    27  H   -0.033941  -0.027091   0.595997   0.000000   0.000000
    28  H    0.000000  -0.000016   0.000000   0.554152  -0.032701
    29  H   -0.000000   0.000006   0.000000  -0.032701   0.545588
 Mulliken charges:
               1
     1  O   -0.442196
     2  C    0.391142
     3  C   -0.247919
     4  C   -0.214783
     5  C   -0.420842
     6  C   -0.189588
     7  C   -0.151084
     8  C    0.054463
     9  C   -0.332965
    10  C   -0.351814
    11  C   -0.252619
    12  H    0.087354
    13  H    0.110228
    14  H    0.129106
    15  H    0.099611
    16  H    0.119047
    17  H    0.127219
    18  H    0.119509
    19  H    0.097800
    20  H    0.092674
    21  H    0.287249
    22  H    0.109822
    23  H    0.109426
    24  H    0.107850
    25  H    0.113984
    26  H    0.110621
    27  H    0.107766
    28  H    0.112319
    29  H    0.116620
 Sum of Mulliken charges =  -0.00000
 Mulliken charges with hydrogens summed into heavy atoms:
               1
     1  O   -0.154947
     2  C    0.391142
     3  C   -0.050338
     4  C    0.013935
     5  C   -0.055067
     6  C   -0.091788
     7  C   -0.058410
     8  C    0.054463
     9  C   -0.005867
    10  C   -0.019443
    11  C   -0.023680
 Electronic spatial extent (au):  <R**2>=           2713.7773
 Charge=             -0.0000 electrons
 Dipole moment (field-independent basis, Debye):
    X=              1.3169    Y=              0.9889    Z=             -0.0668  Tot=              1.6483
 Quadrupole moment (field-independent basis, Debye-Ang):
   XX=            -75.9852   YY=            -70.7547   ZZ=            -69.1111
   XY=             -2.4350   XZ=              4.3241   YZ=              3.0058
 Traceless Quadrupole moment (field-independent basis, Debye-Ang):
   XX=             -4.0349   YY=              1.1957   ZZ=              2.8393
   XY=             -2.4350   XZ=              4.3241   YZ=              3.0058
 Octapole moment (field-independent basis, Debye-Ang**2):
  XXX=             21.9050  YYY=             -0.9190  ZZZ=             18.4601  XYY=             -1.9040
  XXY=              7.5403  XXZ=            -12.3975  XZZ=             -7.5101  YZZ=              1.3933
  YYZ=             -2.4494  XYZ=             -4.3429
 Hexadecapole moment (field-independent basis, Debye-Ang**3):
 XXXX=          -2902.0655 YYYY=           -552.1775 ZZZZ=           -318.5003 XXXY=              3.1743
 XXXZ=             47.9327 YYYX=            -10.7306 YYYZ=             -0.5158 ZZZX=            -20.0085
 ZZZY=              0.0074 XXYY=           -567.9689 XXZZ=           -533.8540 YYZZ=           -160.9213
 XXYZ=              6.2885 YYXZ=             -1.8792 ZZXY=             -5.7461
 N-N= 6.216101117350D+02 E-N=-2.328395414282D+03  KE= 4.646275836982D+02
 No NMR shielding tensors so no spin-rotation constants.
 Leave Link  601 at Sat May  4 10:35:29 2024, MaxMem= 13421772800 cpu:               8.1 elap:               0.3
 (Enter /tmpu/scunam/7/gaussian-2016.03/g1/g16/l701.exe)
 ... and contract with generalized density number  0.
 Compute integral first derivatives.
   1 Symmetry operations used in ECPInt.
 ECPInt:  NShTT=   18721 NPrTT=   54252 LenC2=   17495 LenP2D=   38808.
 LDataN:  DoStor=T MaxTD1= 7 Len=  274
 Leave Link  701 at Sat May  4 10:35:30 2024, MaxMem= 13421772800 cpu:              11.8 elap:               0.4
 (Enter /tmpu/scunam/7/gaussian-2016.03/g1/g16/l702.exe)
 L702 exits ... SP integral derivatives will be done elsewhere.
 Leave Link  702 at Sat May  4 10:35:30 2024, MaxMem= 13421772800 cpu:               1.6 elap:               0.1
 (Enter /tmpu/scunam/7/gaussian-2016.03/g1/g16/l703.exe)
 Integral derivatives from FoFJK, PRISM(SPDF).
 Compute integral first derivatives, UseDBF=F ICtDFT=           0.
 Calling FoFJK, ICntrl=      2127 FMM=F ISym2X=0 I1Cent= 0 IOpClX= 0 NMat=1 NMatS=1 NMatT=0.
 FoFJK:  IHMeth= 1 ICntrl=    2127 DoSepK=F KAlg= 0 I1Cent=           0 FoldK=F
 IRaf=         0 NMat=       1 IRICut=       1 DoRegI=T DoRafI=F ISym2E= 0 IDoP0=0 IntGTp=1.
 FoFCou: FMM=F IPFlag=           0 FMFlag=      100000 FMFlg1=         800
         NFxFlg=           0 DoJE=F BraDBF=F KetDBF=F FulRan=T
         wScrn=  0.000000 ICntrl=      2127 IOpCl=  0 I1Cent=           0 NGrid=           0
         NMat0=    1 NMatS0=      1 NMatT0=    0 NMatD0=    1 NMtDS0=    0 NMtDT0=    0
 Symmetry not used in FoFCou.
 Leave Link  703 at Sat May  4 10:35:52 2024, MaxMem= 13421772800 cpu:             676.0 elap:              21.2
 (Enter /tmpu/scunam/7/gaussian-2016.03/g1/g16/l716.exe)
 Dipole        = 5.18123740D-01 3.89076541D-01-2.62815365D-02
 ***** Axes restored to original set *****
 -------------------------------------------------------------------
 Center     Atomic                   Forces (Hartrees/Bohr)
 Number     Number              X              Y              Z
 -------------------------------------------------------------------
      1        8           0.002171612   -0.001387937   -0.008672037
      2        6          -0.004366659   -0.003389160   -0.002312483
      3        6           0.001853277   -0.000061120    0.002025688
      4        6          -0.005658509   -0.000549040    0.002678100
      5        6           0.005866813   -0.001039408    0.000208780
      6        6           0.007193909    0.008300229    0.015078494
      7        6          -0.017665450   -0.000037547   -0.001215595
      8        6           0.019543655    0.000368079    0.002480808
      9        6           0.004586763   -0.007346680    0.005504595
     10        6          -0.001875796    0.002720367   -0.003521167
     11        6          -0.007466374   -0.006314809   -0.009019272
     12        1           0.001627866    0.002314973    0.002819044
     13        1           0.003241706    0.003427421    0.001994960
     14        1           0.000923439   -0.002165632   -0.002594024
     15        1           0.001414882    0.000302134   -0.002826780
     16        1          -0.002338577    0.004307108   -0.001886819
     17        1          -0.003955683    0.002665684   -0.000909049
     18        1           0.000346222   -0.000046002   -0.003987726
     19        1          -0.001385621   -0.003551369   -0.001032466
     20        1          -0.000749638    0.000337834   -0.000831831
     21        1           0.003464700   -0.003546290    0.006331950
     22        1          -0.001823044    0.001904338    0.000794223
     23        1          -0.001014754   -0.000006999   -0.002512529
     24        1           0.000421505    0.002124557   -0.000922032
     25        1          -0.000760613    0.001496471   -0.002811246
     26        1          -0.002320889   -0.002073700    0.002903678
     27        1          -0.002018181    0.002205346    0.001367759
     28        1           0.001415183   -0.001693189    0.001036249
     29        1          -0.000671745    0.000734339   -0.000169274
 -------------------------------------------------------------------
 Cartesian Forces:  Max     0.019543655 RMS     0.004594063
 Leave Link  716 at Sat May  4 10:35:52 2024, MaxMem= 13421772800 cpu:               1.9 elap:               0.1
 (Enter /tmpu/scunam/7/gaussian-2016.03/g1/g16/l103.exe)

 GradGradGradGradGradGradGradGradGradGradGradGradGradGradGradGradGradGrad
 Berny optimization.
 FormGI is forming the generalized inverse of G from B-inverse, IUseBI=4.
 Internal  Forces:  Max     0.014759965 RMS     0.003196520
 Search for a local minimum.
 Step number   1 out of a maximum of  174
 All quantities printed in internal units (Hartrees-Bohrs-Radians)
 RMS Force = .31965D-02 SwitMx=.10000D-02 MixMth= 1
 Mixed Optimization -- RFO/linear search
 Second derivative matrix not updated -- first step.
 ITU=  0
     Eigenvalues ---    0.00230   0.00321   0.00335   0.00569   0.00698
     Eigenvalues ---    0.00714   0.00732   0.01183   0.01300   0.01512
     Eigenvalues ---    0.01572   0.02796   0.02900   0.02900   0.03173
     Eigenvalues ---    0.04158   0.04204   0.04674   0.05247   0.05372
     Eigenvalues ---    0.05575   0.06701   0.06814   0.07206   0.07302
     Eigenvalues ---    0.07374   0.07420   0.08781   0.09270   0.12531
     Eigenvalues ---    0.12736   0.15999   0.16000   0.16000   0.16000
     Eigenvalues ---    0.16000   0.16000   0.16000   0.16000   0.16000
     Eigenvalues ---    0.16000   0.16000   0.16000   0.16000   0.16000
     Eigenvalues ---    0.16631   0.17599   0.21855   0.21881   0.22000
     Eigenvalues ---    0.22000   0.24998   0.24999   0.27824   0.29093
     Eigenvalues ---    0.29188   0.30861   0.31844   0.31968   0.32112
     Eigenvalues ---    0.33721   0.33725   0.34042   0.34073   0.34108
     Eigenvalues ---    0.34138   0.34221   0.34237   0.34282   0.34286
     Eigenvalues ---    0.34302   0.34306   0.34590   0.34883   0.34921
     Eigenvalues ---    0.35392   0.35612   0.39799   0.52834   0.55760
     Eigenvalues ---    0.57504
 RFO step:  Lambda=-6.14731662D-03 EMin= 2.30000000D-03
 Linear search not attempted -- first point.
 Iteration  1 RMS(Cart)=  0.07451667 RMS(Int)=  0.00135178
 Iteration  2 RMS(Cart)=  0.00234622 RMS(Int)=  0.00017994
 Iteration  3 RMS(Cart)=  0.00000222 RMS(Int)=  0.00017993
 Iteration  4 RMS(Cart)=  0.00000000 RMS(Int)=  0.00017993
 ITry= 1 IFail=0 DXMaxC= 2.58D-01 DCOld= 1.00D+10 DXMaxT= 3.00D-01 DXLimC= 3.00D+00 Rises=F
 Variable       Old X    -DE/DX   Delta X   Delta X   Delta X     New X
                                 (Linear)    (Quad)   (Total)
    R1        2.71827   0.00628   0.00000   0.01554   0.01554   2.73382
    R2        1.83809  -0.00804   0.00000  -0.01504  -0.01504   1.82305
    R3        2.92525  -0.00108   0.00000  -0.00379  -0.00379   2.92145
    R4        2.89810  -0.00796   0.00000  -0.02680  -0.02680   2.87130
    R5        2.86279  -0.00280   0.00000  -0.00890  -0.00890   2.85389
    R6        2.89613   0.00251   0.00000   0.00843   0.00843   2.90456
    R7        2.07803  -0.00216   0.00000  -0.00629  -0.00629   2.07175
    R8        2.07796  -0.00395   0.00000  -0.01149  -0.01149   2.06647
    R9        2.84202   0.00293   0.00000   0.00899   0.00899   2.85101
   R10        2.06823  -0.00230   0.00000  -0.00659  -0.00659   2.06163
   R11        2.07149  -0.00212   0.00000  -0.00611  -0.00611   2.06538
   R12        2.07207  -0.00367   0.00000  -0.01058  -0.01058   2.06149
   R13        2.07259  -0.00373   0.00000  -0.01076  -0.01076   2.06183
   R14        2.06816  -0.00363   0.00000  -0.01040  -0.01040   2.05777
   R15        2.52972  -0.01282   0.00000  -0.02206  -0.02206   2.50766
   R16        2.05865  -0.00038   0.00000  -0.00107  -0.00107   2.05758
   R17        2.54463  -0.01154   0.00000  -0.02047  -0.02047   2.52416
   R18        2.05803  -0.00046   0.00000  -0.00130  -0.00130   2.05672
   R19        2.83939  -0.00128   0.00000  -0.00391  -0.00391   2.83548
   R20        2.84431   0.00337   0.00000   0.01037   0.01037   2.85468
   R21        2.06850  -0.00055   0.00000  -0.00157  -0.00157   2.06693
   R22        2.06858  -0.00040   0.00000  -0.00114  -0.00114   2.06743
   R23        2.06932  -0.00235   0.00000  -0.00673  -0.00673   2.06259
   R24        2.06959   0.00011   0.00000   0.00030   0.00030   2.06990
   R25        2.06346  -0.00289   0.00000  -0.00820  -0.00820   2.05525
   R26        2.07098  -0.00065   0.00000  -0.00188  -0.00188   2.06911
   R27        2.05043  -0.00166   0.00000  -0.00462  -0.00462   2.04581
   R28        2.04692  -0.00072   0.00000  -0.00199  -0.00199   2.04494
    A1        1.89012   0.00056   0.00000   0.00335   0.00335   1.89348
    A2        1.86545   0.00192   0.00000   0.02970   0.02972   1.89517
    A3        1.84169  -0.00323   0.00000  -0.02140  -0.02141   1.82028
    A4        1.86591   0.00279   0.00000   0.02398   0.02371   1.88962
    A5        1.93941   0.00301   0.00000   0.00988   0.00972   1.94912
    A6        1.93626  -0.00218   0.00000  -0.01108  -0.01141   1.92485
    A7        2.00565  -0.00203   0.00000  -0.02629  -0.02627   1.97938
    A8        2.00903   0.00710   0.00000   0.02810   0.02822   2.03725
    A9        1.90359  -0.00265   0.00000  -0.01753  -0.01749   1.88610
   A10        1.89661  -0.00374   0.00000  -0.02213  -0.02222   1.87439
   A11        1.90963  -0.00264   0.00000  -0.01386  -0.01370   1.89593
   A12        1.91236  -0.00113   0.00000   0.00133   0.00148   1.91384
   A13        1.82343   0.00266   0.00000   0.02377   0.02364   1.84707
   A14        1.93712   0.00585   0.00000   0.02698   0.02709   1.96421
   A15        1.94498  -0.00296   0.00000  -0.02142  -0.02159   1.92339
   A16        1.92298  -0.00352   0.00000  -0.02408  -0.02437   1.89860
   A17        1.94125  -0.00129   0.00000  -0.00045  -0.00027   1.94098
   A18        1.87234  -0.00001   0.00000   0.01254   0.01274   1.88508
   A19        1.84142   0.00172   0.00000   0.00591   0.00550   1.84692
   A20        1.93080  -0.00377   0.00000  -0.02104  -0.02115   1.90965
   A21        1.93764  -0.00215   0.00000  -0.01079  -0.01085   1.92679
   A22        1.96565  -0.00137   0.00000  -0.01214  -0.01231   1.95334
   A23        1.84756   0.00394   0.00000   0.03146   0.03146   1.87902
   A24        1.88743   0.00231   0.00000   0.00983   0.00962   1.89705
   A25        1.89008   0.00156   0.00000   0.00628   0.00617   1.89626
   A26        2.22533   0.00053   0.00000   0.00234   0.00233   2.22766
   A27        2.01965  -0.00432   0.00000  -0.02561  -0.02562   1.99402
   A28        2.03813   0.00378   0.00000   0.02317   0.02315   2.06129
   A29        2.22586   0.00191   0.00000   0.00842   0.00842   2.23428
   A30        2.00335   0.00007   0.00000   0.00193   0.00192   2.00526
   A31        2.05394  -0.00198   0.00000  -0.01041  -0.01042   2.04352
   A32        2.18151  -0.01418   0.00000  -0.05526  -0.05534   2.12617
   A33        2.10323   0.01476   0.00000   0.05771   0.05761   2.16083
   A34        1.99839  -0.00058   0.00000  -0.00220  -0.00229   1.99610
   A35        1.92801   0.00135   0.00000   0.00617   0.00615   1.93416
   A36        1.92631   0.00138   0.00000   0.00597   0.00595   1.93227
   A37        1.94773  -0.00012   0.00000   0.00356   0.00351   1.95124
   A38        1.89735  -0.00300   0.00000  -0.02632  -0.02631   1.87104
   A39        1.88140   0.00020   0.00000   0.00563   0.00558   1.88698
   A40        1.88136   0.00005   0.00000   0.00402   0.00398   1.88535
   A41        1.91792   0.00345   0.00000   0.01753   0.01756   1.93548
   A42        2.00191  -0.00418   0.00000  -0.02281  -0.02272   1.97920
   A43        1.91611   0.00197   0.00000   0.01281   0.01284   1.92896
   A44        1.88216   0.00003   0.00000  -0.00120  -0.00112   1.88104
   A45        1.88575  -0.00361   0.00000  -0.02658  -0.02661   1.85913
   A46        1.85585   0.00216   0.00000   0.01894   0.01903   1.87488
   A47        2.09513   0.00183   0.00000   0.01102   0.01101   2.10615
   A48        2.13928  -0.00052   0.00000  -0.00312  -0.00313   2.13615
   A49        2.04877  -0.00131   0.00000  -0.00790  -0.00791   2.04086
    D1        1.02716  -0.00099   0.00000  -0.00128  -0.00083   1.02633
    D2        3.09302   0.00179   0.00000   0.01373   0.01369   3.10671
    D3       -1.04726  -0.00087   0.00000  -0.01598  -0.01640  -1.06366
    D4       -3.13296  -0.00128   0.00000  -0.02618  -0.02607   3.12416
    D5       -0.97936  -0.00173   0.00000  -0.03799  -0.03792  -1.01728
    D6        0.99852  -0.00192   0.00000  -0.03061  -0.03037   0.96815
    D7        1.14928  -0.00007   0.00000  -0.02257  -0.02272   1.12656
    D8       -2.98031  -0.00052   0.00000  -0.03438  -0.03457  -3.01488
    D9       -1.00243  -0.00070   0.00000  -0.02701  -0.02702  -1.02945
   D10       -1.10481   0.00200   0.00000   0.01371   0.01366  -1.09116
   D11        1.04878   0.00155   0.00000   0.00190   0.00180   1.05058
   D12        3.02666   0.00136   0.00000   0.00927   0.00936   3.03602
   D13       -1.07906  -0.00117   0.00000  -0.01443  -0.01418  -1.09324
   D14        0.96681   0.00001   0.00000   0.00467   0.00483   0.97164
   D15        3.08964  -0.00050   0.00000  -0.00364  -0.00348   3.08616
   D16        0.93665   0.00077   0.00000   0.01347   0.01350   0.95015
   D17        2.98252   0.00195   0.00000   0.03256   0.03252   3.01503
   D18       -1.17783   0.00144   0.00000   0.02426   0.02421  -1.15363
   D19       -3.12992  -0.00132   0.00000  -0.01515  -0.01526   3.13801
   D20       -1.08405  -0.00014   0.00000   0.00395   0.00375  -1.08030
   D21        1.03878  -0.00065   0.00000  -0.00435  -0.00455   1.03423
   D22       -2.03692   0.00186   0.00000   0.00663   0.00672  -2.03020
   D23        1.09117   0.00168   0.00000  -0.00275  -0.00257   1.08860
   D24        2.21841  -0.00089   0.00000  -0.03679  -0.03669   2.18172
   D25       -0.93669  -0.00107   0.00000  -0.04617  -0.04597  -0.98266
   D26        0.00019  -0.00145   0.00000  -0.01893  -0.01926  -0.01907
   D27        3.12827  -0.00163   0.00000  -0.02830  -0.02854   3.09973
   D28       -3.08994  -0.00030   0.00000  -0.01341  -0.01344  -3.10338
   D29        1.01929  -0.00076   0.00000  -0.01705  -0.01692   1.00236
   D30       -1.01862   0.00112   0.00000   0.00376   0.00349  -1.01512
   D31        1.04286   0.00013   0.00000   0.00028   0.00031   1.04317
   D32       -1.13110  -0.00033   0.00000  -0.00336  -0.00317  -1.13427
   D33        3.11418   0.00155   0.00000   0.01745   0.01724   3.13142
   D34       -0.94662  -0.00099   0.00000  -0.02123  -0.02114  -0.96777
   D35       -3.12058  -0.00145   0.00000  -0.02486  -0.02463   3.13797
   D36        1.12470   0.00043   0.00000  -0.00406  -0.00421   1.12049
   D37       -1.57907  -0.00067   0.00000  -0.04284  -0.04276  -1.62183
   D38        1.55263  -0.00084   0.00000  -0.05051  -0.05045   1.50218
   D39        0.59700  -0.00117   0.00000  -0.05113  -0.05107   0.54593
   D40       -2.55449  -0.00134   0.00000  -0.05879  -0.05875  -2.61324
   D41        2.60250   0.00020   0.00000  -0.03713  -0.03723   2.56527
   D42       -0.54899   0.00003   0.00000  -0.04479  -0.04492  -0.59391
   D43        3.13516  -0.00092   0.00000  -0.02783  -0.02789   3.10727
   D44       -0.00749  -0.00063   0.00000  -0.01942  -0.01948  -0.02697
   D45        0.00720  -0.00069   0.00000  -0.01804  -0.01797  -0.01077
   D46       -3.13545  -0.00039   0.00000  -0.00963  -0.00956   3.13818
   D47        3.14155  -0.00062   0.00000  -0.01377  -0.01375   3.12779
   D48        0.01188  -0.00112   0.00000  -0.04011  -0.04010  -0.02821
   D49        0.01010  -0.00045   0.00000  -0.00597  -0.00599   0.00411
   D50       -3.11956  -0.00096   0.00000  -0.03231  -0.03233   3.13129
   D51       -2.07499  -0.00127   0.00000  -0.02304  -0.02261  -2.09760
   D52        2.10939   0.00071   0.00000   0.00195   0.00241   2.11180
   D53        0.01779  -0.00020   0.00000  -0.00945  -0.00900   0.00879
   D54        1.05531  -0.00069   0.00000   0.00230   0.00183   1.05714
   D55       -1.04350   0.00128   0.00000   0.02728   0.02685  -1.01665
   D56       -3.13510   0.00038   0.00000   0.01589   0.01544  -3.11966
   D57       -1.96532  -0.00037   0.00000  -0.01138  -0.01090  -1.97623
   D58        0.15820  -0.00065   0.00000  -0.01573  -0.01529   0.14290
   D59        2.24616   0.00076   0.00000   0.00271   0.00310   2.24926
   D60        1.18701  -0.00072   0.00000  -0.03469  -0.03509   1.15192
   D61       -2.97266  -0.00100   0.00000  -0.03904  -0.03948  -3.01213
   D62       -0.88469   0.00042   0.00000  -0.02060  -0.02108  -0.90578
         Item               Value     Threshold  Converged?
 Maximum Force            0.014760     0.000450     NO 
 RMS     Force            0.003197     0.000300     NO 
 Maximum Displacement     0.258410     0.001800     NO 
 RMS     Displacement     0.074253     0.001200     NO 
 Predicted change in Energy=-3.260025D-03
 Lowest energy point so far.  Saving SCF results.
 GradGradGradGradGradGradGradGradGradGradGradGradGradGradGradGradGradGrad

 Leave Link  103 at Sat May  4 10:35:52 2024, MaxMem= 13421772800 cpu:               7.3 elap:               0.3
 (Enter /tmpu/scunam/7/gaussian-2016.03/g1/g16/l202.exe)
                          Input orientation:                          
 ---------------------------------------------------------------------
 Center     Atomic      Atomic             Coordinates (Angstroms)
 Number     Number       Type             X           Y           Z
 ---------------------------------------------------------------------
      1          8           0        2.584226   -1.056956   -1.366709
      2          6           0        1.915238   -0.444939   -0.239431
      3          6           0        0.400570   -0.734471   -0.348795
      4          6           0       -0.491206   -0.184953    0.776025
      5          6           0        2.529807   -1.121757    0.974190
      6          6           0        2.168828    1.042999   -0.289261
      7          6           0       -1.940724   -0.565992    0.603260
      8          6           0       -2.907138    0.128336   -0.003472
      9          6           0       -4.309287   -0.395009   -0.110700
     10          6           0       -2.702597    1.493193   -0.617744
     11          6           0        2.827499    1.782761    0.593814
     12          1           0        0.045764   -0.332440   -1.305040
     13          1           0        0.279201   -1.819051   -0.417766
     14          1           0       -0.374194    0.896836    0.855115
     15          1           0       -0.146071   -0.592504    1.729612
     16          1           0        2.304946   -2.188876    0.946933
     17          1           0        3.615257   -1.011800    0.961930
     18          1           0        2.148490   -0.708457    1.906678
     19          1           0        1.769593    1.535273   -1.174595
     20          1           0       -2.211911   -1.535645    1.016520
     21          1           0        2.213748   -0.690039   -2.178374
     22          1           0       -4.608772   -0.492597   -1.158135
     23          1           0       -5.015899    0.291334    0.365274
     24          1           0       -4.414817   -1.371744    0.364874
     25          1           0       -3.262972    2.257014   -0.067897
     26          1           0       -1.660226    1.802245   -0.646178
     27          1           0       -3.078127    1.511470   -1.646092
     28          1           0        2.969974    2.843224    0.429092
     29          1           0        3.250198    1.366145    1.498672
 ---------------------------------------------------------------------
                    Distance matrix (angstroms):
                    1          2          3          4          5
     1  O    0.000000
     2  C    1.446674   0.000000
     3  C    2.430741   1.545965   0.000000
     4  C    3.848374   2.624827   1.537028   0.000000
     5  C    2.342428   1.519426   2.536520   3.169131   0.000000
     6  C    2.396510   1.510215   2.507923   3.117448   2.532347
     7  C    4.959536   3.948825   2.533071   1.508688   4.520189
     8  C    5.780866   4.862060   3.435784   2.557830   5.663826
     9  C    7.038200   6.226056   4.728073   3.925321   6.962640
    10  C    5.917323   5.022338   3.829421   3.106287   6.062200
    11  C    3.459310   2.547384   3.621457   3.862499   2.944406
    12  H    2.640552   2.154787   1.096321   2.154280   3.462424
    13  H    2.606612   2.143969   1.093528   2.165396   2.736602
    14  H    4.184024   2.870521   2.170442   1.090969   3.538660
    15  H    4.154207   2.854453   2.153775   1.092951   2.830388
    16  H    2.590787   2.144912   2.724124   3.444326   1.090894
    17  H    2.547081   2.157468   3.482689   4.193003   1.091073
    18  H    3.320599   2.174772   2.853605   2.918977   1.088923
    19  H    2.724002   2.194763   2.776312   3.446057   3.500716
    20  H    5.376974   4.449765   3.054671   2.200689   4.759935
    21  H    0.964719   1.977038   2.576227   4.037370   3.197645
    22  H    7.218118   6.588550   5.080063   4.559603   7.476762
    23  H    7.910724   6.996315   5.558804   4.568196   7.700993
    24  H    7.216930   6.426021   4.909520   4.119738   6.975784
    25  H    6.845366   5.843272   4.738082   3.789208   6.786629
    26  H    5.168130   4.242548   3.281804   2.708916   5.360201
    27  H    6.223915   5.544360   4.339189   3.928953   6.726715
    28  H    4.311045   3.517301   4.472901   4.611939   4.026406
    29  H    3.811213   2.843088   3.993257   4.114149   2.642669
                    6          7          8          9         10
     6  C    0.000000
     7  C    4.502650   0.000000
     8  C    5.165628   1.335728   0.000000
     9  C    6.638202   2.479731   1.500470   0.000000
    10  C    4.903199   2.512279   1.510630   2.530584   0.000000
    11  C    1.326995   5.315324   5.998327   7.494847   5.668658
    12  H    2.725993   2.764469   3.259758   4.516285   3.370282
    13  H    3.431987   2.746036   3.757221   4.814188   4.461174
    14  H    2.792476   2.158081   2.782727   4.252837   2.818939
    15  H    3.479867   2.118997   3.338664   4.556107   4.049202
    16  H    3.462906   4.558242   5.782608   6.934307   6.409472
    17  H    2.807105   5.585366   6.691304   8.020559   6.977510
    18  H    2.808943   4.294282   5.468845   6.772809   5.895169
    19  H    1.088825   4.619798   5.022232   6.466115   4.506921
    20  H    5.248365   1.088372   2.071848   2.640201   3.476413
    21  H    2.564017   5.001251   5.623470   6.849256   5.601118
    22  H    7.003489   3.197872   2.148107   1.093772   2.805155
    23  H    7.253532   3.201305   2.146955   1.094038   2.786065
    24  H    7.042958   2.612892   2.158475   1.091475   3.479239
    25  H    5.570214   3.188754   2.159176   2.851286   1.095341
    26  H    3.919885   2.692270   2.183995   3.483129   1.087593
    27  H    5.439761   3.266362   2.154182   2.740045   1.094924
    28  H    2.097302   5.980639   6.488311   7.985310   5.924231
    29  H    2.114353   5.610756   6.457662   7.927014   6.319108
                   11         12         13         14         15
    11  C    0.000000
    12  H    3.977155   0.000000
    13  H    4.526607   1.746929   0.000000
    14  H    3.332263   2.520665   3.069722   0.000000
    15  H    3.971654   3.051810   2.509283   1.742101   0.000000
    16  H    4.021400   3.690750   2.470387   4.087522   3.027948
    17  H    2.926713   4.282752   3.699255   4.423801   3.861701
    18  H    2.896694   3.857198   3.182876   3.169650   2.304302
    19  H    2.075496   2.544986   3.747740   3.020455   4.078189
    20  H    6.048648   3.454625   2.888448   3.052903   2.380275
    21  H    3.765163   2.364475   2.849014   4.291581   4.566247
    22  H    7.971493   4.659607   5.118585   4.890333   5.316462
    23  H    7.987207   5.366515   5.753691   4.706592   5.133986
    24  H    7.902813   4.874992   4.779792   4.659767   4.548837
    25  H    6.144641   4.379900   5.411442   3.323714   4.589756
    26  H    4.655924   2.810939   4.114284   2.174287   3.697548
    27  H    6.321962   3.643490   4.885981   3.734310   4.941562
    28  H    1.082596   4.652210   5.449242   3.892734   4.817190
    29  H    1.082133   4.584145   4.758680   3.710880   3.927376
                   16         17         18         19         20
    16  H    0.000000
    17  H    1.761434   0.000000
    18  H    1.771222   1.770867   0.000000
    19  H    4.319349   3.802473   3.830422   0.000000
    20  H    4.564378   5.850921   4.526556   5.484879   0.000000
    21  H    3.467329   3.453877   4.085614   2.481302   5.523481
    22  H    7.423488   8.508755   7.422955   6.692987   3.400297
    23  H    7.751422   8.749344   7.396214   7.068344   3.409446
    24  H    6.794240   8.060280   6.774519   7.004830   2.303107
    25  H    7.197050   7.684772   6.478957   5.203114   4.082273
    26  H    5.847190   6.191573   5.227524   3.480539   3.769672
    27  H    7.028073   7.613808   6.698342   4.870654   4.138205
    28  H    5.102201   3.944809   3.933514   2.392376   6.809662
    29  H    3.719690   2.464951   2.384157   3.060581   6.203828
                   21         22         23         24         25
    21  H    0.000000
    22  H    6.901207   0.000000
    23  H    7.726645   1.760988   0.000000
    24  H    7.132370   1.769202   1.768370   0.000000
    25  H    6.567625   3.249640   2.669136   3.831700   0.000000
    26  H    4.854563   3.771250   3.816599   4.322523   1.763525
    27  H    5.756207   2.568513   3.047833   3.760804   1.755193
    28  H    4.455862   8.431156   8.383936   8.503248   6.280148
    29  H    4.338524   8.501586   8.412382   8.217907   6.757897
                   26         27         28         29
    26  H    0.000000
    27  H    1.759211   0.000000
    28  H    4.866066   6.531424   0.000000
    29  H    5.376135   7.068123   1.845071   0.000000
 Stoichiometry    C10H18O
 Framework group  C1[X(C10H18O)]
 Deg. of freedom    81
 Full point group                 C1      NOp   1
 RotChk:  IX=0 Diff= 5.58D-02
 Largest Abelian subgroup         C1      NOp   1
 Largest concise Abelian subgroup C1      NOp   1
                         Standard orientation:                         
 ---------------------------------------------------------------------
 Center     Atomic      Atomic             Coordinates (Angstroms)
 Number     Number       Type             X           Y           Z
 ---------------------------------------------------------------------
      1          8           0       -2.599165   -0.914272    1.429385
      2          6           0       -1.929634   -0.372326    0.267108
      3          6           0       -0.422095   -0.699092    0.369873
      4          6           0        0.468434   -0.225704   -0.790004
      5          6           0       -2.579675   -1.085238   -0.906713
      6          6           0       -2.141522    1.122884    0.253028
      7          6           0        1.909237   -0.639183   -0.618939
      8          6           0        2.902849    0.054183   -0.056668
      9          6           0        4.291468   -0.503005    0.055963
     10          6           0        2.744592    1.450360    0.497992
     11          6           0       -2.792052    1.840602   -0.653951
     12          1           0       -0.042885   -0.264804    1.302350
     13          1           0       -0.329603   -1.782481    0.486132
     14          1           0        0.380077    0.854322   -0.916302
     15          1           0        0.098775   -0.665658   -1.719701
     16          1           0       -2.383850   -2.155962   -0.834245
     17          1           0       -3.661412   -0.944408   -0.885424
     18          1           0       -2.200381   -0.724941   -1.861739
     19          1           0       -1.716427    1.642870    1.110027
     20          1           0        2.147809   -1.633586   -0.991497
     21          1           0       -2.207299   -0.521957    2.218824
     22          1           0        4.602951   -0.562006    1.102785
     23          1           0        5.009863    0.141244   -0.459566
     24          1           0        4.363387   -1.502617   -0.376383
     25          1           0        3.317901    2.172780   -0.092938
     26          1           0        1.711610    1.789521    0.525900
     27          1           0        3.134996    1.504073    1.519539
     28          1           0       -2.902996    2.910954   -0.535415
     29          1           0       -3.238798    1.395954   -1.533564
 ---------------------------------------------------------------------
 Rotational constants (GHZ):           1.9822401           0.4686739           0.4385267
 Leave Link  202 at Sat May  4 10:35:52 2024, MaxMem= 13421772800 cpu:               2.4 elap:               0.1
 (Enter /tmpu/scunam/7/gaussian-2016.03/g1/g16/l301.exe)
 Standard basis: def2TZVP (5D, 7F)
 Ernie: Thresh=  0.10000D-02 Tol=  0.10000D-05 Strict=F.
 There are   504 symmetry adapted cartesian basis functions of A   symmetry.
 There are   449 symmetry adapted basis functions of A   symmetry.
   449 basis functions,   705 primitive gaussians,   504 cartesian basis functions
    43 alpha electrons       43 beta electrons
       nuclear repulsion energy       620.2918083213 Hartrees.
 IExCor=  402 DFT=T Ex+Corr=B3LYP ExCW=0 ScaHFX=  0.200000
 ScaDFX=  0.800000  0.720000  1.000000  0.810000 ScalE2=  1.000000  1.000000
 IRadAn=      5 IRanWt=     -1 IRanGd=            0 ICorTp=0 IEmpDi=  4
 NAtoms=   29 NActive=   29 NUniq=   29 SFac= 1.00D+00 NAtFMM=   60 NAOKFM=F Big=F
 Integral buffers will be    131072 words long.
 Raffenetti 2 integral format.
 Two-electron integral symmetry is turned on.
 Leave Link  301 at Sat May  4 10:35:53 2024, MaxMem= 13421772800 cpu:               2.5 elap:               0.1
 (Enter /tmpu/scunam/7/gaussian-2016.03/g1/g16/l302.exe)
 NPDir=0 NMtPBC=     1 NCelOv=     1 NCel=       1 NClECP=     1 NCelD=      1
         NCelK=      1 NCelE2=     1 NClLst=     1 CellRange=     0.0.
 One-electron integrals computed using PRISM.
 One-electron integral symmetry used in STVInt
   1 Symmetry operations used in ECPInt.
 ECPInt:  NShTT=   18721 NPrTT=   54252 LenC2=   17468 LenP2D=   38708.
 LDataN:  DoStor=T MaxTD1= 6 Len=  172
 NBasis=   449 RedAO= T EigKep=  6.51D-05  NBF=   449
 NBsUse=   449 1.00D-06 EigRej= -1.00D+00 NBFU=   449
 Precomputing XC quadrature grid using
 IXCGrd= 4 IRadAn=           5 IRanWt=          -1 IRanGd=           0 AccXCQ= 0.00D+00.
 Generated NRdTot=       0 NPtTot=           0 NUsed=           0 NTot=          32
 NSgBfM=   501   501   501   501   501 MxSgAt=    29 MxSgA2=    29.
 Leave Link  302 at Sat May  4 10:35:53 2024, MaxMem= 13421772800 cpu:              15.7 elap:               0.5
 (Enter /tmpu/scunam/7/gaussian-2016.03/g1/g16/l303.exe)
 DipDrv:  MaxL=1.
 Leave Link  303 at Sat May  4 10:35:53 2024, MaxMem= 13421772800 cpu:               3.4 elap:               0.1
 (Enter /tmpu/scunam/7/gaussian-2016.03/g1/g16/l401.exe)
 Initial guess from the checkpoint file:  "linalool.chk"
 B after Tr=     0.000000    0.000000    0.000000
         Rot=    0.999774   -0.020275    0.001990    0.006094 Ang=  -2.44 deg.
 Guess basis will be translated and rotated to current coordinates.
 JPrj=2 DoOrth=T DoCkMO=T.
 Generating alternative initial guess.
 ExpMin= 9.52D-02 ExpMax= 2.70D+04 ExpMxC= 9.22D+02 IAcc=2 IRadAn=         4 AccDes= 0.00D+00
 Harris functional with IExCor=  402 and IRadAn=       4 diagonalized for initial guess.
 HarFok:  IExCor=  402 AccDes= 0.00D+00 IRadAn=         4 IDoV= 1 UseB2=F ITyADJ=14
 ICtDFT=  3500011 ScaDFX=  1.000000  1.000000  1.000000  1.000000
 FoFCou: FMM=F IPFlag=           0 FMFlag=      100000 FMFlg1=           0
         NFxFlg=           0 DoJE=T BraDBF=F KetDBF=T FulRan=T
         wScrn=  0.000000 ICntrl=       500 IOpCl=  0 I1Cent=   200000004 NGrid=           0
         NMat0=    1 NMatS0=      1 NMatT0=    0 NMatD0=    1 NMtDS0=    0 NMtDT0=    0
 Petite list used in FoFCou.
 Harris En= -467.405871571949    
 Leave Link  401 at Sat May  4 10:35:55 2024, MaxMem= 13421772800 cpu:              40.4 elap:               1.3
 (Enter /tmpu/scunam/7/gaussian-2016.03/g1/g16/l502.exe)
 Integral symmetry usage will be decided dynamically.
 Closed shell SCF:
 Using DIIS extrapolation, IDIIS=  1040.
 NGot= 13421772800 LenX= 13421243903 LenY= 13420989383
 Requested convergence on RMS density matrix=1.00D-08 within 128 cycles.
 Requested convergence on MAX density matrix=1.00D-06.
 Requested convergence on             energy=1.00D-06.
 No special actions if energy rises.
 Fock matrices will be formed incrementally for  20 cycles.
 Integral accuracy reduced to 1.0D-05 until final iterations.

 Cycle   1  Pass 0  IDiag  1:
 FoFJK:  IHMeth= 1 ICntrl=       0 DoSepK=F KAlg= 0 I1Cent=           0 FoldK=F
 IRaf= 880000000 NMat=       1 IRICut=       1 DoRegI=T DoRafI=F ISym2E= 0 IDoP0=0 IntGTp=1.
 FoFCou: FMM=F IPFlag=           0 FMFlag=      100000 FMFlg1=           0
         NFxFlg=           0 DoJE=F BraDBF=F KetDBF=F FulRan=T
         wScrn=  0.000000 ICntrl=         0 IOpCl=  0 I1Cent=           0 NGrid=           0
         NMat0=    1 NMatS0=      1 NMatT0=    0 NMatD0=    1 NMtDS0=    0 NMtDT0=    0
 Symmetry not used in FoFCou.
 E= -467.265460743043    
 DIIS: error= 2.57D-03 at cycle   1 NSaved=   1.
 NSaved= 1 IEnMin= 1 EnMin= -467.265460743043     IErMin= 1 ErrMin= 2.57D-03
 ErrMax= 2.57D-03  0.00D+00 EMaxC= 1.00D-01 BMatC= 5.60D-03 BMatP= 5.60D-03
 IDIUse=3 WtCom= 9.74D-01 WtEn= 2.57D-02
 Coeff-Com:  0.100D+01
 Coeff-En:   0.100D+01
 Coeff:      0.100D+01
 Gap=     0.622 Goal=   None    Shift=    0.000
 GapD=    0.622 DampG=2.000 DampE=1.000 DampFc=2.0000 IDamp=-1.
 RMSDP=2.77D-04 MaxDP=8.83D-03              OVMax= 1.75D-02

 Cycle   2  Pass 0  IDiag  1:
 RMSU=  2.77D-04    CP:  9.99D-01
 E= -467.272549979245     Delta-E=       -0.007089236202 Rises=F Damp=F
 DIIS: error= 2.54D-04 at cycle   2 NSaved=   2.
 NSaved= 2 IEnMin= 2 EnMin= -467.272549979245     IErMin= 2 ErrMin= 2.54D-04
 ErrMax= 2.54D-04  0.00D+00 EMaxC= 1.00D-01 BMatC= 8.49D-05 BMatP= 5.60D-03
 IDIUse=3 WtCom= 9.97D-01 WtEn= 2.54D-03
 Coeff-Com: -0.323D-01 0.103D+01
 Coeff-En:   0.000D+00 0.100D+01
 Coeff:     -0.322D-01 0.103D+01
 Gap=     0.232 Goal=   None    Shift=    0.000
 RMSDP=5.06D-05 MaxDP=1.34D-03 DE=-7.09D-03 OVMax= 3.24D-03

 Cycle   3  Pass 0  IDiag  1:
 RMSU=  4.97D-05    CP:  9.99D-01  1.03D+00
 E= -467.272591874132     Delta-E=       -0.000041894888 Rises=F Damp=F
 DIIS: error= 3.44D-04 at cycle   3 NSaved=   3.
 NSaved= 3 IEnMin= 3 EnMin= -467.272591874132     IErMin= 2 ErrMin= 2.54D-04
 ErrMax= 3.44D-04  0.00D+00 EMaxC= 1.00D-01 BMatC= 9.30D-05 BMatP= 8.49D-05
 IDIUse=3 WtCom= 9.97D-01 WtEn= 3.44D-03
 Coeff-Com: -0.296D-01 0.546D+00 0.484D+00
 Coeff-En:   0.000D+00 0.348D+00 0.652D+00
 Coeff:     -0.295D-01 0.545D+00 0.484D+00
 Gap=     0.232 Goal=   None    Shift=    0.000
 RMSDP=2.25D-05 MaxDP=6.72D-04 DE=-4.19D-05 OVMax= 1.97D-03

 Cycle   4  Pass 0  IDiag  1:
 RMSU=  1.53D-05    CP:  9.99D-01  1.04D+00  6.74D-01
 E= -467.272674729773     Delta-E=       -0.000082855641 Rises=F Damp=F
 DIIS: error= 6.80D-05 at cycle   4 NSaved=   4.
 NSaved= 4 IEnMin= 4 EnMin= -467.272674729773     IErMin= 4 ErrMin= 6.80D-05
 ErrMax= 6.80D-05  0.00D+00 EMaxC= 1.00D-01 BMatC= 5.92D-06 BMatP= 8.49D-05
 IDIUse=1 WtCom= 1.00D+00 WtEn= 0.00D+00
 Coeff-Com: -0.112D-01 0.168D+00 0.238D+00 0.605D+00
 Coeff:     -0.112D-01 0.168D+00 0.238D+00 0.605D+00
 Gap=     0.232 Goal=   None    Shift=    0.000
 RMSDP=6.96D-06 MaxDP=3.41D-04 DE=-8.29D-05 OVMax= 8.48D-04

 Initial convergence to 1.0D-05 achieved.  Increase integral accuracy.
 Cycle   5  Pass 1  IDiag  1:
 E= -467.272672053065     Delta-E=        0.000002676708 Rises=F Damp=F
 DIIS: error= 1.76D-04 at cycle   1 NSaved=   1.
 NSaved= 1 IEnMin= 1 EnMin= -467.272672053065     IErMin= 1 ErrMin= 1.76D-04
 ErrMax= 1.76D-04  0.00D+00 EMaxC= 1.00D-01 BMatC= 6.95D-06 BMatP= 6.95D-06
 IDIUse=3 WtCom= 9.98D-01 WtEn= 1.76D-03
 Coeff-Com:  0.100D+01
 Coeff-En:   0.100D+01
 Coeff:      0.100D+01
 Gap=     0.232 Goal=   None    Shift=    0.000
 RMSDP=6.96D-06 MaxDP=3.41D-04 DE= 2.68D-06 OVMax= 9.08D-04

 Cycle   6  Pass 1  IDiag  1:
 RMSU=  1.35D-04    CP:  1.00D+00
 E= -467.272673988488     Delta-E=       -0.000001935423 Rises=F Damp=F
 DIIS: error= 4.99D-05 at cycle   2 NSaved=   2.
 NSaved= 2 IEnMin= 2 EnMin= -467.272673988488     IErMin= 2 ErrMin= 4.99D-05
 ErrMax= 4.99D-05  0.00D+00 EMaxC= 1.00D-01 BMatC= 3.03D-06 BMatP= 6.95D-06
 IDIUse=1 WtCom= 1.00D+00 WtEn= 0.00D+00
 Coeff-Com:  0.354D+00 0.646D+00
 Coeff:      0.354D+00 0.646D+00
 Gap=     0.232 Goal=   None    Shift=    0.000
 RMSDP=5.99D-06 MaxDP=2.84D-04 DE=-1.94D-06 OVMax= 1.09D-03

 Cycle   7  Pass 1  IDiag  1:
 RMSU=  5.86D-06    CP:  1.00D+00  1.01D+00
 E= -467.272674838424     Delta-E=       -0.000000849936 Rises=F Damp=F
 DIIS: error= 4.30D-05 at cycle   3 NSaved=   3.
 NSaved= 3 IEnMin= 3 EnMin= -467.272674838424     IErMin= 3 ErrMin= 4.30D-05
 ErrMax= 4.30D-05  0.00D+00 EMaxC= 1.00D-01 BMatC= 2.05D-06 BMatP= 3.03D-06
 IDIUse=1 WtCom= 1.00D+00 WtEn= 0.00D+00
 Coeff-Com:  0.913D-02 0.449D+00 0.542D+00
 Coeff:      0.913D-02 0.449D+00 0.542D+00
 Gap=     0.232 Goal=   None    Shift=    0.000
 RMSDP=2.60D-06 MaxDP=1.36D-04 DE=-8.50D-07 OVMax= 5.62D-04

 Cycle   8  Pass 1  IDiag  1:
 RMSU=  1.01D-06    CP:  1.00D+00  1.01D+00  6.13D-01
 E= -467.272676638279     Delta-E=       -0.000001799855 Rises=F Damp=F
 DIIS: error= 7.72D-06 at cycle   4 NSaved=   4.
 NSaved= 4 IEnMin= 4 EnMin= -467.272676638279     IErMin= 4 ErrMin= 7.72D-06
 ErrMax= 7.72D-06  0.00D+00 EMaxC= 1.00D-01 BMatC= 5.43D-08 BMatP= 2.05D-06
 IDIUse=1 WtCom= 1.00D+00 WtEn= 0.00D+00
 Coeff-Com: -0.246D-02 0.251D+00 0.319D+00 0.433D+00
 Coeff:     -0.246D-02 0.251D+00 0.319D+00 0.433D+00
 Gap=     0.232 Goal=   None    Shift=    0.000
 RMSDP=4.95D-07 MaxDP=2.06D-05 DE=-1.80D-06 OVMax= 6.62D-05

 Cycle   9  Pass 1  IDiag  1:
 RMSU=  2.93D-07    CP:  1.00D+00  1.01D+00  5.93D-01  6.23D-01
 E= -467.272676691263     Delta-E=       -0.000000052984 Rises=F Damp=F
 DIIS: error= 9.40D-07 at cycle   5 NSaved=   5.
 NSaved= 5 IEnMin= 5 EnMin= -467.272676691263     IErMin= 5 ErrMin= 9.40D-07
 ErrMax= 9.40D-07  0.00D+00 EMaxC= 1.00D-01 BMatC= 8.18D-10 BMatP= 5.43D-08
 IDIUse=1 WtCom= 1.00D+00 WtEn= 0.00D+00
 Coeff-Com: -0.156D-02 0.139D+00 0.177D+00 0.251D+00 0.435D+00
 Coeff:     -0.156D-02 0.139D+00 0.177D+00 0.251D+00 0.435D+00
 Gap=     0.232 Goal=   None    Shift=    0.000
 RMSDP=7.60D-08 MaxDP=2.72D-06 DE=-5.30D-08 OVMax= 8.95D-06

 Cycle  10  Pass 1  IDiag  1:
 RMSU=  7.09D-08    CP:  1.00D+00  1.01D+00  5.94D-01  6.27D-01  9.12D-01
 E= -467.272676691941     Delta-E=       -0.000000000678 Rises=F Damp=F
 DIIS: error= 1.56D-07 at cycle   6 NSaved=   6.
 NSaved= 6 IEnMin= 6 EnMin= -467.272676691941     IErMin= 6 ErrMin= 1.56D-07
 ErrMax= 1.56D-07  0.00D+00 EMaxC= 1.00D-01 BMatC= 3.05D-11 BMatP= 8.18D-10
 IDIUse=1 WtCom= 1.00D+00 WtEn= 0.00D+00
 Coeff-Com: -0.378D-03 0.302D-01 0.385D-01 0.565D-01 0.186D+00 0.689D+00
 Coeff:     -0.378D-03 0.302D-01 0.385D-01 0.565D-01 0.186D+00 0.689D+00
 Gap=     0.232 Goal=   None    Shift=    0.000
 RMSDP=2.11D-08 MaxDP=9.07D-07 DE=-6.78D-10 OVMax= 1.81D-06

 Cycle  11  Pass 1  IDiag  1:
 RMSU=  1.89D-08    CP:  1.00D+00  1.01D+00  5.93D-01  6.30D-01  9.35D-01
                    CP:  9.85D-01
 E= -467.272676691968     Delta-E=       -0.000000000027 Rises=F Damp=F
 DIIS: error= 8.52D-08 at cycle   7 NSaved=   7.
 NSaved= 7 IEnMin= 7 EnMin= -467.272676691968     IErMin= 7 ErrMin= 8.52D-08
 ErrMax= 8.52D-08  0.00D+00 EMaxC= 1.00D-01 BMatC= 3.99D-12 BMatP= 3.05D-11
 IDIUse=1 WtCom= 1.00D+00 WtEn= 0.00D+00
 Coeff-Com:  0.614D-04-0.706D-02-0.905D-02-0.120D-01 0.200D-01 0.307D+00
 Coeff-Com:  0.701D+00
 Coeff:      0.614D-04-0.706D-02-0.905D-02-0.120D-01 0.200D-01 0.307D+00
 Coeff:      0.701D+00
 Gap=     0.232 Goal=   None    Shift=    0.000
 RMSDP=6.73D-09 MaxDP=2.32D-07 DE=-2.66D-11 OVMax= 6.29D-07

 SCF Done:  E(RB3LYP) =  -467.272676692     A.U. after   11 cycles
            NFock= 11  Conv=0.67D-08     -V/T= 2.0054
 KE= 4.647611852349D+02 PE=-2.325855460953D+03 EE= 7.735297907049D+02
 Leave Link  502 at Sat May  4 10:36:44 2024, MaxMem= 13421772800 cpu:            1564.6 elap:              49.0
 (Enter /tmpu/scunam/7/gaussian-2016.03/g1/g16/l508.exe)
 QCSCF skips out because SCF is already converged.
 Leave Link  508 at Sat May  4 10:36:44 2024, MaxMem= 13421772800 cpu:               0.2 elap:               0.0
 (Enter /tmpu/scunam/7/gaussian-2016.03/g1/g16/l701.exe)
 ... and contract with generalized density number  0.
 Compute integral first derivatives.
   1 Symmetry operations used in ECPInt.
 ECPInt:  NShTT=   18721 NPrTT=   54252 LenC2=   17468 LenP2D=   38708.
 LDataN:  DoStor=T MaxTD1= 7 Len=  274
 Leave Link  701 at Sat May  4 10:36:44 2024, MaxMem= 13421772800 cpu:              10.6 elap:               0.4
 (Enter /tmpu/scunam/7/gaussian-2016.03/g1/g16/l702.exe)
 L702 exits ... SP integral derivatives will be done elsewhere.
 Leave Link  702 at Sat May  4 10:36:44 2024, MaxMem= 13421772800 cpu:               0.6 elap:               0.0
 (Enter /tmpu/scunam/7/gaussian-2016.03/g1/g16/l703.exe)
 Integral derivatives from FoFJK, PRISM(SPDF).
 Compute integral first derivatives, UseDBF=F ICtDFT=           0.
 Calling FoFJK, ICntrl=      2127 FMM=F ISym2X=0 I1Cent= 0 IOpClX= 0 NMat=1 NMatS=1 NMatT=0.
 FoFJK:  IHMeth= 1 ICntrl=    2127 DoSepK=F KAlg= 0 I1Cent=           0 FoldK=F
 IRaf=         0 NMat=       1 IRICut=       1 DoRegI=T DoRafI=F ISym2E= 0 IDoP0=0 IntGTp=1.
 FoFCou: FMM=F IPFlag=           0 FMFlag=      100000 FMFlg1=         800
         NFxFlg=           0 DoJE=F BraDBF=F KetDBF=F FulRan=T
         wScrn=  0.000000 ICntrl=      2127 IOpCl=  0 I1Cent=           0 NGrid=           0
         NMat0=    1 NMatS0=      1 NMatT0=    0 NMatD0=    1 NMtDS0=    0 NMtDT0=    0
 Symmetry not used in FoFCou.
 Leave Link  703 at Sat May  4 10:37:05 2024, MaxMem= 13421772800 cpu:             667.0 elap:              20.9
 (Enter /tmpu/scunam/7/gaussian-2016.03/g1/g16/l716.exe)
 Dipole        = 5.40222994D-01 4.12890329D-01 1.75164416D-02
 ***** Axes restored to original set *****
 -------------------------------------------------------------------
 Center     Atomic                   Forces (Hartrees/Bohr)
 Number     Number              X              Y              Z
 -------------------------------------------------------------------
      1        8          -0.002125630    0.000730712   -0.000042164
      2        6          -0.001126092   -0.000527165    0.001688719
      3        6           0.000354144   -0.001022138   -0.002638429
      4        6          -0.001447554   -0.000228146    0.001423642
      5        6           0.002204814   -0.002225252    0.001449630
      6        6           0.001885361    0.002086523    0.000215964
      7        6           0.000082431   -0.001303237   -0.000010874
      8        6           0.003923817    0.005130274   -0.000343557
      9        6          -0.000123908   -0.002564599    0.001897577
     10        6          -0.000240370   -0.001604051   -0.000551470
     11        6          -0.001046366   -0.000397005   -0.001515201
     12        1           0.000017906    0.000641596    0.000085132
     13        1           0.000330016   -0.000112112    0.000244666
     14        1           0.000105540    0.000316813   -0.001298999
     15        1          -0.000017844    0.000210396    0.000375954
     16        1          -0.000271675    0.000242258    0.000170339
     17        1          -0.000810700    0.000513730   -0.000182677
     18        1          -0.000248724   -0.000182457    0.000080879
     19        1          -0.000256081   -0.000513939   -0.000793085
     20        1           0.000334935   -0.000041456   -0.001135562
     21        1           0.000077800   -0.000151560   -0.000171578
     22        1          -0.000934804    0.000435416   -0.000318151
     23        1          -0.001015826    0.000314539   -0.000654145
     24        1           0.000073123    0.000528746   -0.000307623
     25        1          -0.000432670   -0.000554474   -0.000090985
     26        1           0.000709656   -0.000230037    0.000943449
     27        1          -0.000332637   -0.000178229    0.000464563
     28        1           0.000094041    0.000210237    0.000840389
     29        1           0.000237298    0.000474618    0.000173595
 -------------------------------------------------------------------
 Cartesian Forces:  Max     0.005130274 RMS     0.001147451
 Leave Link  716 at Sat May  4 10:37:05 2024, MaxMem= 13421772800 cpu:               1.7 elap:               0.1
 (Enter /tmpu/scunam/7/gaussian-2016.03/g1/g16/l103.exe)

 GradGradGradGradGradGradGradGradGradGradGradGradGradGradGradGradGradGrad
 Berny optimization.
 Using GEDIIS/GDIIS optimizer.
 FormGI is forming the generalized inverse of G from B-inverse, IUseBI=4.
 Internal  Forces:  Max     0.002671151 RMS     0.000684683
 Search for a local minimum.
 Step number   2 out of a maximum of  174
 All quantities printed in internal units (Hartrees-Bohrs-Radians)
 RMS Force = .68468D-03 SwitMx=.10000D-02 MixMth= 2
 Mixed Optimization -- En-DIIS/RFO-DIIS
 Update second derivatives using D2CorX and points    1    2
 DE= -3.13D-03 DEPred=-3.26D-03 R= 9.61D-01
 TightC=F SS=  1.41D+00  RLast= 2.48D-01 DXNew= 5.0454D-01 7.4450D-01
 Trust test= 9.61D-01 RLast= 2.48D-01 DXMaxT set to 5.05D-01
 ITU=  1  0
 Use linear search instead of GDIIS.
     Eigenvalues ---    0.00230   0.00321   0.00335   0.00567   0.00687
     Eigenvalues ---    0.00703   0.00732   0.01183   0.01306   0.01542
     Eigenvalues ---    0.01565   0.02806   0.02899   0.02922   0.03090
     Eigenvalues ---    0.04034   0.04532   0.04654   0.05421   0.05440
     Eigenvalues ---    0.05696   0.06583   0.06845   0.07107   0.07194
     Eigenvalues ---    0.07274   0.07755   0.08988   0.09360   0.12666
     Eigenvalues ---    0.12886   0.15082   0.15998   0.15999   0.16000
     Eigenvalues ---    0.16000   0.16000   0.16000   0.16000   0.16000
     Eigenvalues ---    0.16000   0.16000   0.16000   0.16000   0.16214
     Eigenvalues ---    0.16589   0.17469   0.21663   0.21935   0.21999
     Eigenvalues ---    0.22614   0.23913   0.25136   0.27822   0.29177
     Eigenvalues ---    0.29551   0.31035   0.31914   0.32051   0.32987
     Eigenvalues ---    0.33721   0.33825   0.33959   0.34076   0.34126
     Eigenvalues ---    0.34148   0.34213   0.34223   0.34280   0.34285
     Eigenvalues ---    0.34303   0.34453   0.34800   0.34910   0.35089
     Eigenvalues ---    0.35437   0.35621   0.40172   0.52870   0.55384
     Eigenvalues ---    0.57350
 RFO step:  Lambda=-7.73446616D-04 EMin= 2.29829540D-03
 Quartic linear search produced a step of  0.01993.
 Iteration  1 RMS(Cart)=  0.07993102 RMS(Int)=  0.00164507
 Iteration  2 RMS(Cart)=  0.00279449 RMS(Int)=  0.00001798
 Iteration  3 RMS(Cart)=  0.00000287 RMS(Int)=  0.00001790
 Iteration  4 RMS(Cart)=  0.00000000 RMS(Int)=  0.00001790
 ITry= 1 IFail=0 DXMaxC= 3.17D-01 DCOld= 1.00D+10 DXMaxT= 5.05D-01 DXLimC= 3.00D+00 Rises=F
 Variable       Old X    -DE/DX   Delta X   Delta X   Delta X     New X
                                 (Linear)    (Quad)   (Total)
    R1        2.73382  -0.00103   0.00031  -0.00144  -0.00113   2.73269
    R2        1.82305   0.00006  -0.00030  -0.00103  -0.00133   1.82172
    R3        2.92145  -0.00117  -0.00008  -0.00455  -0.00463   2.91682
    R4        2.87130   0.00230  -0.00053   0.00600   0.00547   2.87677
    R5        2.85389   0.00202  -0.00018   0.00597   0.00580   2.85969
    R6        2.90456  -0.00003   0.00017   0.00052   0.00068   2.90525
    R7        2.07175   0.00015  -0.00013  -0.00001  -0.00013   2.07161
    R8        2.06647   0.00006  -0.00023  -0.00069  -0.00092   2.06555
    R9        2.85101  -0.00193   0.00018  -0.00544  -0.00526   2.84574
   R10        2.06163   0.00023  -0.00013   0.00019   0.00006   2.06169
   R11        2.06538   0.00024  -0.00012   0.00026   0.00014   2.06552
   R12        2.06149  -0.00019  -0.00021  -0.00135  -0.00156   2.05993
   R13        2.06183  -0.00075  -0.00021  -0.00305  -0.00327   2.05856
   R14        2.05777   0.00009  -0.00021  -0.00052  -0.00073   2.05704
   R15        2.50766  -0.00053  -0.00044  -0.00260  -0.00304   2.50462
   R16        2.05758   0.00051  -0.00002   0.00139   0.00137   2.05895
   R17        2.52416  -0.00098  -0.00041  -0.00334  -0.00375   2.52042
   R18        2.05672  -0.00048  -0.00003  -0.00148  -0.00151   2.05521
   R19        2.83548   0.00228  -0.00008   0.00688   0.00681   2.84228
   R20        2.85468  -0.00267   0.00021  -0.00771  -0.00751   2.84717
   R21        2.06693   0.00052  -0.00003   0.00143   0.00139   2.06832
   R22        2.06743   0.00057  -0.00002   0.00159   0.00157   2.06900
   R23        2.06259  -0.00061  -0.00013  -0.00232  -0.00246   2.06013
   R24        2.06990  -0.00021   0.00001  -0.00060  -0.00060   2.06930
   R25        2.05525   0.00059  -0.00016   0.00111   0.00095   2.05620
   R26        2.06911  -0.00032  -0.00004  -0.00110  -0.00114   2.06797
   R27        2.04581   0.00009  -0.00009  -0.00009  -0.00018   2.04563
   R28        2.04494   0.00005  -0.00004   0.00001  -0.00003   2.04490
    A1        1.89348   0.00042   0.00007   0.00287   0.00294   1.89642
    A2        1.89517  -0.00108   0.00059  -0.01410  -0.01353   1.88164
    A3        1.82028   0.00041  -0.00043   0.00168   0.00131   1.82159
    A4        1.88962  -0.00021   0.00047  -0.00475  -0.00434   1.88528
    A5        1.94912   0.00046   0.00019   0.00770   0.00787   1.95700
    A6        1.92485  -0.00027  -0.00023  -0.00215  -0.00251   1.92234
    A7        1.97938   0.00061  -0.00052   0.01012   0.00958   1.98896
    A8        2.03725  -0.00097   0.00056  -0.00389  -0.00333   2.03392
    A9        1.88610   0.00022  -0.00035  -0.00169  -0.00204   1.88406
   A10        1.87439   0.00018  -0.00044  -0.00180  -0.00225   1.87215
   A11        1.89593   0.00022  -0.00027  -0.00092  -0.00120   1.89473
   A12        1.91384   0.00032   0.00003   0.00159   0.00162   1.91546
   A13        1.84707   0.00012   0.00047   0.00792   0.00839   1.85546
   A14        1.96421  -0.00058   0.00054  -0.00192  -0.00140   1.96281
   A15        1.92339  -0.00028  -0.00043  -0.00745  -0.00790   1.91549
   A16        1.89860   0.00019  -0.00049   0.00107   0.00058   1.89919
   A17        1.94098   0.00020  -0.00001  -0.00216  -0.00220   1.93878
   A18        1.88508   0.00034   0.00025   0.00577   0.00603   1.89110
   A19        1.84692   0.00020   0.00011   0.00557   0.00567   1.85260
   A20        1.90965   0.00009  -0.00042  -0.00063  -0.00105   1.90860
   A21        1.92679  -0.00062  -0.00022  -0.00423  -0.00445   1.92234
   A22        1.95334   0.00005  -0.00025  -0.00153  -0.00178   1.95156
   A23        1.87902   0.00046   0.00063   0.00713   0.00776   1.88678
   A24        1.89705  -0.00019   0.00019  -0.00145  -0.00127   1.89577
   A25        1.89626   0.00022   0.00012   0.00111   0.00122   1.89748
   A26        2.22766   0.00131   0.00005   0.00624   0.00628   2.23394
   A27        1.99402  -0.00148  -0.00051  -0.01006  -0.01059   1.98344
   A28        2.06129   0.00017   0.00046   0.00402   0.00446   2.06575
   A29        2.23428  -0.00137   0.00017  -0.00571  -0.00555   2.22874
   A30        2.00526   0.00071   0.00004   0.00342   0.00346   2.00872
   A31        2.04352   0.00066  -0.00021   0.00218   0.00197   2.04549
   A32        2.12617  -0.00174  -0.00110  -0.01120  -0.01231   2.11386
   A33        2.16083   0.00072   0.00115   0.00726   0.00840   2.16924
   A34        1.99610   0.00101  -0.00005   0.00393   0.00388   1.99998
   A35        1.93416   0.00056   0.00012   0.00304   0.00316   1.93733
   A36        1.93227   0.00084   0.00012   0.00529   0.00540   1.93767
   A37        1.95124  -0.00010   0.00007   0.00111   0.00117   1.95241
   A38        1.87104  -0.00121  -0.00052  -0.01252  -0.01304   1.85800
   A39        1.88698  -0.00009   0.00011   0.00079   0.00089   1.88787
   A40        1.88535  -0.00009   0.00008   0.00160   0.00166   1.88701
   A41        1.93548  -0.00061   0.00035  -0.00405  -0.00371   1.93177
   A42        1.97920  -0.00081  -0.00045  -0.00605  -0.00651   1.97269
   A43        1.92896  -0.00007   0.00026   0.00129   0.00155   1.93051
   A44        1.88104   0.00060  -0.00002   0.00244   0.00240   1.88345
   A45        1.85913   0.00008  -0.00053  -0.00308  -0.00361   1.85552
   A46        1.87488   0.00092   0.00038   0.00999   0.01038   1.88526
   A47        2.10615   0.00069   0.00022   0.00523   0.00544   2.11158
   A48        2.13615   0.00022  -0.00006   0.00118   0.00111   2.13726
   A49        2.04086  -0.00091  -0.00016  -0.00635  -0.00652   2.03434
    D1        1.02633  -0.00047  -0.00002  -0.00828  -0.00828   1.01806
    D2        3.10671  -0.00023   0.00027  -0.00523  -0.00495   3.10176
    D3       -1.06366   0.00060  -0.00033   0.00510   0.00474  -1.05892
    D4        3.12416   0.00031  -0.00052  -0.03340  -0.03394   3.09022
    D5       -1.01728   0.00009  -0.00076  -0.03875  -0.03953  -1.05681
    D6        0.96815   0.00043  -0.00061  -0.03128  -0.03191   0.93624
    D7        1.12656   0.00020  -0.00045  -0.03136  -0.03181   1.09475
    D8       -3.01488  -0.00002  -0.00069  -0.03671  -0.03739  -3.05228
    D9       -1.02945   0.00031  -0.00054  -0.02924  -0.02978  -1.05923
   D10       -1.09116  -0.00075   0.00027  -0.04892  -0.04863  -1.13979
   D11        1.05058  -0.00097   0.00004  -0.05428  -0.05422   0.99637
   D12        3.03602  -0.00063   0.00019  -0.04681  -0.04660   2.98942
   D13       -1.09324   0.00032  -0.00028   0.02065   0.02038  -1.07286
   D14        0.97164   0.00058   0.00010   0.02646   0.02656   0.99820
   D15        3.08616   0.00047  -0.00007   0.02390   0.02383   3.10999
   D16        0.95015  -0.00049   0.00027   0.00873   0.00897   0.95913
   D17        3.01503  -0.00024   0.00065   0.01453   0.01515   3.03019
   D18       -1.15363  -0.00035   0.00048   0.01197   0.01243  -1.14120
   D19        3.13801   0.00000  -0.00030   0.02013   0.01985  -3.12533
   D20       -1.08030   0.00025   0.00007   0.02594   0.02603  -1.05427
   D21        1.03423   0.00014  -0.00009   0.02337   0.02330   1.05753
   D22       -2.03020  -0.00105   0.00013  -0.04488  -0.04473  -2.07493
   D23        1.08860  -0.00087  -0.00005  -0.03411  -0.03417   1.05443
   D24        2.18172   0.00054  -0.00073  -0.02368  -0.02439   2.15733
   D25       -0.98266   0.00073  -0.00092  -0.01290  -0.01384  -0.99650
   D26       -0.01907  -0.00033  -0.00038  -0.04006  -0.04043  -0.05951
   D27        3.09973  -0.00014  -0.00057  -0.02929  -0.02988   3.06985
   D28       -3.10338  -0.00023  -0.00027  -0.01702  -0.01728  -3.12065
   D29        1.00236   0.00015  -0.00034  -0.00711  -0.00745   0.99491
   D30       -1.01512  -0.00005   0.00007  -0.01029  -0.01022  -1.02534
   D31        1.04317  -0.00001   0.00001  -0.01123  -0.01121   1.03196
   D32       -1.13427   0.00037  -0.00006  -0.00132  -0.00139  -1.13566
   D33        3.13142   0.00018   0.00034  -0.00449  -0.00415   3.12727
   D34       -0.96777  -0.00045  -0.00042  -0.02102  -0.02143  -0.98920
   D35        3.13797  -0.00007  -0.00049  -0.01111  -0.01161   3.12637
   D36        1.12049  -0.00027  -0.00008  -0.01428  -0.01437   1.10611
   D37       -1.62183  -0.00024  -0.00085  -0.06380  -0.06465  -1.68648
   D38        1.50218  -0.00035  -0.00101  -0.07070  -0.07170   1.43048
   D39        0.54593  -0.00090  -0.00102  -0.07671  -0.07773   0.46820
   D40       -2.61324  -0.00100  -0.00117  -0.08361  -0.08478  -2.69802
   D41        2.56527  -0.00034  -0.00074  -0.06781  -0.06855   2.49672
   D42       -0.59391  -0.00045  -0.00090  -0.07470  -0.07560  -0.66951
   D43        3.10727   0.00041  -0.00056   0.01486   0.01432   3.12159
   D44       -0.02697   0.00011  -0.00039   0.00528   0.00491  -0.02206
   D45       -0.01077   0.00023  -0.00036   0.00388   0.00350  -0.00727
   D46        3.13818  -0.00006  -0.00019  -0.00570  -0.00591   3.13227
   D47        3.12779   0.00000  -0.00027  -0.00218  -0.00246   3.12534
   D48       -0.02821   0.00001  -0.00080  -0.00374  -0.00454  -0.03275
   D49        0.00411   0.00011  -0.00012   0.00484   0.00471   0.00882
   D50        3.13129   0.00012  -0.00064   0.00328   0.00263   3.13392
   D51       -2.09760  -0.00025  -0.00045  -0.00283  -0.00327  -2.10087
   D52        2.11180   0.00036   0.00005   0.00744   0.00751   2.11931
   D53        0.00879  -0.00004  -0.00018   0.00103   0.00086   0.00965
   D54        1.05714  -0.00026   0.00004  -0.00145  -0.00143   1.05571
   D55       -1.01665   0.00035   0.00054   0.00882   0.00935  -1.00729
   D56       -3.11966  -0.00005   0.00031   0.00241   0.00270  -3.11695
   D57       -1.97623  -0.00026  -0.00022  -0.03212  -0.03233  -2.00855
   D58        0.14290  -0.00051  -0.00030  -0.03624  -0.03652   0.10639
   D59        2.24926   0.00007   0.00006  -0.02658  -0.02651   2.22275
   D60        1.15192  -0.00027  -0.00070  -0.03369  -0.03441   1.11751
   D61       -3.01213  -0.00052  -0.00079  -0.03781  -0.03860  -3.05074
   D62       -0.90578   0.00006  -0.00042  -0.02816  -0.02860  -0.93437
         Item               Value     Threshold  Converged?
 Maximum Force            0.002671     0.000450     NO 
 RMS     Force            0.000685     0.000300     NO 
 Maximum Displacement     0.316683     0.001800     NO 
 RMS     Displacement     0.079996     0.001200     NO 
 Predicted change in Energy=-4.134241D-04
 Lowest energy point so far.  Saving SCF results.
 GradGradGradGradGradGradGradGradGradGradGradGradGradGradGradGradGradGrad

 Leave Link  103 at Sat May  4 10:37:05 2024, MaxMem= 13421772800 cpu:               7.5 elap:               0.3
 (Enter /tmpu/scunam/7/gaussian-2016.03/g1/g16/l202.exe)
                          Input orientation:                          
 ---------------------------------------------------------------------
 Center     Atomic      Atomic             Coordinates (Angstroms)
 Number     Number       Type             X           Y           Z
 ---------------------------------------------------------------------
      1          8           0        2.601245   -1.123111   -1.324822
      2          6           0        1.924642   -0.468809   -0.226991
      3          6           0        0.416184   -0.769596   -0.355531
      4          6           0       -0.490639   -0.222565    0.758918
      5          6           0        2.530726   -1.098477    1.019457
      6          6           0        2.171177    1.019544   -0.345526
      7          6           0       -1.936413   -0.592796    0.557898
      8          6           0       -2.897099    0.144727   -0.000691
      9          6           0       -4.297782   -0.383824   -0.145430
     10          6           0       -2.700534    1.548093   -0.512494
     11          6           0        2.781292    1.816957    0.519659
     12          1           0        0.071858   -0.366333   -1.315001
     13          1           0        0.306297   -1.855091   -0.421599
     14          1           0       -0.369421    0.858989    0.835236
     15          1           0       -0.159969   -0.633780    1.716136
     16          1           0        2.323447   -2.168654    1.020843
     17          1           0        3.611617   -0.963024    1.020441
     18          1           0        2.123456   -0.664397    1.930839
     19          1           0        1.797072    1.451906   -1.273010
     20          1           0       -2.207994   -1.590764    0.894226
     21          1           0        2.235358   -0.792911   -2.153326
     22          1           0       -4.600973   -0.408642   -1.196815
     23          1           0       -5.016436    0.262081    0.369431
     24          1           0       -4.395668   -1.390893    0.260415
     25          1           0       -3.294450    2.259305    0.071047
     26          1           0       -1.662317    1.871982   -0.478597
     27          1           0       -3.048044    1.633159   -1.546679
     28          1           0        2.912228    2.870806    0.309737
     29          1           0        3.170542    1.459719    1.464030
 ---------------------------------------------------------------------
                    Distance matrix (angstroms):
                    1          2          3          4          5
     1  O    0.000000
     2  C    1.446076   0.000000
     3  C    2.416400   1.543516   0.000000
     4  C    3.835714   2.620350   1.537389   0.000000
     5  C    2.345469   1.522319   2.543629   3.156541   0.000000
     6  C    2.394776   1.513283   2.506217   3.138136   2.545284
     7  C    4.941276   3.941976   2.529886   1.505903   4.519301
     8  C    5.795906   4.865884   3.455393   2.550090   5.661055
     9  C    7.038046   6.223539   4.734389   3.916400   6.963923
    10  C    5.992000   5.053876   3.887190   3.104087   6.059479
    11  C    3.475418   2.552658   3.612472   3.862956   2.968558
    12  H    2.640191   2.151064   1.096250   2.153651   3.468683
    13  H    2.572624   2.139788   1.093041   2.166533   2.756301
    14  H    4.173659   2.855538   2.165038   1.090999   3.503778
    15  H    4.136565   2.854569   2.154577   1.093026   2.818004
    16  H    2.583114   2.146069   2.736681   3.431465   1.090067
    17  H    2.558660   2.155510   3.484467   4.176742   1.089345
    18  H    3.322353   2.175779   2.855405   2.898639   1.088536
    19  H    2.698164   2.190793   2.771947   3.488009   3.506865
    20  H    5.317110   4.426578   3.020351   2.199906   4.765868
    21  H    0.964015   1.977967   2.557734   4.029580   3.201120
    22  H    7.238701   6.597563   5.099991   4.555696   7.499925
    23  H    7.925800   7.004890   5.577031   4.568306   7.696318
    24  H    7.179239   6.405788   4.890738   4.106428   6.973994
    25  H    6.938905   5.896639   4.808847   3.807125   6.790203
    26  H    5.278697   4.290557   3.363516   2.700259   5.352514
    27  H    6.289731   5.557648   4.380974   3.911497   6.720831
    28  H    4.326646   3.523695   4.463781   4.620628   4.050241
    29  H    3.843541   2.851498   3.983358   4.090416   2.674205
                    6          7          8          9         10
     6  C    0.000000
     7  C    4.504233   0.000000
     8  C    5.154768   1.333746   0.000000
     9  C    6.622455   2.472732   1.504071   0.000000
    10  C    4.903143   2.512573   1.506657   2.533425   0.000000
    11  C    1.325388   5.297652   5.942326   7.443055   5.584626
    12  H    2.695863   2.755393   3.286838   4.523490   3.463409
    13  H    3.427403   2.753643   3.799761   4.841326   4.542131
    14  H    2.806174   2.154080   2.756466   4.235365   2.779448
    15  H    3.523943   2.121072   3.323469   4.544161   4.022665
    16  H    3.471997   4.565529   5.800808   6.956040   6.434728
    17  H    2.805586   5.579575   6.680809   8.015817   6.964112
    18  H    2.831921   4.286331   5.439804   6.754400   5.842591
    19  H    1.089549   4.633783   5.036145   6.464410   4.562466
    20  H    5.246698   1.087572   2.070670   2.627699   3.474749
    21  H    2.560714   4.979403   5.644034   6.846964   5.704004
    22  H    6.973265   3.195749   2.154093   1.094510   2.812255
    23  H    7.262692   3.202011   2.154611   1.094868   2.791956
    24  H    7.021455   2.602574   2.161484   1.090174   3.479728
    25  H    5.619930   3.196211   2.152783   2.835431   1.095025
    26  H    3.929381   2.687858   2.176348   3.485016   1.088094
    27  H    5.390692   3.258810   2.151347   2.755642   1.094320
    28  H    2.098975   5.963844   6.424652   7.923638   5.824837
    29  H    2.113523   5.578072   6.378940   7.859063   6.195482
                   11         12         13         14         15
    11  C    0.000000
    12  H    3.933671   0.000000
    13  H    4.527196   1.752007   0.000000
    14  H    3.308214   2.513894   3.066343   0.000000
    15  H    4.011071   3.051731   2.505776   1.745913   0.000000
    16  H    4.043007   3.711359   2.499571   4.056182   3.001105
    17  H    2.944235   4.282549   3.714890   4.382088   3.849319
    18  H    2.929386   3.851413   3.202153   3.120174   2.293701
    19  H    2.077405   2.506814   3.726062   3.080575   4.137039
    20  H    6.053581   3.402594   2.850074   3.063515   2.405361
    21  H    3.775487   2.359129   2.801496   4.294782   4.553641
    22  H    7.899203   4.674517   5.174406   4.862321   5.315871
    23  H    7.952658   5.396568   5.782701   4.708293   5.118735
    24  H    7.865511   4.846695   4.773793   4.647909   4.542410
    25  H    6.108319   4.488556   5.489657   3.331766   4.571786
    26  H    4.554690   2.952455   4.215419   2.103305   3.654140
    27  H    6.187462   3.712874   4.968430   3.667136   4.911817
    28  H    1.082501   4.602884   5.446084   3.884942   4.868108
    29  H    1.082115   4.545253   4.769430   3.645215   3.941903
                   16         17         18         19         20
    16  H    0.000000
    17  H    1.764349   0.000000
    18  H    1.769429   1.769923   0.000000
    19  H    4.318251   3.792674   3.853559   0.000000
    20  H    4.569896   5.854730   4.549086   5.476798   0.000000
    21  H    3.460604   3.463499   4.087719   2.450766   5.446790
    22  H    7.480859   8.524682   7.420619   6.663515   3.390607
    23  H    7.759297   8.738878   7.367117   7.108951   3.405259
    24  H    6.806590   8.054646   6.768832   6.984478   2.286391
    25  H    7.215934   7.679747   6.431218   5.327474   4.084243
    26  H    5.870381   6.172419   5.154676   3.574204   3.764707
    27  H    7.063913   7.594824   6.642011   4.856223   4.130059
    28  H    5.123328   3.961375   3.968349   2.400404   6.816444
    29  H    3.752210   2.502199   2.413746   3.062331   6.209571
                   21         22         23         24         25
    21  H    0.000000
    22  H    6.913610   0.000000
    23  H    7.750214   1.753740   0.000000
    24  H    7.081965   1.769318   1.769056   0.000000
    25  H    6.696464   3.229926   2.653898   3.817393   0.000000
    26  H    5.009815   3.788507   3.815894   4.320150   1.765215
    27  H    5.845355   2.589005   3.070163   3.771813   1.752087
    28  H    4.466280   8.335027   8.347018   8.459897   6.241294
    29  H    4.362818   8.424210   8.346202   8.174485   6.661521
                   26         27         28         29
    26  H    0.000000
    27  H    1.765807   0.000000
    28  H    4.748219   6.364188   0.000000
    29  H    5.224968   6.911242   1.841273   0.000000
 Stoichiometry    C10H18O
 Framework group  C1[X(C10H18O)]
 Deg. of freedom    81
 Full point group                 C1      NOp   1
 RotChk:  IX=0 Diff= 2.66D-02
 Largest Abelian subgroup         C1      NOp   1
 Largest concise Abelian subgroup C1      NOp   1
                         Standard orientation:                         
 ---------------------------------------------------------------------
 Center     Atomic      Atomic             Coordinates (Angstroms)
 Number     Number       Type             X           Y           Z
 ---------------------------------------------------------------------
      1          8           0       -2.628871   -0.978500    1.364453
      2          6           0       -1.941597   -0.379708    0.241849
      3          6           0       -0.443422   -0.730480    0.363807
      4          6           0        0.469930   -0.247537   -0.774665
      5          6           0       -2.583246   -1.021897   -0.980171
      6          6           0       -2.133934    1.119231    0.320658
      7          6           0        1.903799   -0.663418   -0.577670
      8          6           0        2.896080    0.054633   -0.049788
      9          6           0        4.278662   -0.519366    0.095884
     10          6           0        2.754983    1.477874    0.424019
     11          6           0       -2.724870    1.913450   -0.560628
     12          1           0       -0.074521   -0.313130    1.307997
     13          1           0       -0.371342   -1.816938    0.459477
     14          1           0        0.386274    0.835102   -0.880357
     15          1           0        0.114418   -0.673257   -1.716515
     16          1           0       -2.414038   -2.098417   -0.953328
     17          1           0       -3.658605   -0.848000   -0.974213
     18          1           0       -2.170876   -0.628272   -1.907491
     19          1           0       -1.734594    1.563693    1.231755
     20          1           0        2.136148   -1.679456   -0.888304
     21          1           0       -2.242448   -0.638566    2.179589
     22          1           0        4.592300   -0.525619    1.144476
     23          1           0        5.014056    0.085820   -0.444194
     24          1           0        4.336351   -1.540233   -0.282247
     25          1           0        3.367284    2.150837   -0.185313
     26          1           0        1.728583    1.837570    0.391319
     27          1           0        3.116613    1.579329    1.451865
     28          1           0       -2.816078    2.976756   -0.379327
     29          1           0       -3.136869    1.544103   -1.490581
 ---------------------------------------------------------------------
 Rotational constants (GHZ):           1.9631795           0.4720579           0.4374380
 Leave Link  202 at Sat May  4 10:37:05 2024, MaxMem= 13421772800 cpu:               2.7 elap:               0.1
 (Enter /tmpu/scunam/7/gaussian-2016.03/g1/g16/l301.exe)
 Standard basis: def2TZVP (5D, 7F)
 Ernie: Thresh=  0.10000D-02 Tol=  0.10000D-05 Strict=F.
 There are   504 symmetry adapted cartesian basis functions of A   symmetry.
 There are   449 symmetry adapted basis functions of A   symmetry.
   449 basis functions,   705 primitive gaussians,   504 cartesian basis functions
    43 alpha electrons       43 beta electrons
       nuclear repulsion energy       620.2874652648 Hartrees.
 IExCor=  402 DFT=T Ex+Corr=B3LYP ExCW=0 ScaHFX=  0.200000
 ScaDFX=  0.800000  0.720000  1.000000  0.810000 ScalE2=  1.000000  1.000000
 IRadAn=      5 IRanWt=     -1 IRanGd=            0 ICorTp=0 IEmpDi=  4
 NAtoms=   29 NActive=   29 NUniq=   29 SFac= 1.00D+00 NAtFMM=   60 NAOKFM=F Big=F
 Integral buffers will be    131072 words long.
 Raffenetti 2 integral format.
 Two-electron integral symmetry is turned on.
 Leave Link  301 at Sat May  4 10:37:05 2024, MaxMem= 13421772800 cpu:               1.5 elap:               0.1
 (Enter /tmpu/scunam/7/gaussian-2016.03/g1/g16/l302.exe)
 NPDir=0 NMtPBC=     1 NCelOv=     1 NCel=       1 NClECP=     1 NCelD=      1
         NCelK=      1 NCelE2=     1 NClLst=     1 CellRange=     0.0.
 One-electron integrals computed using PRISM.
 One-electron integral symmetry used in STVInt
   1 Symmetry operations used in ECPInt.
 ECPInt:  NShTT=   18721 NPrTT=   54252 LenC2=   17477 LenP2D=   38708.
 LDataN:  DoStor=T MaxTD1= 6 Len=  172
 NBasis=   449 RedAO= T EigKep=  6.56D-05  NBF=   449
 NBsUse=   449 1.00D-06 EigRej= -1.00D+00 NBFU=   449
 Precomputing XC quadrature grid using
 IXCGrd= 4 IRadAn=           5 IRanWt=          -1 IRanGd=           0 AccXCQ= 0.00D+00.
 Generated NRdTot=       0 NPtTot=           0 NUsed=           0 NTot=          32
 NSgBfM=   501   501   501   501   501 MxSgAt=    29 MxSgA2=    29.
 Leave Link  302 at Sat May  4 10:37:06 2024, MaxMem= 13421772800 cpu:              19.2 elap:               0.6
 (Enter /tmpu/scunam/7/gaussian-2016.03/g1/g16/l303.exe)
 DipDrv:  MaxL=1.
 Leave Link  303 at Sat May  4 10:37:06 2024, MaxMem= 13421772800 cpu:               4.5 elap:               0.2
 (Enter /tmpu/scunam/7/gaussian-2016.03/g1/g16/l401.exe)
 Initial guess from the checkpoint file:  "linalool.chk"
 B after Tr=    -0.000000    0.000000   -0.000000
         Rot=    0.999924   -0.011808    0.001625    0.003016 Ang=  -1.41 deg.
 Guess basis will be translated and rotated to current coordinates.
 JPrj=2 DoOrth=T DoCkMO=T.
 Generating alternative initial guess.
 ExpMin= 9.52D-02 ExpMax= 2.70D+04 ExpMxC= 9.22D+02 IAcc=2 IRadAn=         4 AccDes= 0.00D+00
 Harris functional with IExCor=  402 and IRadAn=       4 diagonalized for initial guess.
 HarFok:  IExCor=  402 AccDes= 0.00D+00 IRadAn=         4 IDoV= 1 UseB2=F ITyADJ=14
 ICtDFT=  3500011 ScaDFX=  1.000000  1.000000  1.000000  1.000000
 FoFCou: FMM=F IPFlag=           0 FMFlag=      100000 FMFlg1=           0
         NFxFlg=           0 DoJE=T BraDBF=F KetDBF=T FulRan=T
         wScrn=  0.000000 ICntrl=       500 IOpCl=  0 I1Cent=   200000004 NGrid=           0
         NMat0=    1 NMatS0=      1 NMatT0=    0 NMatD0=    1 NMtDS0=    0 NMtDT0=    0
 Petite list used in FoFCou.
 Harris En= -467.407178392921    
 Leave Link  401 at Sat May  4 10:37:08 2024, MaxMem= 13421772800 cpu:              39.4 elap:               1.3
 (Enter /tmpu/scunam/7/gaussian-2016.03/g1/g16/l502.exe)
 Integral symmetry usage will be decided dynamically.
 Closed shell SCF:
 Using DIIS extrapolation, IDIIS=  1040.
 NGot= 13421772800 LenX= 13421243903 LenY= 13420989383
 Requested convergence on RMS density matrix=1.00D-08 within 128 cycles.
 Requested convergence on MAX density matrix=1.00D-06.
 Requested convergence on             energy=1.00D-06.
 No special actions if energy rises.
 Fock matrices will be formed incrementally for  20 cycles.
 Integral accuracy reduced to 1.0D-05 until final iterations.

 Cycle   1  Pass 0  IDiag  1:
 FoFJK:  IHMeth= 1 ICntrl=       0 DoSepK=F KAlg= 0 I1Cent=           0 FoldK=F
 IRaf= 880000000 NMat=       1 IRICut=       1 DoRegI=T DoRafI=F ISym2E= 0 IDoP0=0 IntGTp=1.
 FoFCou: FMM=F IPFlag=           0 FMFlag=      100000 FMFlg1=           0
         NFxFlg=           0 DoJE=F BraDBF=F KetDBF=F FulRan=T
         wScrn=  0.000000 ICntrl=         0 IOpCl=  0 I1Cent=           0 NGrid=           0
         NMat0=    1 NMatS0=      1 NMatT0=    0 NMatD0=    1 NMtDS0=    0 NMtDT0=    0
 Symmetry not used in FoFCou.
 E= -467.263193133006    
 DIIS: error= 2.57D-03 at cycle   1 NSaved=   1.
 NSaved= 1 IEnMin= 1 EnMin= -467.263193133006     IErMin= 1 ErrMin= 2.57D-03
 ErrMax= 2.57D-03  0.00D+00 EMaxC= 1.00D-01 BMatC= 7.65D-03 BMatP= 7.65D-03
 IDIUse=3 WtCom= 9.74D-01 WtEn= 2.57D-02
 Coeff-Com:  0.100D+01
 Coeff-En:   0.100D+01
 Coeff:      0.100D+01
 Gap=     0.623 Goal=   None    Shift=    0.000
 GapD=    0.623 DampG=2.000 DampE=1.000 DampFc=2.0000 IDamp=-1.
 RMSDP=2.61D-04 MaxDP=7.04D-03              OVMax= 2.29D-02

 Cycle   2  Pass 0  IDiag  1:
 RMSU=  2.61D-04    CP:  1.00D+00
 E= -467.273069360635     Delta-E=       -0.009876227629 Rises=F Damp=F
 DIIS: error= 3.92D-04 at cycle   2 NSaved=   2.
 NSaved= 2 IEnMin= 2 EnMin= -467.273069360635     IErMin= 2 ErrMin= 3.92D-04
 ErrMax= 3.92D-04  0.00D+00 EMaxC= 1.00D-01 BMatC= 7.43D-05 BMatP= 7.65D-03
 IDIUse=3 WtCom= 9.96D-01 WtEn= 3.92D-03
 Coeff-Com: -0.481D-01 0.105D+01
 Coeff-En:   0.000D+00 0.100D+01
 Coeff:     -0.479D-01 0.105D+01
 Gap=     0.232 Goal=   None    Shift=    0.000
 RMSDP=4.53D-05 MaxDP=1.30D-03 DE=-9.88D-03 OVMax= 3.70D-03

 Cycle   3  Pass 0  IDiag  1:
 RMSU=  4.34D-05    CP:  9.99D-01  1.05D+00
 E= -467.273166509029     Delta-E=       -0.000097148395 Rises=F Damp=F
 DIIS: error= 2.77D-04 at cycle   3 NSaved=   3.
 NSaved= 3 IEnMin= 3 EnMin= -467.273166509029     IErMin= 3 ErrMin= 2.77D-04
 ErrMax= 2.77D-04  0.00D+00 EMaxC= 1.00D-01 BMatC= 5.93D-05 BMatP= 7.43D-05
 IDIUse=3 WtCom= 9.97D-01 WtEn= 2.77D-03
 Coeff-Com: -0.300D-01 0.530D+00 0.500D+00
 Coeff-En:   0.000D+00 0.000D+00 0.100D+01
 Coeff:     -0.299D-01 0.528D+00 0.502D+00
 Gap=     0.233 Goal=   None    Shift=    0.000
 RMSDP=2.24D-05 MaxDP=9.77D-04 DE=-9.71D-05 OVMax= 1.55D-03

 Cycle   4  Pass 0  IDiag  1:
 RMSU=  1.67D-05    CP:  9.99D-01  1.06D+00  6.65D-01
 E= -467.273208237747     Delta-E=       -0.000041728717 Rises=F Damp=F
 DIIS: error= 1.02D-04 at cycle   4 NSaved=   4.
 NSaved= 4 IEnMin= 4 EnMin= -467.273208237747     IErMin= 4 ErrMin= 1.02D-04
 ErrMax= 1.02D-04  0.00D+00 EMaxC= 1.00D-01 BMatC= 7.43D-06 BMatP= 5.93D-05
 IDIUse=3 WtCom= 9.99D-01 WtEn= 1.02D-03
 Coeff-Com: -0.662D-02 0.830D-01 0.267D+00 0.657D+00
 Coeff-En:   0.000D+00 0.000D+00 0.619D-01 0.938D+00
 Coeff:     -0.661D-02 0.829D-01 0.267D+00 0.657D+00
 Gap=     0.233 Goal=   None    Shift=    0.000
 RMSDP=6.87D-06 MaxDP=3.13D-04 DE=-4.17D-05 OVMax= 5.76D-04

 Initial convergence to 1.0D-05 achieved.  Increase integral accuracy.
 Cycle   5  Pass 1  IDiag  1:
 E= -467.273175817356     Delta-E=        0.000032420391 Rises=F Damp=F
 DIIS: error= 1.84D-04 at cycle   1 NSaved=   1.
 NSaved= 1 IEnMin= 1 EnMin= -467.273175817356     IErMin= 1 ErrMin= 1.84D-04
 ErrMax= 1.84D-04  0.00D+00 EMaxC= 1.00D-01 BMatC= 6.26D-06 BMatP= 6.26D-06
 IDIUse=3 WtCom= 9.98D-01 WtEn= 1.84D-03
 Coeff-Com:  0.100D+01
 Coeff-En:   0.100D+01
 Coeff:      0.100D+01
 Gap=     0.233 Goal=   None    Shift=    0.000
 RMSDP=6.87D-06 MaxDP=3.13D-04 DE= 3.24D-05 OVMax= 5.30D-04

 Cycle   6  Pass 1  IDiag  1:
 RMSU=  1.33D-04    CP:  1.00D+00
 E= -467.273178868118     Delta-E=       -0.000003050762 Rises=F Damp=F
 DIIS: error= 3.11D-05 at cycle   2 NSaved=   2.
 NSaved= 2 IEnMin= 2 EnMin= -467.273178868118     IErMin= 2 ErrMin= 3.11D-05
 ErrMax= 3.11D-05  0.00D+00 EMaxC= 1.00D-01 BMatC= 1.12D-06 BMatP= 6.26D-06
 IDIUse=1 WtCom= 1.00D+00 WtEn= 0.00D+00
 Coeff-Com:  0.206D+00 0.794D+00
 Coeff:      0.206D+00 0.794D+00
 Gap=     0.233 Goal=   None    Shift=    0.000
 RMSDP=4.13D-06 MaxDP=2.21D-04 DE=-3.05D-06 OVMax= 7.09D-04

 Cycle   7  Pass 1  IDiag  1:
 RMSU=  3.84D-06    CP:  1.00D+00  1.01D+00
 E= -467.273178566612     Delta-E=        0.000000301506 Rises=F Damp=F
 DIIS: error= 3.64D-05 at cycle   3 NSaved=   3.
 NSaved= 3 IEnMin= 2 EnMin= -467.273178868118     IErMin= 2 ErrMin= 3.11D-05
 ErrMax= 3.64D-05  0.00D+00 EMaxC= 1.00D-01 BMatC= 1.47D-06 BMatP= 1.12D-06
 IDIUse=1 WtCom= 1.00D+00 WtEn= 0.00D+00
 Coeff-Com:  0.426D-02 0.533D+00 0.463D+00
 Coeff:      0.426D-02 0.533D+00 0.463D+00
 Gap=     0.233 Goal=   None    Shift=    0.000
 RMSDP=2.19D-06 MaxDP=1.26D-04 DE= 3.02D-07 OVMax= 4.41D-04

 Cycle   8  Pass 1  IDiag  1:
 RMSU=  8.47D-07    CP:  1.00D+00  1.01D+00  4.87D-01
 E= -467.273179841881     Delta-E=       -0.000001275269 Rises=F Damp=F
 DIIS: error= 6.04D-06 at cycle   4 NSaved=   4.
 NSaved= 4 IEnMin= 4 EnMin= -467.273179841881     IErMin= 4 ErrMin= 6.04D-06
 ErrMax= 6.04D-06  0.00D+00 EMaxC= 1.00D-01 BMatC= 3.01D-08 BMatP= 1.12D-06
 IDIUse=1 WtCom= 1.00D+00 WtEn= 0.00D+00
 Coeff-Com: -0.201D-02 0.295D+00 0.273D+00 0.434D+00
 Coeff:     -0.201D-02 0.295D+00 0.273D+00 0.434D+00
 Gap=     0.233 Goal=   None    Shift=    0.000
 RMSDP=3.38D-07 MaxDP=1.71D-05 DE=-1.28D-06 OVMax= 6.05D-05

 Cycle   9  Pass 1  IDiag  1:
 RMSU=  2.37D-07    CP:  1.00D+00  1.01D+00  4.92D-01  7.19D-01
 E= -467.273179871236     Delta-E=       -0.000000029355 Rises=F Damp=F
 DIIS: error= 1.09D-06 at cycle   5 NSaved=   5.
 NSaved= 5 IEnMin= 5 EnMin= -467.273179871236     IErMin= 5 ErrMin= 1.09D-06
 ErrMax= 1.09D-06  0.00D+00 EMaxC= 1.00D-01 BMatC= 5.80D-10 BMatP= 3.01D-08
 IDIUse=1 WtCom= 1.00D+00 WtEn= 0.00D+00
 Coeff-Com: -0.118D-02 0.133D+00 0.124D+00 0.222D+00 0.522D+00
 Coeff:     -0.118D-02 0.133D+00 0.124D+00 0.222D+00 0.522D+00
 Gap=     0.233 Goal=   None    Shift=    0.000
 RMSDP=7.54D-08 MaxDP=2.80D-06 DE=-2.94D-08 OVMax= 8.86D-06

 Cycle  10  Pass 1  IDiag  1:
 RMSU=  7.00D-08    CP:  1.00D+00  1.01D+00  4.97D-01  7.12D-01  9.22D-01
 E= -467.273179871757     Delta-E=       -0.000000000521 Rises=F Damp=F
 DIIS: error= 2.65D-07 at cycle   6 NSaved=   6.
 NSaved= 6 IEnMin= 6 EnMin= -467.273179871757     IErMin= 6 ErrMin= 2.65D-07
 ErrMax= 2.65D-07  0.00D+00 EMaxC= 1.00D-01 BMatC= 6.46D-11 BMatP= 5.80D-10
 IDIUse=1 WtCom= 1.00D+00 WtEn= 0.00D+00
 Coeff-Com: -0.529D-03 0.537D-01 0.502D-01 0.935D-01 0.300D+00 0.503D+00
 Coeff:     -0.529D-03 0.537D-01 0.502D-01 0.935D-01 0.300D+00 0.503D+00
 Gap=     0.233 Goal=   None    Shift=    0.000
 RMSDP=2.22D-08 MaxDP=1.36D-06 DE=-5.21D-10 OVMax= 2.62D-06

 Cycle  11  Pass 1  IDiag  1:
 RMSU=  2.07D-08    CP:  1.00D+00  1.01D+00  4.96D-01  7.12D-01  9.44D-01
                    CP:  9.44D-01
 E= -467.273179871800     Delta-E=       -0.000000000043 Rises=F Damp=F
 DIIS: error= 5.54D-08 at cycle   7 NSaved=   7.
 NSaved= 7 IEnMin= 7 EnMin= -467.273179871800     IErMin= 7 ErrMin= 5.54D-08
 ErrMax= 5.54D-08  0.00D+00 EMaxC= 1.00D-01 BMatC= 2.96D-12 BMatP= 6.46D-11
 IDIUse=1 WtCom= 1.00D+00 WtEn= 0.00D+00
 Coeff-Com: -0.144D-04-0.562D-03-0.492D-03 0.426D-03 0.306D-01 0.184D+00
 Coeff-Com:  0.786D+00
 Coeff:     -0.144D-04-0.562D-03-0.492D-03 0.426D-03 0.306D-01 0.184D+00
 Coeff:      0.786D+00
 Gap=     0.233 Goal=   None    Shift=    0.000
 RMSDP=6.45D-09 MaxDP=2.26D-07 DE=-4.32D-11 OVMax= 6.67D-07

 SCF Done:  E(RB3LYP) =  -467.273179872     A.U. after   11 cycles
            NFock= 11  Conv=0.64D-08     -V/T= 2.0054
 KE= 4.647778561630D+02 PE=-2.325861862460D+03 EE= 7.735233611606D+02
 Leave Link  502 at Sat May  4 10:37:57 2024, MaxMem= 13421772800 cpu:            1567.9 elap:              49.1
 (Enter /tmpu/scunam/7/gaussian-2016.03/g1/g16/l508.exe)
 QCSCF skips out because SCF is already converged.
 Leave Link  508 at Sat May  4 10:37:57 2024, MaxMem= 13421772800 cpu:               0.2 elap:               0.0
 (Enter /tmpu/scunam/7/gaussian-2016.03/g1/g16/l701.exe)
 ... and contract with generalized density number  0.
 Compute integral first derivatives.
   1 Symmetry operations used in ECPInt.
 ECPInt:  NShTT=   18721 NPrTT=   54252 LenC2=   17477 LenP2D=   38708.
 LDataN:  DoStor=T MaxTD1= 7 Len=  274
 Leave Link  701 at Sat May  4 10:37:57 2024, MaxMem= 13421772800 cpu:              12.4 elap:               0.4
 (Enter /tmpu/scunam/7/gaussian-2016.03/g1/g16/l702.exe)
 L702 exits ... SP integral derivatives will be done elsewhere.
 Leave Link  702 at Sat May  4 10:37:57 2024, MaxMem= 13421772800 cpu:               1.6 elap:               0.1
 (Enter /tmpu/scunam/7/gaussian-2016.03/g1/g16/l703.exe)
 Integral derivatives from FoFJK, PRISM(SPDF).
 Compute integral first derivatives, UseDBF=F ICtDFT=           0.
 Calling FoFJK, ICntrl=      2127 FMM=F ISym2X=0 I1Cent= 0 IOpClX= 0 NMat=1 NMatS=1 NMatT=0.
 FoFJK:  IHMeth= 1 ICntrl=    2127 DoSepK=F KAlg= 0 I1Cent=           0 FoldK=F
 IRaf=         0 NMat=       1 IRICut=       1 DoRegI=T DoRafI=F ISym2E= 0 IDoP0=0 IntGTp=1.
 FoFCou: FMM=F IPFlag=           0 FMFlag=      100000 FMFlg1=         800
         NFxFlg=           0 DoJE=F BraDBF=F KetDBF=F FulRan=T
         wScrn=  0.000000 ICntrl=      2127 IOpCl=  0 I1Cent=           0 NGrid=           0
         NMat0=    1 NMatS0=      1 NMatT0=    0 NMatD0=    1 NMtDS0=    0 NMtDT0=    0
 Symmetry not used in FoFCou.
 Leave Link  703 at Sat May  4 10:38:18 2024, MaxMem= 13421772800 cpu:             672.8 elap:              21.1
 (Enter /tmpu/scunam/7/gaussian-2016.03/g1/g16/l716.exe)
 Dipole        = 5.40810864D-01 4.08483758D-01 3.55504281D-02
 ***** Axes restored to original set *****
 -------------------------------------------------------------------
 Center     Atomic                   Forces (Hartrees/Bohr)
 Number     Number              X              Y              Z
 -------------------------------------------------------------------
      1        8           0.000431300   -0.000024870    0.000340209
      2        6          -0.000393932   -0.000268345   -0.000069422
      3        6          -0.000440695   -0.000282837   -0.000070435
      4        6          -0.000706333    0.000184207    0.000598760
      5        6           0.000259133    0.000208028   -0.000183961
      6        6           0.000085674   -0.000303829   -0.000458844
      7        6           0.002303809   -0.000986491    0.000084419
      8        6          -0.001309768    0.002536449    0.000105286
      9        6          -0.000488036   -0.000167688    0.000255392
     10        6           0.000113403   -0.000831011    0.000046033
     11        6          -0.000375378    0.000254370    0.000353409
     12        1          -0.000173141   -0.000037519    0.000012528
     13        1           0.000069661   -0.000326156   -0.000064519
     14        1           0.000198421   -0.000003655   -0.000389455
     15        1          -0.000149523    0.000199521    0.000442417
     16        1          -0.000057811   -0.000212202    0.000031488
     17        1           0.000279443    0.000054846   -0.000036119
     18        1          -0.000141963    0.000163377    0.000375505
     19        1           0.000194879   -0.000240224   -0.000204214
     20        1           0.000362128   -0.000310329   -0.000689693
     21        1          -0.000275829    0.000221584   -0.000494895
     22        1          -0.000106649    0.000006083   -0.000284380
     23        1          -0.000108205    0.000139047    0.000052239
     24        1           0.000098623   -0.000023663   -0.000011593
     25        1          -0.000225843   -0.000176795    0.000074339
     26        1          -0.000080074    0.000277533   -0.000045447
     27        1           0.000207338   -0.000196625   -0.000123590
     28        1           0.000104856    0.000215512    0.000138418
     29        1           0.000324512   -0.000068321    0.000216128
 -------------------------------------------------------------------
 Cartesian Forces:  Max     0.002536449 RMS     0.000488265
 Leave Link  716 at Sat May  4 10:38:18 2024, MaxMem= 13421772800 cpu:               0.6 elap:               0.0
 (Enter /tmpu/scunam/7/gaussian-2016.03/g1/g16/l103.exe)

 GradGradGradGradGradGradGradGradGradGradGradGradGradGradGradGradGradGrad
 Berny optimization.
 Using GEDIIS/GDIIS optimizer.
 FormGI is forming the generalized inverse of G from B-inverse, IUseBI=4.
 Internal  Forces:  Max     0.002202772 RMS     0.000306414
 Search for a local minimum.
 Step number   3 out of a maximum of  174
 All quantities printed in internal units (Hartrees-Bohrs-Radians)
 RMS Force = .30641D-03 SwitMx=.10000D-02 MixMth= 2
 Mixed Optimization -- En-DIIS/RFO-DIIS
 Swapping is turned off.
 Update second derivatives using D2CorX and points    1    2    3
 DE= -5.03D-04 DEPred=-4.13D-04 R= 1.22D+00
 TightC=F SS=  1.41D+00  RLast= 2.61D-01 DXNew= 8.4853D-01 7.8347D-01
 Trust test= 1.22D+00 RLast= 2.61D-01 DXMaxT set to 7.83D-01
 ITU=  1  1  0
     Eigenvalues ---    0.00243   0.00313   0.00330   0.00383   0.00589
     Eigenvalues ---    0.00701   0.00733   0.01183   0.01312   0.01550
     Eigenvalues ---    0.01567   0.02816   0.02912   0.02919   0.03121
     Eigenvalues ---    0.04091   0.04520   0.04700   0.05445   0.05457
     Eigenvalues ---    0.05725   0.06609   0.06926   0.07057   0.07232
     Eigenvalues ---    0.07287   0.08205   0.08942   0.09335   0.12613
     Eigenvalues ---    0.12860   0.15288   0.15998   0.16000   0.16000
     Eigenvalues ---    0.16000   0.16000   0.16000   0.16000   0.16000
     Eigenvalues ---    0.16000   0.16000   0.16000   0.16180   0.16350
     Eigenvalues ---    0.16685   0.17510   0.21900   0.21964   0.22354
     Eigenvalues ---    0.22969   0.23860   0.25331   0.28057   0.29166
     Eigenvalues ---    0.29600   0.31215   0.31919   0.32060   0.32858
     Eigenvalues ---    0.33733   0.33800   0.34075   0.34085   0.34141
     Eigenvalues ---    0.34158   0.34212   0.34229   0.34277   0.34286
     Eigenvalues ---    0.34357   0.34508   0.34762   0.34909   0.35023
     Eigenvalues ---    0.35417   0.35660   0.40232   0.52988   0.57032
     Eigenvalues ---    0.59176
 En-DIIS/RFO-DIIS/Sim-DIIS IScMMF=       -3 using points:     3    2
 RFO step:  Lambda=-4.00332079D-04.
 NNeg= 0 NGDIIS= 2 SimSw=  2.50D-03 Rises=F DC= -5.03D-04 SmlDif=  1.00D-05
 NRisDI= 0 DoIntr=F SqrtH=F CThrHd= 10.0 CDAdj=  3.0
 RMS Error=  0.2565455680D-01 NUsed= 2 OKEnD=T EnDIS=F
 InvSVX:  RCond= 1.28D-02 Info=           0 Equed=N FErr=  6.06D-15 BErr=  5.29D-17
 DidBck=F Rises=F RFO-DIIS coefs:    2.10039   -1.10039
 Iteration  1 RMS(Cart)=  0.08502987 RMS(Int)=  0.00193201
 Iteration  2 RMS(Cart)=  0.00329491 RMS(Int)=  0.00002141
 Iteration  3 RMS(Cart)=  0.00000445 RMS(Int)=  0.00002125
 Iteration  4 RMS(Cart)=  0.00000000 RMS(Int)=  0.00002125
 ITry= 1 IFail=0 DXMaxC= 3.27D-01 DCOld= 1.00D+10 DXMaxT= 7.83D-01 DXLimC= 3.00D+00 Rises=F
 Variable       Old X    -DE/DX   Delta X   Delta X   Delta X     New X
                                 (Linear)    (Quad)   (Total)
    R1        2.73269   0.00010  -0.00124   0.00208   0.00084   2.73352
    R2        1.82172   0.00061  -0.00146   0.00165   0.00018   1.82191
    R3        2.91682   0.00043  -0.00509   0.00515   0.00006   2.91688
    R4        2.87677   0.00020   0.00602  -0.00441   0.00160   2.87837
    R5        2.85969  -0.00009   0.00638  -0.00494   0.00144   2.86113
    R6        2.90525   0.00024   0.00075   0.00123   0.00198   2.90723
    R7        2.07161   0.00003  -0.00015  -0.00016  -0.00031   2.07130
    R8        2.06555   0.00032  -0.00101   0.00130   0.00029   2.06583
    R9        2.84574  -0.00073  -0.00579   0.00092  -0.00487   2.84087
   R10        2.06169  -0.00001   0.00006  -0.00047  -0.00041   2.06127
   R11        2.06552   0.00027   0.00016   0.00065   0.00081   2.06633
   R12        2.05993   0.00022  -0.00172   0.00136  -0.00036   2.05957
   R13        2.05856   0.00028  -0.00359   0.00280  -0.00080   2.05777
   R14        2.05704   0.00043  -0.00080   0.00168   0.00087   2.05791
   R15        2.50462   0.00073  -0.00334   0.00258  -0.00076   2.50386
   R16        2.05895   0.00001   0.00151  -0.00096   0.00054   2.05949
   R17        2.52042   0.00220  -0.00412   0.00699   0.00287   2.52328
   R18        2.05521  -0.00002  -0.00166   0.00089  -0.00077   2.05444
   R19        2.84228   0.00058   0.00749  -0.00236   0.00513   2.84741
   R20        2.84717  -0.00085  -0.00826   0.00201  -0.00625   2.84092
   R21        2.06832   0.00030   0.00153   0.00021   0.00174   2.07007
   R22        2.06900   0.00018   0.00173  -0.00042   0.00131   2.07031
   R23        2.06013   0.00001  -0.00271   0.00133  -0.00138   2.05875
   R24        2.06930   0.00005  -0.00066   0.00063  -0.00003   2.06927
   R25        2.05620   0.00000   0.00104  -0.00113  -0.00009   2.05611
   R26        2.06797   0.00004  -0.00126   0.00082  -0.00043   2.06753
   R27        2.04563   0.00020  -0.00020   0.00063   0.00044   2.04607
   R28        2.04490   0.00033  -0.00004   0.00122   0.00118   2.04609
    A1        1.89642  -0.00009   0.00324  -0.00265   0.00058   1.89700
    A2        1.88164   0.00005  -0.01489   0.01391  -0.00100   1.88064
    A3        1.82159   0.00006   0.00144  -0.00100   0.00049   1.82208
    A4        1.88528  -0.00006  -0.00478   0.00236  -0.00249   1.88279
    A5        1.95700   0.00020   0.00866  -0.00227   0.00638   1.96338
    A6        1.92234   0.00007  -0.00276   0.00122  -0.00167   1.92068
    A7        1.98896  -0.00031   0.01054  -0.01248  -0.00195   1.98701
    A8        2.03392  -0.00024  -0.00367   0.00243  -0.00125   2.03267
    A9        1.88406   0.00018  -0.00225   0.00142  -0.00085   1.88321
   A10        1.87215   0.00001  -0.00247   0.00065  -0.00182   1.87033
   A11        1.89473  -0.00007  -0.00133  -0.00189  -0.00323   1.89149
   A12        1.91546   0.00019   0.00178   0.00134   0.00311   1.91857
   A13        1.85546  -0.00005   0.00923  -0.00463   0.00461   1.86007
   A14        1.96281  -0.00060  -0.00154  -0.00163  -0.00319   1.95962
   A15        1.91549   0.00011  -0.00869   0.00475  -0.00397   1.91152
   A16        1.89919   0.00022   0.00064  -0.00069  -0.00004   1.89915
   A17        1.93878   0.00028  -0.00242   0.00392   0.00144   1.94022
   A18        1.89110   0.00010   0.00663  -0.00370   0.00293   1.89403
   A19        1.85260  -0.00008   0.00624  -0.00297   0.00327   1.85587
   A20        1.90860   0.00003  -0.00116  -0.00021  -0.00137   1.90723
   A21        1.92234  -0.00007  -0.00490   0.00172  -0.00318   1.91917
   A22        1.95156   0.00004  -0.00196   0.00083  -0.00115   1.95041
   A23        1.88678   0.00002   0.00854  -0.00327   0.00527   1.89205
   A24        1.89577  -0.00003  -0.00140   0.00129  -0.00012   1.89566
   A25        1.89748   0.00001   0.00134  -0.00052   0.00081   1.89829
   A26        2.23394  -0.00023   0.00691  -0.00564   0.00125   2.23518
   A27        1.98344  -0.00010  -0.01165   0.00460  -0.00707   1.97636
   A28        2.06575   0.00033   0.00491   0.00098   0.00587   2.07162
   A29        2.22874   0.00069  -0.00610   0.00882   0.00270   2.23144
   A30        2.00872  -0.00054   0.00380  -0.00621  -0.00242   2.00630
   A31        2.04549  -0.00015   0.00217  -0.00252  -0.00036   2.04513
   A32        2.11386  -0.00013  -0.01354   0.00444  -0.00912   2.10474
   A33        2.16924   0.00047   0.00925   0.00042   0.00966   2.17890
   A34        1.99998  -0.00034   0.00427  -0.00471  -0.00046   1.99952
   A35        1.93733   0.00004   0.00348  -0.00152   0.00196   1.93928
   A36        1.93767   0.00000   0.00594  -0.00329   0.00265   1.94032
   A37        1.95241  -0.00013   0.00128  -0.00175  -0.00048   1.95193
   A38        1.85800  -0.00002  -0.01435   0.00725  -0.00710   1.85091
   A39        1.88787   0.00003   0.00098  -0.00016   0.00082   1.88869
   A40        1.88701   0.00009   0.00183  -0.00001   0.00180   1.88881
   A41        1.93177  -0.00040  -0.00408   0.00009  -0.00401   1.92776
   A42        1.97269   0.00052  -0.00716   0.00813   0.00096   1.97364
   A43        1.93051  -0.00024   0.00171  -0.00280  -0.00110   1.92941
   A44        1.88345   0.00002   0.00264  -0.00086   0.00176   1.88520
   A45        1.85552   0.00023  -0.00398   0.00223  -0.00175   1.85377
   A46        1.88526  -0.00014   0.01142  -0.00724   0.00419   1.88945
   A47        2.11158   0.00021   0.00598  -0.00121   0.00476   2.11634
   A48        2.13726  -0.00002   0.00122  -0.00108   0.00012   2.13738
   A49        2.03434  -0.00019  -0.00718   0.00231  -0.00488   2.02946
    D1        1.01806  -0.00008  -0.00911   0.00286  -0.00623   1.01183
    D2        3.10176   0.00020  -0.00545   0.00635   0.00091   3.10267
    D3       -1.05892  -0.00016   0.00522  -0.00754  -0.00234  -1.06126
    D4        3.09022   0.00016  -0.03735   0.03510  -0.00228   3.08794
    D5       -1.05681   0.00004  -0.04350   0.03545  -0.00807  -1.06489
    D6        0.93624   0.00007  -0.03512   0.03110  -0.00405   0.93219
    D7        1.09475  -0.00005  -0.03500   0.02929  -0.00571   1.08905
    D8       -3.05228  -0.00017  -0.04115   0.02964  -0.01150  -3.06378
    D9       -1.05923  -0.00014  -0.03277   0.02529  -0.00748  -1.06671
   D10       -1.13979   0.00015  -0.05351   0.04672  -0.00676  -1.14655
   D11        0.99637   0.00003  -0.05966   0.04707  -0.01256   0.98381
   D12        2.98942   0.00006  -0.05128   0.04272  -0.00854   2.98088
   D13       -1.07286  -0.00014   0.02242  -0.02142   0.00100  -1.07186
   D14        0.99820  -0.00013   0.02923  -0.02451   0.00471   1.00290
   D15        3.10999  -0.00014   0.02622  -0.02343   0.00279   3.11279
   D16        0.95913   0.00005   0.00988  -0.00662   0.00323   0.96236
   D17        3.03019   0.00006   0.01668  -0.00971   0.00693   3.03712
   D18       -1.14120   0.00004   0.01367  -0.00863   0.00502  -1.13618
   D19       -3.12533   0.00006   0.02184  -0.01715   0.00472  -3.12061
   D20       -1.05427   0.00007   0.02864  -0.02024   0.00842  -1.04584
   D21        1.05753   0.00006   0.02564  -0.01916   0.00651   1.06404
   D22       -2.07493  -0.00009  -0.04922  -0.00172  -0.05091  -2.12583
   D23        1.05443  -0.00007  -0.03760  -0.00770  -0.04532   1.00912
   D24        2.15733  -0.00015  -0.02684  -0.02051  -0.04733   2.10999
   D25       -0.99650  -0.00013  -0.01522  -0.02649  -0.04174  -1.03824
   D26       -0.05951  -0.00023  -0.04449  -0.00856  -0.05302  -0.11253
   D27        3.06985  -0.00021  -0.03287  -0.01453  -0.04743   3.02243
   D28       -3.12065   0.00001  -0.01901  -0.00460  -0.02359   3.13894
   D29        0.99491  -0.00001  -0.00820  -0.01206  -0.02027   0.97465
   D30       -1.02534  -0.00010  -0.01124  -0.01074  -0.02197  -1.04731
   D31        1.03196  -0.00000  -0.01234  -0.00670  -0.01902   1.01293
   D32       -1.13566  -0.00003  -0.00153  -0.01415  -0.01570  -1.15136
   D33        3.12727  -0.00011  -0.00457  -0.01283  -0.01740   3.10987
   D34       -0.98920  -0.00000  -0.02358  -0.00084  -0.02441  -1.01361
   D35        3.12637  -0.00003  -0.01277  -0.00830  -0.02109   3.10528
   D36        1.10611  -0.00011  -0.01582  -0.00698  -0.02279   1.08332
   D37       -1.68648  -0.00041  -0.07114  -0.03749  -0.10863  -1.79511
   D38        1.43048  -0.00041  -0.07890  -0.03299  -0.11189   1.31859
   D39        0.46820  -0.00049  -0.08553  -0.02954  -0.11508   0.35312
   D40       -2.69802  -0.00049  -0.09329  -0.02503  -0.11833  -2.81635
   D41        2.49672  -0.00037  -0.07543  -0.03313  -0.10855   2.38817
   D42       -0.66951  -0.00037  -0.08319  -0.02862  -0.11181  -0.78131
   D43        3.12159   0.00002   0.01576  -0.01008   0.00571   3.12730
   D44       -0.02206   0.00018   0.00540   0.00492   0.01036  -0.01170
   D45       -0.00727   0.00000   0.00385  -0.00388  -0.00007  -0.00733
   D46        3.13227   0.00017  -0.00651   0.01112   0.00458   3.13685
   D47        3.12534   0.00007  -0.00270   0.00161  -0.00110   3.12424
   D48       -0.03275   0.00018  -0.00499   0.01281   0.00782  -0.02492
   D49        0.00882   0.00008   0.00519  -0.00294   0.00224   0.01107
   D50        3.13392   0.00018   0.00290   0.00826   0.01116  -3.13810
   D51       -2.10087   0.00005  -0.00360   0.00498   0.00136  -2.09951
   D52        2.11931   0.00005   0.00827  -0.00099   0.00726   2.12658
   D53        0.00965   0.00003   0.00095   0.00251   0.00344   0.01309
   D54        1.05571  -0.00005  -0.00157  -0.00524  -0.00680   1.04891
   D55       -1.00729  -0.00005   0.01029  -0.01121  -0.00089  -1.00818
   D56       -3.11695  -0.00007   0.00297  -0.00770  -0.00471  -3.12167
   D57       -2.00855  -0.00028  -0.03557  -0.01549  -0.05108  -2.05963
   D58        0.10639  -0.00018  -0.04018  -0.01086  -0.05105   0.05534
   D59        2.22275  -0.00017  -0.02917  -0.01657  -0.04576   2.17699
   D60        1.11751  -0.00018  -0.03786  -0.00486  -0.04272   1.07480
   D61       -3.05074  -0.00008  -0.04248  -0.00024  -0.04269  -3.09342
   D62       -0.93437  -0.00007  -0.03147  -0.00594  -0.03740  -0.97177
         Item               Value     Threshold  Converged?
 Maximum Force            0.002203     0.000450     NO 
 RMS     Force            0.000306     0.000300     NO 
 Maximum Displacement     0.327442     0.001800     NO 
 RMS     Displacement     0.085002     0.001200     NO 
 Predicted change in Energy=-2.200050D-04
 Lowest energy point so far.  Saving SCF results.
 GradGradGradGradGradGradGradGradGradGradGradGradGradGradGradGradGradGrad

 Leave Link  103 at Sat May  4 10:38:18 2024, MaxMem= 13421772800 cpu:               2.1 elap:               0.1
 (Enter /tmpu/scunam/7/gaussian-2016.03/g1/g16/l202.exe)
                          Input orientation:                          
 ---------------------------------------------------------------------
 Center     Atomic      Atomic             Coordinates (Angstroms)
 Number     Number       Type             X           Y           Z
 ---------------------------------------------------------------------
      1          8           0        2.639648   -1.190558   -1.284945
      2          6           0        1.943847   -0.501104   -0.220554
      3          6           0        0.439540   -0.817995   -0.359057
      4          6           0       -0.485694   -0.239044    0.725172
      5          6           0        2.544557   -1.072745    1.057104
      6          6           0        2.179744    0.984035   -0.396747
      7          6           0       -1.926865   -0.601131    0.497345
      8          6           0       -2.897865    0.171780    0.004698
      9          6           0       -4.292112   -0.370243   -0.176109
     10          6           0       -2.728824    1.609539   -0.400680
     11          6           0        2.725597    1.832128    0.462534
     12          1           0        0.105045   -0.444997   -1.333937
     13          1           0        0.340733   -1.906247   -0.390919
     14          1           0       -0.354735    0.842626    0.776551
     15          1           0       -0.178312   -0.632564    1.697951
     16          1           0        2.350321   -2.144398    1.097885
     17          1           0        3.622446   -0.918221    1.062602
     18          1           0        2.119576   -0.608405    1.945752
     19          1           0        1.850924    1.359684   -1.365513
     20          1           0       -2.187021   -1.626813    0.746781
     21          1           0        2.279195   -0.898016   -2.129934
     22          1           0       -4.603442   -0.316426   -1.224988
     23          1           0       -5.022547    0.220722    0.387345
     24          1           0       -4.369155   -1.407131    0.149190
     25          1           0       -3.367566    2.256735    0.209395
     26          1           0       -1.703851    1.961935   -0.305322
     27          1           0       -3.046648    1.756155   -1.437274
     28          1           0        2.853544    2.878374    0.214929
     29          1           0        3.069320    1.525924    1.442546
 ---------------------------------------------------------------------
                    Distance matrix (angstroms):
                    1          2          3          4          5
     1  O    0.000000
     2  C    1.446518   0.000000
     3  C    2.415895   1.543549   0.000000
     4  C    3.835846   2.620256   1.538439   0.000000
     5  C    2.346937   1.523166   2.549805   3.160325   0.000000
     6  C    2.393587   1.514043   2.505403   3.139933   2.545017
     7  C    4.937310   3.937994   2.525931   1.503326   4.530935
     8  C    5.846639   4.893432   3.500034   2.550770   5.681228
     9  C    7.067654   6.237489   4.756309   3.913865   6.982432
    10  C    6.119066   5.130410   3.991639   3.117120   6.093302
    11  C    3.492521   2.553765   3.595028   3.830290   2.970619
    12  H    2.642437   2.150340   1.096087   2.152050   3.473091
    13  H    2.568366   2.138557   1.093193   2.169841   2.765562
    14  H    4.165325   2.843116   2.162901   1.090779   3.486151
    15  H    4.141247   2.863827   2.155785   1.093454   2.831689
    16  H    2.582905   2.145674   2.744651   3.436898   1.089877
    17  H    2.559499   2.153642   3.487413   4.177554   1.088923
    18  H    3.323670   2.176069   2.859824   2.900633   1.088998
    19  H    2.670638   2.186800   2.783387   3.519471   3.502414
    20  H    5.254995   4.389423   2.962412   2.195651   4.774005
    21  H    0.964113   1.978820   2.554749   4.028708   3.202836
    22  H    7.295893   6.626461   5.141310   4.556859   7.541476
    23  H    7.968532   7.030023   5.609852   4.572587   7.706017
    24  H    7.157302   6.388395   4.871236   4.096030   6.981085
    25  H    7.085443   6.000136   4.926576   3.847093   6.837926
    26  H    5.455626   4.402209   3.510701   2.718480   5.395781
    27  H    6.406269   5.610763   4.465681   3.900702   6.744343
    28  H    4.341840   3.526764   4.451968   4.596645   4.051675
    29  H    3.873384   2.853320   3.956700   4.033344   2.678997
                    6          7          8          9         10
     6  C    0.000000
     7  C    4.491814   0.000000
     8  C    5.157812   1.335265   0.000000
     9  C    6.615713   2.470069   1.506786   0.000000
    10  C    4.948264   2.517270   1.503349   2.532556   0.000000
    11  C    1.324984   5.250464   5.881301   7.382855   5.526789
    12  H    2.687905   2.739824   3.345119   4.547652   3.622554
    13  H    3.425744   2.763032   3.868233   4.885561   4.667229
    14  H    2.796464   2.152669   2.741040   4.228658   2.758682
    15  H    3.544232   2.121292   3.303035   4.528163   3.992041
    16  H    3.471327   4.586573   5.839794   6.992324   6.491183
    17  H    2.798154   5.587031   6.694902   8.029627   6.990665
    18  H    2.833158   4.297863   5.436091   6.757866   5.825118
    19  H    1.089837   4.646152   5.083265   6.491857   4.686942
    20  H    5.214674   1.087163   2.071454   2.619561   3.476232
    21  H    2.560458   4.968067   5.701146   6.875904   5.861605
    22  H    6.956205   3.195552   2.158580   1.095432   2.811230
    23  H    7.284947   3.204807   2.159419   1.095562   2.794810
    24  H    6.993125   2.595309   2.162992   1.089445   3.477548
    25  H    5.723619   3.213398   2.146988   2.811479   1.095009
    26  H    4.005866   2.695054   2.174037   3.486380   1.088047
    27  H    5.384611   3.248609   2.147479   2.768265   1.094091
    28  H    2.101589   5.919377   6.359917   7.859187   5.757755
    29  H    2.113761   5.511773   6.285571   7.772141   6.084649
                   11         12         13         14         15
    11  C    0.000000
    12  H    3.908951   0.000000
    13  H    4.515685   1.755017   0.000000
    14  H    3.250565   2.514663   3.066426   0.000000
    15  H    4.004205   3.050872   2.501011   1.748225   0.000000
    16  H    4.044411   3.720617   2.512309   4.042635   3.006611
    17  H    2.954461   4.282459   3.722708   4.358943   3.864070
    18  H    2.919487   3.852454   3.210718   3.097538   2.311337
    19  H    2.080869   2.511167   3.727843   3.117807   4.179912
    20  H    6.014889   3.313555   2.786035   3.075108   2.434783
    21  H    3.791287   2.359188   2.792551   4.291280   4.556590
    22  H    7.821690   4.711502   5.260045   4.837465   5.312748
    23  H    7.914293   5.449605   5.821896   4.725115   5.090422
    24  H    7.805543   4.810804   4.766958   4.644412   4.534510
    25  H    6.113183   4.662644   5.607341   3.376169   4.553590
    26  H    4.497384   3.181741   4.376127   2.059955   3.615494
    27  H    6.077323   3.845636   5.097293   3.603047   4.874727
    28  H    1.082732   4.582360   5.438186   3.840930   4.870133
    29  H    1.082742   4.514456   4.752534   3.554518   3.907867
                   16         17         18         19         20
    16  H    0.000000
    17  H    1.767217   0.000000
    18  H    1.769575   1.770469   0.000000
    19  H    4.312344   3.771324   3.861350   0.000000
    20  H    4.580245   5.861037   4.584917   5.448482   0.000000
    21  H    3.460830   3.463671   4.089080   2.421769   5.362251
    22  H    7.555928   8.559233   7.438939   6.669927   3.382910
    23  H    7.775465   8.745803   7.357038   7.184313   3.403349
    24  H    6.826050   8.058477   6.780061   6.974165   2.273122
    25  H    7.270049   7.724543   6.429050   5.524280   4.094436
    26  H    5.938625   6.207734   5.127629   3.758076   3.770873
    27  H    7.125210   7.607791   6.612555   4.914117   4.117466
    28  H    5.124557   3.965337   3.961324   2.410283   6.781362
    29  H    3.755931   2.534591   2.389685   3.065505   6.168708
                   21         22         23         24         25
    21  H    0.000000
    22  H    6.966195   0.000000
    23  H    7.804083   1.750370   0.000000
    24  H    7.046572   1.769998   1.770182   0.000000
    25  H    6.878286   3.194683   2.629825   3.798778   0.000000
    26  H    5.231940   3.800571   3.811214   4.319842   1.766292
    27  H    5.990744   2.600820   3.096929   3.777866   1.750739
    28  H    4.482118   8.239341   8.314184   8.398646   6.252093
    29  H    4.388895   8.329542   8.264098   8.099784   6.594561
                   26         27         28         29
    26  H    0.000000
    27  H    1.768266   0.000000
    28  H    4.677646   6.229077   0.000000
    29  H    5.101795   6.763980   1.839218   0.000000
 Stoichiometry    C10H18O
 Framework group  C1[X(C10H18O)]
 Deg. of freedom    81
 Full point group                 C1      NOp   1
 RotChk:  IX=0 Diff= 4.71D-02
 Largest Abelian subgroup         C1      NOp   1
 Largest concise Abelian subgroup C1      NOp   1
                         Standard orientation:                         
 ---------------------------------------------------------------------
 Center     Atomic      Atomic             Coordinates (Angstroms)
 Number     Number       Type             X           Y           Z
 ---------------------------------------------------------------------
      1          8           0       -2.685056   -1.044295    1.284913
      2          6           0       -1.964729   -0.386944    0.216535
      3          6           0       -0.476642   -0.777158    0.342525
      4          6           0        0.467293   -0.241315   -0.747729
      5          6           0       -2.602504   -0.925428   -1.057558
      6          6           0       -2.126523    1.107488    0.397709
      7          6           0        1.890810   -0.673815   -0.532015
      8          6           0        2.902149    0.049597   -0.045396
      9          6           0        4.269656   -0.560219    0.123289
     10          6           0        2.806597    1.492875    0.364330
     11          6           0       -2.637005    1.983328   -0.455458
     12          1           0       -0.116797   -0.423343    1.315527
     13          1           0       -0.430796   -1.869009    0.371314
     14          1           0        0.388862    0.845578   -0.795794
     15          1           0        0.133543   -0.616955   -1.718886
     16          1           0       -2.461099   -2.005173   -1.102127
     17          1           0       -3.671582   -0.718513   -1.054247
     18          1           0       -2.162284   -0.480154   -1.948543
     19          1           0       -1.772264    1.464242    1.364648
     20          1           0        2.098678   -1.710339   -0.785653
     21          1           0       -2.304217   -0.771784    2.127654
     22          1           0        4.591369   -0.524258    1.169796
     23          1           0        5.023658   -0.004174   -0.444649
     24          1           0        4.293501   -1.598816   -0.204792
     25          1           0        3.471397    2.109670   -0.249387
     26          1           0        1.799326    1.895070    0.277785
     27          1           0        3.139227    1.621237    1.398697
     28          1           0       -2.711836    3.033948   -0.204649
     29          1           0       -3.002848    1.696690   -1.433379
 ---------------------------------------------------------------------
 Rotational constants (GHZ):           1.9517233           0.4721795           0.4339701
 Leave Link  202 at Sat May  4 10:38:19 2024, MaxMem= 13421772800 cpu:               2.8 elap:               0.1
 (Enter /tmpu/scunam/7/gaussian-2016.03/g1/g16/l301.exe)
 Standard basis: def2TZVP (5D, 7F)
 Ernie: Thresh=  0.10000D-02 Tol=  0.10000D-05 Strict=F.
 There are   504 symmetry adapted cartesian basis functions of A   symmetry.
 There are   449 symmetry adapted basis functions of A   symmetry.
   449 basis functions,   705 primitive gaussians,   504 cartesian basis functions
    43 alpha electrons       43 beta electrons
       nuclear repulsion energy       619.6432981458 Hartrees.
 IExCor=  402 DFT=T Ex+Corr=B3LYP ExCW=0 ScaHFX=  0.200000
 ScaDFX=  0.800000  0.720000  1.000000  0.810000 ScalE2=  1.000000  1.000000
 IRadAn=      5 IRanWt=     -1 IRanGd=            0 ICorTp=0 IEmpDi=  4
 NAtoms=   29 NActive=   29 NUniq=   29 SFac= 1.00D+00 NAtFMM=   60 NAOKFM=F Big=F
 Integral buffers will be    131072 words long.
 Raffenetti 2 integral format.
 Two-electron integral symmetry is turned on.
 Leave Link  301 at Sat May  4 10:38:19 2024, MaxMem= 13421772800 cpu:               1.6 elap:               0.1
 (Enter /tmpu/scunam/7/gaussian-2016.03/g1/g16/l302.exe)
 NPDir=0 NMtPBC=     1 NCelOv=     1 NCel=       1 NClECP=     1 NCelD=      1
         NCelK=      1 NCelE2=     1 NClLst=     1 CellRange=     0.0.
 One-electron integrals computed using PRISM.
 One-electron integral symmetry used in STVInt
   1 Symmetry operations used in ECPInt.
 ECPInt:  NShTT=   18721 NPrTT=   54252 LenC2=   17464 LenP2D=   38670.
 LDataN:  DoStor=T MaxTD1= 6 Len=  172
 NBasis=   449 RedAO= T EigKep=  6.69D-05  NBF=   449
 NBsUse=   449 1.00D-06 EigRej= -1.00D+00 NBFU=   449
 Precomputing XC quadrature grid using
 IXCGrd= 4 IRadAn=           5 IRanWt=          -1 IRanGd=           0 AccXCQ= 0.00D+00.
 Generated NRdTot=       0 NPtTot=           0 NUsed=           0 NTot=          32
 NSgBfM=   501   501   501   501   501 MxSgAt=    29 MxSgA2=    29.
 Leave Link  302 at Sat May  4 10:38:19 2024, MaxMem= 13421772800 cpu:              16.8 elap:               0.6
 (Enter /tmpu/scunam/7/gaussian-2016.03/g1/g16/l303.exe)
 DipDrv:  MaxL=1.
 Leave Link  303 at Sat May  4 10:38:19 2024, MaxMem= 13421772800 cpu:               3.0 elap:               0.1
 (Enter /tmpu/scunam/7/gaussian-2016.03/g1/g16/l401.exe)
 Initial guess from the checkpoint file:  "linalool.chk"
 B after Tr=    -0.000000   -0.000000    0.000000
         Rot=    0.999823   -0.017926    0.001732    0.005439 Ang=  -2.16 deg.
 Guess basis will be translated and rotated to current coordinates.
 JPrj=2 DoOrth=T DoCkMO=T.
 Generating alternative initial guess.
 ExpMin= 9.52D-02 ExpMax= 2.70D+04 ExpMxC= 9.22D+02 IAcc=2 IRadAn=         4 AccDes= 0.00D+00
 Harris functional with IExCor=  402 and IRadAn=       4 diagonalized for initial guess.
 HarFok:  IExCor=  402 AccDes= 0.00D+00 IRadAn=         4 IDoV= 1 UseB2=F ITyADJ=14
 ICtDFT=  3500011 ScaDFX=  1.000000  1.000000  1.000000  1.000000
 FoFCou: FMM=F IPFlag=           0 FMFlag=      100000 FMFlg1=           0
         NFxFlg=           0 DoJE=T BraDBF=F KetDBF=T FulRan=T
         wScrn=  0.000000 ICntrl=       500 IOpCl=  0 I1Cent=   200000004 NGrid=           0
         NMat0=    1 NMatS0=      1 NMatT0=    0 NMatD0=    1 NMtDS0=    0 NMtDT0=    0
 Petite list used in FoFCou.
 Harris En= -467.407095494316    
 Leave Link  401 at Sat May  4 10:38:21 2024, MaxMem= 13421772800 cpu:              39.9 elap:               1.3
 (Enter /tmpu/scunam/7/gaussian-2016.03/g1/g16/l502.exe)
 Integral symmetry usage will be decided dynamically.
 Closed shell SCF:
 Using DIIS extrapolation, IDIIS=  1040.
 NGot= 13421772800 LenX= 13421243903 LenY= 13420989383
 Requested convergence on RMS density matrix=1.00D-08 within 128 cycles.
 Requested convergence on MAX density matrix=1.00D-06.
 Requested convergence on             energy=1.00D-06.
 No special actions if energy rises.
 Fock matrices will be formed incrementally for  20 cycles.
 Integral accuracy reduced to 1.0D-05 until final iterations.

 Cycle   1  Pass 0  IDiag  1:
 FoFJK:  IHMeth= 1 ICntrl=       0 DoSepK=F KAlg= 0 I1Cent=           0 FoldK=F
 IRaf= 880000000 NMat=       1 IRICut=       1 DoRegI=T DoRafI=F ISym2E= 0 IDoP0=0 IntGTp=1.
 FoFCou: FMM=F IPFlag=           0 FMFlag=      100000 FMFlg1=           0
         NFxFlg=           0 DoJE=F BraDBF=F KetDBF=F FulRan=T
         wScrn=  0.000000 ICntrl=         0 IOpCl=  0 I1Cent=           0 NGrid=           0
         NMat0=    1 NMatS0=      1 NMatT0=    0 NMatD0=    1 NMtDS0=    0 NMtDT0=    0
 Symmetry not used in FoFCou.
 E= -467.261230833268    
 DIIS: error= 2.95D-03 at cycle   1 NSaved=   1.
 NSaved= 1 IEnMin= 1 EnMin= -467.261230833268     IErMin= 1 ErrMin= 2.95D-03
 ErrMax= 2.95D-03  0.00D+00 EMaxC= 1.00D-01 BMatC= 8.93D-03 BMatP= 8.93D-03
 IDIUse=3 WtCom= 9.70D-01 WtEn= 2.95D-02
 Coeff-Com:  0.100D+01
 Coeff-En:   0.100D+01
 Coeff:      0.100D+01
 Gap=     0.625 Goal=   None    Shift=    0.000
 GapD=    0.625 DampG=2.000 DampE=1.000 DampFc=2.0000 IDamp=-1.
 RMSDP=2.85D-04 MaxDP=8.87D-03              OVMax= 2.65D-02

 Cycle   2  Pass 0  IDiag  1:
 RMSU=  2.85D-04    CP:  9.99D-01
 E= -467.273310281991     Delta-E=       -0.012079448724 Rises=F Damp=F
 DIIS: error= 5.15D-04 at cycle   2 NSaved=   2.
 NSaved= 2 IEnMin= 2 EnMin= -467.273310281991     IErMin= 2 ErrMin= 5.15D-04
 ErrMax= 5.15D-04  0.00D+00 EMaxC= 1.00D-01 BMatC= 8.30D-05 BMatP= 8.93D-03
 IDIUse=3 WtCom= 9.95D-01 WtEn= 5.15D-03
 Coeff-Com: -0.517D-01 0.105D+01
 Coeff-En:   0.000D+00 0.100D+01
 Coeff:     -0.514D-01 0.105D+01
 Gap=     0.233 Goal=   None    Shift=    0.000
 RMSDP=4.68D-05 MaxDP=1.28D-03 DE=-1.21D-02 OVMax= 4.02D-03

 Cycle   3  Pass 0  IDiag  1:
 RMSU=  4.39D-05    CP:  9.98D-01  1.06D+00
 E= -467.273451063262     Delta-E=       -0.000140781271 Rises=F Damp=F
 DIIS: error= 2.53D-04 at cycle   3 NSaved=   3.
 NSaved= 3 IEnMin= 3 EnMin= -467.273451063262     IErMin= 3 ErrMin= 2.53D-04
 ErrMax= 2.53D-04  0.00D+00 EMaxC= 1.00D-01 BMatC= 4.67D-05 BMatP= 8.30D-05
 IDIUse=3 WtCom= 9.97D-01 WtEn= 2.53D-03
 Coeff-Com: -0.287D-01 0.483D+00 0.546D+00
 Coeff-En:   0.000D+00 0.000D+00 0.100D+01
 Coeff:     -0.286D-01 0.481D+00 0.547D+00
 Gap=     0.233 Goal=   None    Shift=    0.000
 RMSDP=2.13D-05 MaxDP=9.34D-04 DE=-1.41D-04 OVMax= 1.55D-03

 Cycle   4  Pass 0  IDiag  1:
 RMSU=  1.69D-05    CP:  9.98D-01  1.06D+00  7.14D-01
 E= -467.273480841131     Delta-E=       -0.000029777869 Rises=F Damp=F
 DIIS: error= 1.18D-04 at cycle   4 NSaved=   4.
 NSaved= 4 IEnMin= 4 EnMin= -467.273480841131     IErMin= 4 ErrMin= 1.18D-04
 ErrMax= 1.18D-04  0.00D+00 EMaxC= 1.00D-01 BMatC= 1.04D-05 BMatP= 4.67D-05
 IDIUse=3 WtCom= 9.99D-01 WtEn= 1.18D-03
 Coeff-Com: -0.620D-02 0.718D-01 0.321D+00 0.614D+00
 Coeff-En:   0.000D+00 0.000D+00 0.160D+00 0.840D+00
 Coeff:     -0.619D-02 0.717D-01 0.320D+00 0.614D+00
 Gap=     0.233 Goal=   None    Shift=    0.000
 RMSDP=7.53D-06 MaxDP=3.44D-04 DE=-2.98D-05 OVMax= 6.86D-04

 Initial convergence to 1.0D-05 achieved.  Increase integral accuracy.
 Cycle   5  Pass 1  IDiag  1:
 E= -467.273472444284     Delta-E=        0.000008396847 Rises=F Damp=F
 DIIS: error= 1.77D-04 at cycle   1 NSaved=   1.
 NSaved= 1 IEnMin= 1 EnMin= -467.273472444284     IErMin= 1 ErrMin= 1.77D-04
 ErrMax= 1.77D-04  0.00D+00 EMaxC= 1.00D-01 BMatC= 5.73D-06 BMatP= 5.73D-06
 IDIUse=3 WtCom= 9.98D-01 WtEn= 1.77D-03
 Coeff-Com:  0.100D+01
 Coeff-En:   0.100D+01
 Coeff:      0.100D+01
 Gap=     0.233 Goal=   None    Shift=    0.000
 RMSDP=7.53D-06 MaxDP=3.44D-04 DE= 8.40D-06 OVMax= 5.15D-04

 Cycle   6  Pass 1  IDiag  1:
 RMSU=  1.23D-04    CP:  1.00D+00
 E= -467.273475214663     Delta-E=       -0.000002770379 Rises=F Damp=F
 DIIS: error= 3.33D-05 at cycle   2 NSaved=   2.
 NSaved= 2 IEnMin= 2 EnMin= -467.273475214663     IErMin= 2 ErrMin= 3.33D-05
 ErrMax= 3.33D-05  0.00D+00 EMaxC= 1.00D-01 BMatC= 1.08D-06 BMatP= 5.73D-06
 IDIUse=1 WtCom= 1.00D+00 WtEn= 0.00D+00
 Coeff-Com:  0.211D+00 0.789D+00
 Coeff:      0.211D+00 0.789D+00
 Gap=     0.233 Goal=   None    Shift=    0.000
 RMSDP=4.24D-06 MaxDP=2.10D-04 DE=-2.77D-06 OVMax= 7.10D-04

 Cycle   7  Pass 1  IDiag  1:
 RMSU=  4.00D-06    CP:  1.00D+00  1.01D+00
 E= -467.273474819138     Delta-E=        0.000000395525 Rises=F Damp=F
 DIIS: error= 3.73D-05 at cycle   3 NSaved=   3.
 NSaved= 3 IEnMin= 2 EnMin= -467.273475214663     IErMin= 2 ErrMin= 3.33D-05
 ErrMax= 3.73D-05  0.00D+00 EMaxC= 1.00D-01 BMatC= 1.52D-06 BMatP= 1.08D-06
 IDIUse=1 WtCom= 1.00D+00 WtEn= 0.00D+00
 Coeff-Com:  0.501D-02 0.542D+00 0.453D+00
 Coeff:      0.501D-02 0.542D+00 0.453D+00
 Gap=     0.233 Goal=   None    Shift=    0.000
 RMSDP=2.19D-06 MaxDP=1.21D-04 DE= 3.96D-07 OVMax= 4.38D-04

 Cycle   8  Pass 1  IDiag  1:
 RMSU=  7.85D-07    CP:  1.00D+00  1.01D+00  4.99D-01
 E= -467.273476196917     Delta-E=       -0.000001377779 Rises=F Damp=F
 DIIS: error= 4.63D-06 at cycle   4 NSaved=   4.
 NSaved= 4 IEnMin= 4 EnMin= -467.273476196917     IErMin= 4 ErrMin= 4.63D-06
 ErrMax= 4.63D-06  0.00D+00 EMaxC= 1.00D-01 BMatC= 2.40D-08 BMatP= 1.08D-06
 IDIUse=1 WtCom= 1.00D+00 WtEn= 0.00D+00
 Coeff-Com: -0.182D-02 0.288D+00 0.256D+00 0.458D+00
 Coeff:     -0.182D-02 0.288D+00 0.256D+00 0.458D+00
 Gap=     0.233 Goal=   None    Shift=    0.000
 RMSDP=3.12D-07 MaxDP=1.35D-05 DE=-1.38D-06 OVMax= 4.83D-05

 Cycle   9  Pass 1  IDiag  1:
 RMSU=  2.37D-07    CP:  1.00D+00  1.01D+00  4.93D-01  7.45D-01
 E= -467.273476220676     Delta-E=       -0.000000023759 Rises=F Damp=F
 DIIS: error= 1.05D-06 at cycle   5 NSaved=   5.
 NSaved= 5 IEnMin= 5 EnMin= -467.273476220676     IErMin= 5 ErrMin= 1.05D-06
 ErrMax= 1.05D-06  0.00D+00 EMaxC= 1.00D-01 BMatC= 6.59D-10 BMatP= 2.40D-08
 IDIUse=1 WtCom= 1.00D+00 WtEn= 0.00D+00
 Coeff-Com: -0.116D-02 0.128D+00 0.115D+00 0.236D+00 0.522D+00
 Coeff:     -0.116D-02 0.128D+00 0.115D+00 0.236D+00 0.522D+00
 Gap=     0.233 Goal=   None    Shift=    0.000
 RMSDP=7.83D-08 MaxDP=2.98D-06 DE=-2.38D-08 OVMax= 8.49D-06

 Cycle  10  Pass 1  IDiag  1:
 RMSU=  7.43D-08    CP:  1.00D+00  1.01D+00  4.95D-01  7.39D-01  9.09D-01
 E= -467.273476221252     Delta-E=       -0.000000000575 Rises=F Damp=F
 DIIS: error= 2.73D-07 at cycle   6 NSaved=   6.
 NSaved= 6 IEnMin= 6 EnMin= -467.273476221252     IErMin= 6 ErrMin= 2.73D-07
 ErrMax= 2.73D-07  0.00D+00 EMaxC= 1.00D-01 BMatC= 7.08D-11 BMatP= 6.59D-10
 IDIUse=1 WtCom= 1.00D+00 WtEn= 0.00D+00
 Coeff-Com: -0.540D-03 0.524D-01 0.471D-01 0.102D+00 0.301D+00 0.497D+00
 Coeff:     -0.540D-03 0.524D-01 0.471D-01 0.102D+00 0.301D+00 0.497D+00
 Gap=     0.233 Goal=   None    Shift=    0.000
 RMSDP=2.29D-08 MaxDP=1.38D-06 DE=-5.75D-10 OVMax= 2.48D-06

 Cycle  11  Pass 1  IDiag  1:
 RMSU=  2.10D-08    CP:  1.00D+00  1.01D+00  4.95D-01  7.39D-01  9.24D-01
                    CP:  8.96D-01
 E= -467.273476221308     Delta-E=       -0.000000000056 Rises=F Damp=F
 DIIS: error= 6.49D-08 at cycle   7 NSaved=   7.
 NSaved= 7 IEnMin= 7 EnMin= -467.273476221308     IErMin= 7 ErrMin= 6.49D-08
 ErrMax= 6.49D-08  0.00D+00 EMaxC= 1.00D-01 BMatC= 2.78D-12 BMatP= 7.08D-11
 IDIUse=1 WtCom= 1.00D+00 WtEn= 0.00D+00
 Coeff-Com: -0.483D-05-0.190D-02-0.167D-02-0.206D-02 0.207D-01 0.165D+00
 Coeff-Com:  0.820D+00
 Coeff:     -0.483D-05-0.190D-02-0.167D-02-0.206D-02 0.207D-01 0.165D+00
 Coeff:      0.820D+00
 Gap=     0.233 Goal=   None    Shift=    0.000
 RMSDP=6.15D-09 MaxDP=2.50D-07 DE=-5.64D-11 OVMax= 7.27D-07

 SCF Done:  E(RB3LYP) =  -467.273476221     A.U. after   11 cycles
            NFock= 11  Conv=0.62D-08     -V/T= 2.0054
 KE= 4.647717650586D+02 PE=-2.324567630207D+03 EE= 7.728790907816D+02
 Leave Link  502 at Sat May  4 10:39:10 2024, MaxMem= 13421772800 cpu:            1563.4 elap:              48.9
 (Enter /tmpu/scunam/7/gaussian-2016.03/g1/g16/l508.exe)
 QCSCF skips out because SCF is already converged.
 Leave Link  508 at Sat May  4 10:39:10 2024, MaxMem= 13421772800 cpu:               1.1 elap:               0.1
 (Enter /tmpu/scunam/7/gaussian-2016.03/g1/g16/l701.exe)
 ... and contract with generalized density number  0.
 Compute integral first derivatives.
   1 Symmetry operations used in ECPInt.
 ECPInt:  NShTT=   18721 NPrTT=   54252 LenC2=   17464 LenP2D=   38670.
 LDataN:  DoStor=T MaxTD1= 7 Len=  274
 Leave Link  701 at Sat May  4 10:39:10 2024, MaxMem= 13421772800 cpu:              11.6 elap:               0.4
 (Enter /tmpu/scunam/7/gaussian-2016.03/g1/g16/l702.exe)
 L702 exits ... SP integral derivatives will be done elsewhere.
 Leave Link  702 at Sat May  4 10:39:10 2024, MaxMem= 13421772800 cpu:               1.6 elap:               0.1
 (Enter /tmpu/scunam/7/gaussian-2016.03/g1/g16/l703.exe)
 Integral derivatives from FoFJK, PRISM(SPDF).
 Compute integral first derivatives, UseDBF=F ICtDFT=           0.
 Calling FoFJK, ICntrl=      2127 FMM=F ISym2X=0 I1Cent= 0 IOpClX= 0 NMat=1 NMatS=1 NMatT=0.
 FoFJK:  IHMeth= 1 ICntrl=    2127 DoSepK=F KAlg= 0 I1Cent=           0 FoldK=F
 IRaf=         0 NMat=       1 IRICut=       1 DoRegI=T DoRafI=F ISym2E= 0 IDoP0=0 IntGTp=1.
 FoFCou: FMM=F IPFlag=           0 FMFlag=      100000 FMFlg1=         800
         NFxFlg=           0 DoJE=F BraDBF=F KetDBF=F FulRan=T
         wScrn=  0.000000 ICntrl=      2127 IOpCl=  0 I1Cent=           0 NGrid=           0
         NMat0=    1 NMatS0=      1 NMatT0=    0 NMatD0=    1 NMtDS0=    0 NMtDT0=    0
 Symmetry not used in FoFCou.
 Leave Link  703 at Sat May  4 10:39:31 2024, MaxMem= 13421772800 cpu:             669.5 elap:              21.0
 (Enter /tmpu/scunam/7/gaussian-2016.03/g1/g16/l716.exe)
 Dipole        = 5.47553804D-01 3.97407634D-01 6.46427012D-02
 ***** Axes restored to original set *****
 -------------------------------------------------------------------
 Center     Atomic                   Forces (Hartrees/Bohr)
 Number     Number              X              Y              Z
 -------------------------------------------------------------------
      1        8           0.000522930   -0.000124959    0.000719770
      2        6           0.000479095    0.000405132   -0.000591854
      3        6          -0.000341350    0.000094078    0.000854890
      4        6           0.000151113    0.000087048   -0.000128997
      5        6          -0.001052247    0.000562593   -0.000679615
      6        6          -0.000505854   -0.001081709   -0.000925476
      7        6           0.001510499    0.000760869   -0.000617930
      8        6          -0.002190752   -0.001276848    0.000510870
      9        6          -0.000537495    0.001306965   -0.000482512
     10        6           0.000015866    0.000055468    0.000682058
     11        6           0.000398361    0.000639948    0.000959853
     12        1          -0.000086331   -0.000352748   -0.000164756
     13        1          -0.000223430   -0.000213335   -0.000176141
     14        1           0.000102600   -0.000223004   -0.000033598
     15        1          -0.000097560    0.000164665    0.000521931
     16        1           0.000215143   -0.000356646    0.000201813
     17        1           0.000475167   -0.000218824    0.000092310
     18        1          -0.000020125   -0.000000892    0.000198460
     19        1           0.000294945    0.000396864    0.000276148
     20        1           0.000128243   -0.000434552   -0.000217917
     21        1          -0.000300166    0.000187037   -0.000339609
     22        1           0.000471592   -0.000212026   -0.000009871
     23        1           0.000487747   -0.000145921    0.000362825
     24        1          -0.000019442   -0.000318784    0.000089862
     25        1           0.000049897    0.000111882    0.000053776
     26        1          -0.000196648    0.000409832   -0.000379866
     27        1           0.000394146   -0.000062230   -0.000419534
     28        1          -0.000121669    0.000009882   -0.000286343
     29        1          -0.000004275   -0.000169786   -0.000070546
 -------------------------------------------------------------------
 Cartesian Forces:  Max     0.002190752 RMS     0.000529071
 Leave Link  716 at Sat May  4 10:39:31 2024, MaxMem= 13421772800 cpu:               1.8 elap:               0.1
 (Enter /tmpu/scunam/7/gaussian-2016.03/g1/g16/l103.exe)

 GradGradGradGradGradGradGradGradGradGradGradGradGradGradGradGradGradGrad
 Berny optimization.
 Using GEDIIS/GDIIS optimizer.
 FormGI is forming the generalized inverse of G from B-inverse, IUseBI=4.
 Internal  Forces:  Max     0.001026580 RMS     0.000294809
 Search for a local minimum.
 Step number   4 out of a maximum of  174
 All quantities printed in internal units (Hartrees-Bohrs-Radians)
 RMS Force = .29481D-03 SwitMx=.10000D-02 MixMth= 2
 Mixed Optimization -- En-DIIS/RFO-DIIS
 Swapping is turned off.
 Update second derivatives using D2CorX and points    2    3    4
 DE= -2.96D-04 DEPred=-2.20D-04 R= 1.35D+00
 TightC=F SS=  1.41D+00  RLast= 3.29D-01 DXNew= 1.3176D+00 9.8555D-01
 Trust test= 1.35D+00 RLast= 3.29D-01 DXMaxT set to 9.86D-01
 ITU=  1  1  1  0
     Eigenvalues ---    0.00178   0.00253   0.00330   0.00342   0.00586
     Eigenvalues ---    0.00702   0.00734   0.01183   0.01315   0.01557
     Eigenvalues ---    0.01579   0.02816   0.02914   0.02919   0.03155
     Eigenvalues ---    0.04136   0.04520   0.04772   0.05467   0.05482
     Eigenvalues ---    0.05759   0.06709   0.06950   0.07040   0.07294
     Eigenvalues ---    0.07352   0.08436   0.08922   0.09324   0.12637
     Eigenvalues ---    0.12830   0.15930   0.15997   0.16000   0.16000
     Eigenvalues ---    0.16000   0.16000   0.16000   0.16000   0.16000
     Eigenvalues ---    0.16000   0.16000   0.16091   0.16199   0.16698
     Eigenvalues ---    0.17050   0.17846   0.21865   0.21979   0.22253
     Eigenvalues ---    0.23079   0.24818   0.25911   0.28091   0.29205
     Eigenvalues ---    0.29626   0.31226   0.31930   0.32047   0.33556
     Eigenvalues ---    0.33737   0.33803   0.34075   0.34086   0.34136
     Eigenvalues ---    0.34186   0.34225   0.34266   0.34281   0.34286
     Eigenvalues ---    0.34452   0.34549   0.34802   0.34907   0.35407
     Eigenvalues ---    0.35651   0.37056   0.40310   0.52968   0.57026
     Eigenvalues ---    0.58910
 En-DIIS/RFO-DIIS/Sim-DIIS IScMMF=       -3 using points:     4    3    2
 RFO step:  Lambda=-2.31174388D-04.
 NNeg= 0 NGDIIS= 3 SimSw=  2.50D-01 Rises=F DC= -2.96D-04 SmlDif=  1.00D-05
 NRisDI= 0 DoIntr=F SqrtH=F CThrHd= 10.0 CDAdj=  3.0
 RMS Error=  0.2523825814D-01 NUsed= 3 OKEnD=T EnDIS=F
 InvSVX:  RCond= 8.01D-04 Info=           0 Equed=N FErr=  8.31D-14 BErr=  4.72D-17
 DidBck=F Rises=F RFO-DIIS coefs:    1.70086   -0.41072   -0.29014
 Iteration  1 RMS(Cart)=  0.08209234 RMS(Int)=  0.00184149
 Iteration  2 RMS(Cart)=  0.00315246 RMS(Int)=  0.00001347
 Iteration  3 RMS(Cart)=  0.00000378 RMS(Int)=  0.00001332
 Iteration  4 RMS(Cart)=  0.00000000 RMS(Int)=  0.00001332
 ITry= 1 IFail=0 DXMaxC= 3.14D-01 DCOld= 1.00D+10 DXMaxT= 9.86D-01 DXLimC= 3.00D+00 Rises=F
 Variable       Old X    -DE/DX   Delta X   Delta X   Delta X     New X
                                 (Linear)    (Quad)   (Total)
    R1        2.73352  -0.00020   0.00026  -0.00071  -0.00045   2.73307
    R2        1.82191   0.00047  -0.00026   0.00076   0.00050   1.82241
    R3        2.91688   0.00038  -0.00130   0.00145   0.00015   2.91703
    R4        2.87837  -0.00030   0.00271  -0.00199   0.00072   2.87909
    R5        2.86113  -0.00018   0.00269  -0.00119   0.00149   2.86262
    R6        2.90723  -0.00013   0.00159  -0.00107   0.00052   2.90775
    R7        2.07130   0.00005  -0.00025   0.00021  -0.00005   2.07126
    R8        2.06583   0.00024  -0.00007   0.00056   0.00049   2.06633
    R9        2.84087  -0.00009  -0.00494   0.00137  -0.00357   2.83730
   R10        2.06127  -0.00021  -0.00027  -0.00065  -0.00092   2.06035
   R11        2.06633   0.00038   0.00061   0.00093   0.00154   2.06787
   R12        2.05957   0.00032  -0.00071   0.00105   0.00035   2.05992
   R13        2.05777   0.00044  -0.00151   0.00158   0.00008   2.05784
   R14        2.05791   0.00017   0.00040   0.00013   0.00053   2.05844
   R15        2.50386   0.00081  -0.00142   0.00158   0.00016   2.50402
   R16        2.05949  -0.00020   0.00078  -0.00083  -0.00005   2.05944
   R17        2.52328   0.00088   0.00092   0.00053   0.00146   2.52474
   R18        2.05444   0.00033  -0.00098   0.00132   0.00033   2.05477
   R19        2.84741  -0.00059   0.00557  -0.00383   0.00174   2.84915
   R20        2.84092   0.00054  -0.00656   0.00410  -0.00246   2.83846
   R21        2.07007  -0.00014   0.00163  -0.00105   0.00058   2.07064
   R22        2.07031  -0.00022   0.00137  -0.00117   0.00020   2.07052
   R23        2.05875   0.00033  -0.00168   0.00147  -0.00021   2.05854
   R24        2.06927   0.00007  -0.00019   0.00023   0.00004   2.06930
   R25        2.05611  -0.00009   0.00021  -0.00034  -0.00013   2.05598
   R26        2.06753   0.00027  -0.00064   0.00104   0.00040   2.06793
   R27        2.04607   0.00006   0.00025  -0.00001   0.00024   2.04631
   R28        2.04609  -0.00002   0.00082  -0.00049   0.00033   2.04642
    A1        1.89700  -0.00026   0.00126  -0.00196  -0.00070   1.89630
    A2        1.88064   0.00028  -0.00463   0.00445  -0.00020   1.88045
    A3        1.82208   0.00002   0.00072  -0.00107  -0.00032   1.82175
    A4        1.88279  -0.00010  -0.00300   0.00248  -0.00055   1.88224
    A5        1.96338  -0.00053   0.00676  -0.00690  -0.00015   1.96323
    A6        1.92068   0.00033  -0.00190   0.00287   0.00092   1.92159
    A7        1.98701   0.00001   0.00141  -0.00124   0.00017   1.98718
    A8        2.03267  -0.00023  -0.00184   0.00021  -0.00164   2.03103
    A9        1.88321   0.00013  -0.00119   0.00234   0.00114   1.88435
   A10        1.87033   0.00016  -0.00193   0.00087  -0.00105   1.86928
   A11        1.89149   0.00015  -0.00261   0.00313   0.00051   1.89200
   A12        1.91857  -0.00002   0.00265  -0.00233   0.00032   1.91889
   A13        1.86007  -0.00020   0.00566  -0.00472   0.00095   1.86102
   A14        1.95962  -0.00040  -0.00264  -0.00051  -0.00316   1.95646
   A15        1.91152   0.00020  -0.00507   0.00368  -0.00140   1.91012
   A16        1.89915   0.00018   0.00014  -0.00009   0.00006   1.89921
   A17        1.94022   0.00022   0.00037   0.00228   0.00261   1.94283
   A18        1.89403  -0.00004   0.00380  -0.00308   0.00071   1.89474
   A19        1.85587  -0.00016   0.00394  -0.00253   0.00141   1.85728
   A20        1.90723   0.00034  -0.00126   0.00242   0.00116   1.90839
   A21        1.91917   0.00020  -0.00352   0.00211  -0.00142   1.91775
   A22        1.95041   0.00007  -0.00132   0.00117  -0.00015   1.95026
   A23        1.89205  -0.00036   0.00595  -0.00479   0.00116   1.89321
   A24        1.89566  -0.00018  -0.00045  -0.00071  -0.00116   1.89450
   A25        1.89829  -0.00010   0.00092  -0.00045   0.00046   1.89875
   A26        2.23518  -0.00030   0.00269  -0.00187   0.00080   2.23599
   A27        1.97636   0.00069  -0.00803   0.00661  -0.00144   1.97493
   A28        2.07162  -0.00039   0.00541  -0.00475   0.00065   2.07227
   A29        2.23144   0.00103   0.00029   0.00451   0.00479   2.23623
   A30        2.00630  -0.00065  -0.00069  -0.00273  -0.00343   2.00287
   A31        2.04513  -0.00037   0.00032  -0.00157  -0.00126   2.04387
   A32        2.10474   0.00099  -0.00996   0.00684  -0.00313   2.10161
   A33        2.17890  -0.00045   0.00921  -0.00456   0.00464   2.18354
   A34        1.99952  -0.00054   0.00081  -0.00230  -0.00150   1.99803
   A35        1.93928  -0.00033   0.00229  -0.00239  -0.00011   1.93918
   A36        1.94032  -0.00044   0.00342  -0.00359  -0.00016   1.94016
   A37        1.95193   0.00006   0.00000  -0.00021  -0.00022   1.95171
   A38        1.85091   0.00064  -0.00876   0.00822  -0.00054   1.85037
   A39        1.88869   0.00005   0.00083  -0.00047   0.00036   1.88904
   A40        1.88881   0.00006   0.00174  -0.00104   0.00069   1.88950
   A41        1.92776   0.00009  -0.00388   0.00317  -0.00073   1.92703
   A42        1.97364   0.00070  -0.00122   0.00397   0.00275   1.97639
   A43        1.92941  -0.00021  -0.00032  -0.00155  -0.00187   1.92754
   A44        1.88520  -0.00028   0.00193  -0.00148   0.00044   1.88564
   A45        1.85377   0.00017  -0.00228   0.00213  -0.00016   1.85360
   A46        1.88945  -0.00052   0.00595  -0.00650  -0.00055   1.88890
   A47        2.11634  -0.00030   0.00491  -0.00355   0.00136   2.11770
   A48        2.13738  -0.00003   0.00041  -0.00028   0.00013   2.13751
   A49        2.02946   0.00033  -0.00531   0.00382  -0.00149   2.02796
    D1        1.01183   0.00029  -0.00676   0.00235  -0.00441   1.00742
    D2        3.10267  -0.00017  -0.00080  -0.00404  -0.00484   3.09783
    D3       -1.06126  -0.00020  -0.00027  -0.00481  -0.00509  -1.06635
    D4        3.08794  -0.00016  -0.01144  -0.00203  -0.01349   3.07445
    D5       -1.06489  -0.00001  -0.01713   0.00408  -0.01306  -1.07794
    D6        0.93219  -0.00010  -0.01210   0.00019  -0.01192   0.92026
    D7        1.08905  -0.00007  -0.01323   0.00032  -0.01290   1.07615
    D8       -3.06378   0.00007  -0.01891   0.00643  -0.01247  -3.07625
    D9       -1.06671  -0.00002  -0.01388   0.00254  -0.01133  -1.07804
   D10       -1.14655   0.00006  -0.01885   0.00509  -0.01375  -1.16031
   D11        0.98381   0.00021  -0.02453   0.01120  -0.01332   0.97048
   D12        2.98088   0.00012  -0.01950   0.00731  -0.01219   2.96869
   D13       -1.07186  -0.00002   0.00662  -0.00191   0.00471  -1.06715
   D14        1.00290  -0.00013   0.01100  -0.00502   0.00598   1.00888
   D15        3.11279  -0.00007   0.00887  -0.00338   0.00549   3.11828
   D16        0.96236   0.00007   0.00487  -0.00065   0.00421   0.96657
   D17        3.03712  -0.00004   0.00926  -0.00377   0.00548   3.04260
   D18       -1.13618   0.00002   0.00713  -0.00213   0.00499  -1.13119
   D19       -3.12061   0.00009   0.00907  -0.00359   0.00549  -3.11512
   D20       -1.04584  -0.00002   0.01346  -0.00671   0.00676  -1.03909
   D21        1.06404   0.00003   0.01132  -0.00507   0.00627   1.07031
   D22       -2.12583   0.00013  -0.04866   0.01165  -0.03698  -2.16282
   D23        1.00912   0.00013  -0.04167   0.00963  -0.03206   0.97706
   D24        2.10999  -0.00033  -0.04025   0.00330  -0.03694   2.07305
   D25       -1.03824  -0.00033  -0.03327   0.00128  -0.03201  -1.07025
   D26       -0.11253   0.00010  -0.04889   0.01123  -0.03764  -0.15016
   D27        3.02243   0.00010  -0.04191   0.00921  -0.03271   2.98972
   D28        3.13894   0.00016  -0.02155   0.01586  -0.00568   3.13326
   D29        0.97465   0.00001  -0.01636   0.01058  -0.00580   0.96885
   D30       -1.04731  -0.00002  -0.01836   0.01162  -0.00674  -1.05405
   D31        1.01293   0.00003  -0.01659   0.01014  -0.00644   1.00650
   D32       -1.15136  -0.00013  -0.01140   0.00486  -0.00656  -1.15791
   D33        3.10987  -0.00015  -0.01340   0.00591  -0.00750   3.10237
   D34       -1.01361   0.00019  -0.02333   0.01529  -0.00804  -1.02165
   D35        3.10528   0.00003  -0.01815   0.01000  -0.00815   3.09713
   D36        1.08332   0.00001  -0.02014   0.01105  -0.00910   1.07423
   D37       -1.79511  -0.00040  -0.09490  -0.01678  -0.11167  -1.90679
   D38        1.31859  -0.00029  -0.09922  -0.00784  -0.10706   1.21153
   D39        0.35312  -0.00026  -0.10321  -0.01066  -0.11388   0.23925
   D40       -2.81635  -0.00015  -0.10753  -0.00172  -0.10926  -2.92562
   D41        2.38817  -0.00035  -0.09597  -0.01428  -0.11024   2.27792
   D42       -0.78131  -0.00024  -0.10029  -0.00535  -0.10563  -0.88695
   D43        3.12730   0.00000   0.00816  -0.00212   0.00606   3.13336
   D44       -0.01170   0.00005   0.00869  -0.00195   0.00676  -0.00494
   D45       -0.00733   0.00000   0.00097  -0.00005   0.00090  -0.00644
   D46        3.13685   0.00005   0.00150   0.00013   0.00160   3.13845
   D47        3.12424   0.00009  -0.00148   0.00525   0.00377   3.12801
   D48       -0.02492   0.00011   0.00417   0.00338   0.00755  -0.01737
   D49        0.01107  -0.00002   0.00294  -0.00384  -0.00091   0.01016
   D50       -3.13810   0.00000   0.00859  -0.00571   0.00287  -3.13522
   D51       -2.09951   0.00013   0.00000  -0.00145  -0.00148  -2.10099
   D52        2.12658  -0.00018   0.00727  -0.00788  -0.00063   2.12594
   D53        0.01309   0.00000   0.00266  -0.00388  -0.00125   0.01184
   D54        1.04891   0.00011  -0.00518   0.00025  -0.00490   1.04401
   D55       -1.00818  -0.00020   0.00209  -0.00618  -0.00406  -1.01224
   D56       -3.12167  -0.00001  -0.00252  -0.00218  -0.00467  -3.12634
   D57       -2.05963  -0.00011  -0.04518   0.00306  -0.04214  -2.10177
   D58        0.05534   0.00009  -0.04637   0.00620  -0.04020   0.01514
   D59        2.17699  -0.00024  -0.03976  -0.00056  -0.04035   2.13664
   D60        1.07480  -0.00008  -0.03992   0.00133  -0.03857   1.03623
   D61       -3.09342   0.00011  -0.04112   0.00446  -0.03662  -3.13004
   D62       -0.97177  -0.00021  -0.03451  -0.00229  -0.03678  -1.00855
         Item               Value     Threshold  Converged?
 Maximum Force            0.001027     0.000450     NO 
 RMS     Force            0.000295     0.000300     YES
 Maximum Displacement     0.313971     0.001800     NO 
 RMS     Displacement     0.082306     0.001200     NO 
 Predicted change in Energy=-1.219579D-04
 Lowest energy point so far.  Saving SCF results.
 GradGradGradGradGradGradGradGradGradGradGradGradGradGradGradGradGradGrad

 Leave Link  103 at Sat May  4 10:39:32 2024, MaxMem= 13421772800 cpu:               6.4 elap:               0.3
 (Enter /tmpu/scunam/7/gaussian-2016.03/g1/g16/l202.exe)
                          Input orientation:                          
 ---------------------------------------------------------------------
 Center     Atomic      Atomic             Coordinates (Angstroms)
 Number     Number       Type             X           Y           Z
 ---------------------------------------------------------------------
      1          8           0        2.680964   -1.258144   -1.235914
      2          6           0        1.964510   -0.526394   -0.214658
      3          6           0        0.462893   -0.847731   -0.371718
      4          6           0       -0.479975   -0.239298    0.681113
      5          6           0        2.537867   -1.047873    1.097027
      6          6           0        2.207624    0.950917   -0.445242
      7          6           0       -1.915217   -0.602457    0.431100
      8          6           0       -2.905118    0.189629    0.009572
      9          6           0       -4.290535   -0.366565   -0.201255
     10          6           0       -2.771401    1.656042   -0.286898
     11          6           0        2.701916    1.840625    0.403232
     12          1           0        0.144945   -0.501950   -1.362020
     13          1           0        0.365699   -1.936854   -0.374470
     14          1           0       -0.343763    0.842105    0.708536
     15          1           0       -0.193350   -0.612213    1.669142
     16          1           0        2.345641   -2.118017    1.174964
     17          1           0        3.614817   -0.888195    1.119849
     18          1           0        2.091331   -0.552036    1.958004
     19          1           0        1.929066    1.279951   -1.446154
     20          1           0       -2.156192   -1.649155    0.600401
     21          1           0        2.335208   -1.001786   -2.098908
     22          1           0       -4.614605   -0.235323   -1.239712
     23          1           0       -5.026870    0.161960    0.414348
     24          1           0       -4.342117   -1.427501    0.040414
     25          1           0       -3.447222    2.237402    0.349007
     26          1           0       -1.761766    2.033553   -0.139175
     27          1           0       -3.067589    1.865778   -1.319265
     28          1           0        2.837025    2.876427    0.117844
     29          1           0        2.995612    1.580704    1.412636
 ---------------------------------------------------------------------
                    Distance matrix (angstroms):
                    1          2          3          4          5
     1  O    0.000000
     2  C    1.446281   0.000000
     3  C    2.415598   1.543626   0.000000
     4  C    3.834654   2.619225   1.538714   0.000000
     5  C    2.346764   1.523547   2.550057   3.151849   0.000000
     6  C    2.393567   1.514834   2.506916   3.147774   2.546138
     7  C    4.932924   3.933836   2.521920   1.501436   4.524579
     8  C    5.903524   4.927094   3.544713   2.552698   5.686832
     9  C    7.104029   6.257101   4.780758   3.913455   6.984038
    10  C    6.254710   5.215084   4.091055   3.127298   6.116759
    11  C    3.505653   2.555060   3.583438   3.811526   2.975178
    12  H    2.649363   2.151245   1.096063   2.152650   3.474338
    13  H    2.561871   2.138021   1.093455   2.170510   2.770182
    14  H    4.164241   2.837817   2.161755   1.090293   3.467959
    15  H    4.137421   2.865733   2.156671   1.094267   2.824299
    16  H    2.581502   2.146991   2.747835   3.428933   1.090061
    17  H    2.560969   2.152980   3.487268   4.169039   1.088963
    18  H    3.323757   2.176510   2.857770   2.887884   1.089279
    19  H    2.655461   2.186486   2.798411   3.554836   3.501024
    20  H    5.188739   4.347999   2.906355   2.191782   4.758400
    21  H    0.964378   1.978336   2.551957   4.029288   3.202685
    22  H    7.366919   6.664849   5.187430   4.559029   7.568252
    23  H    8.009417   7.053288   5.636920   4.572354   7.691228
    24  H    7.140124   6.375783   4.857376   4.091267   6.970992
    25  H    7.230870   6.102715   5.032542   3.879290   6.868323
    26  H    5.637017   4.521523   3.647599   2.735273   5.432332
    27  H    6.543065   5.680199   4.552502   3.889550   6.763798
    28  H    4.353354   3.528602   4.443594   4.585576   4.055666
    29  H    3.895238   2.855016   3.936481   3.990895   2.686738
                    6          7          8          9         10
     6  C    0.000000
     7  C    4.492078   0.000000
     8  C    5.189080   1.336036   0.000000
     9  C    6.634859   2.469343   1.507706   0.000000
    10  C    5.031200   2.519800   1.502046   2.531016   0.000000
    11  C    1.325071   5.223728   5.858292   7.357408   5.519742
    12  H    2.684390   2.733066   3.415030   4.586850   3.783899
    13  H    3.425919   2.762631   3.920161   4.916943   4.770531
    14  H    2.802253   2.152486   2.734011   4.226773   2.747146
    15  H    3.560712   2.120771   3.278843   4.510615   3.951888
    16  H    3.473107   4.583139   5.852678   7.000028   6.524162
    17  H    2.795002   5.580080   6.701043   8.031937   7.016828
    18  H    2.836896   4.287937   5.413960   6.739808   5.793217
    19  H    1.089809   4.673975   5.165005   6.553184   4.855894
    20  H    5.186196   1.087339   2.071495   2.615933   3.477083
    21  H    2.562018   4.962511   5.772883   6.921349   6.035304
    22  H    6.970018   3.195793   2.159545   1.095737   2.807582
    23  H    7.327977   3.204216   2.160194   1.095670   2.794846
    24  H    6.985116   2.592909   2.163568   1.089335   3.475992
    25  H    5.853474   3.227782   2.145336   2.791883   1.095028
    26  H    4.125753   2.701354   2.174727   3.486989   1.087979
    27  H    5.424828   3.237889   2.145153   2.780090   1.094302
    28  H    2.102570   5.897844   6.340569   7.837151   5.753920
    29  H    2.114064   5.463135   6.222724   7.712615   6.012697
                   11         12         13         14         15
    11  C    0.000000
    12  H    3.891256   0.000000
    13  H    4.509110   1.755829   0.000000
    14  H    3.219692   2.516451   3.065754   0.000000
    15  H    4.000188   3.051974   2.498711   1.749408   0.000000
    16  H    4.048870   3.727067   2.520662   4.026508   2.993014
    17  H    2.965365   4.283559   3.726855   4.339755   3.857464
    18  H    2.918039   3.848829   3.214959   3.071560   2.303656
    19  H    2.081317   2.522961   3.733691   3.162301   4.217819
    20  H    5.984868   3.234564   2.719021   3.082688   2.463778
    21  H    3.804534   2.364338   2.779749   4.296343   4.554511
    22  H    7.780764   4.768581   5.333598   4.816286   5.305748
    23  H    7.908993   5.508532   5.840124   4.741374   5.053391
    24  H    7.773718   4.791367   4.753431   4.645894   4.530973
    25  H    6.162164   4.830665   5.699666   3.421633   4.522250
    26  H    4.500654   3.399952   4.510610   2.036884   3.567915
    27  H    6.021197   3.991032   5.209617   3.546704   4.830348
    28  H    1.082861   4.566259   5.433001   3.821623   4.874455
    29  H    1.082918   4.490263   4.741667   3.491806   3.878680
                   16         17         18         19         20
    16  H    0.000000
    17  H    1.768136   0.000000
    18  H    1.769214   1.771021   0.000000
    19  H    4.311610   3.758588   3.869211   0.000000
    20  H    4.562506   5.844094   4.592190   5.427464   0.000000
    21  H    3.458947   3.465645   4.089044   2.407771   5.279965
    22  H    7.603961   8.585870   7.436079   6.719992   3.380640
    23  H    7.754402   8.733803   7.318569   7.286728   3.399344
    24  H    6.818367   8.047909   6.769996   6.990559   2.267374
    25  H    7.294459   7.761182   6.406669   5.748372   4.103082
    26  H    5.986092   6.247352   5.092131   3.987274   3.776888
    27  H    7.169021   7.628119   6.572729   5.032479   4.107373
    28  H    5.128687   3.972576   3.961895   2.412305   6.756180
    29  H    3.762909   2.562148   2.379859   3.066048   6.134557
                   21         22         23         24         25
    21  H    0.000000
    22  H    7.044543   0.000000
    23  H    7.865809   1.750345   0.000000
    24  H    7.024572   1.770384   1.770621   0.000000
    25  H    7.065488   3.162464   2.609026   3.785180   0.000000
    26  H    5.462512   3.807580   3.803965   4.320806   1.766532
    27  H    6.166116   2.610405   3.122049   3.784024   1.750816
    28  H    4.495147   8.188573   8.324487   8.370775   6.320882
    29  H    4.408665   8.261253   8.207900   8.048264   6.562976
                   26         27         28         29
    26  H    0.000000
    27  H    1.768030   0.000000
    28  H    4.682454   6.160451   0.000000
    29  H    5.024524   6.656346   1.838623   0.000000
 Stoichiometry    C10H18O
 Framework group  C1[X(C10H18O)]
 Deg. of freedom    81
 Full point group                 C1      NOp   1
 RotChk:  IX=0 Diff= 4.16D-02
 Largest Abelian subgroup         C1      NOp   1
 Largest concise Abelian subgroup C1      NOp   1
                         Standard orientation:                         
 ---------------------------------------------------------------------
 Center     Atomic      Atomic             Coordinates (Angstroms)
 Number     Number       Type             X           Y           Z
 ---------------------------------------------------------------------
      1          8           0       -2.741487   -1.109615    1.195248
      2          6           0       -1.987294   -0.391286    0.191792
      3          6           0       -0.506670   -0.805214    0.330351
      4          6           0        0.466111   -0.222351   -0.709655
      5          6           0       -2.596002   -0.838670   -1.131278
      6          6           0       -2.141612    1.090262    0.467336
      7          6           0        1.878391   -0.676865   -0.479025
      8          6           0        2.915181    0.042502   -0.040199
      9          6           0        4.266140   -0.600515    0.145859
     10          6           0        2.869699    1.504755    0.300227
     11          6           0       -2.585962    2.032496   -0.351541
     12          1           0       -0.164665   -0.508487    1.328519
     13          1           0       -0.474069   -1.897771    0.300368
     14          1           0        0.394000    0.865541   -0.704327
     15          1           0        0.153778   -0.548069   -1.706538
     16          1           0       -2.467753   -1.915491   -1.241920
     17          1           0       -3.661706   -0.615111   -1.142961
     18          1           0       -2.124535   -0.344590   -1.979885
     19          1           0       -1.839874    1.372286    1.475849
     20          1           0        2.056308   -1.730442   -0.680587
     21          1           0       -2.377548   -0.899959    2.063360
     22          1           0        4.601766   -0.519655    1.185789
     23          1           0        5.029860   -0.098238   -0.458246
     24          1           0        4.253851   -1.654966   -0.127330
     25          1           0        3.576052    2.063929   -0.322251
     26          1           0        1.883555    1.945424    0.169730
     27          1           0        3.182110    1.665765    1.336553
     28          1           0       -2.658356    3.065493   -0.034897
     29          1           0       -2.898759    1.820579   -1.366412
 ---------------------------------------------------------------------
 Rotational constants (GHZ):           1.9482893           0.4702462           0.4293404
 Leave Link  202 at Sat May  4 10:39:32 2024, MaxMem= 13421772800 cpu:               2.7 elap:               0.1
 (Enter /tmpu/scunam/7/gaussian-2016.03/g1/g16/l301.exe)
 Standard basis: def2TZVP (5D, 7F)
 Ernie: Thresh=  0.10000D-02 Tol=  0.10000D-05 Strict=F.
 There are   504 symmetry adapted cartesian basis functions of A   symmetry.
 There are   449 symmetry adapted basis functions of A   symmetry.
   449 basis functions,   705 primitive gaussians,   504 cartesian basis functions
    43 alpha electrons       43 beta electrons
       nuclear repulsion energy       618.8336920214 Hartrees.
 IExCor=  402 DFT=T Ex+Corr=B3LYP ExCW=0 ScaHFX=  0.200000
 ScaDFX=  0.800000  0.720000  1.000000  0.810000 ScalE2=  1.000000  1.000000
 IRadAn=      5 IRanWt=     -1 IRanGd=            0 ICorTp=0 IEmpDi=  4
 NAtoms=   29 NActive=   29 NUniq=   29 SFac= 1.00D+00 NAtFMM=   60 NAOKFM=F Big=F
 Integral buffers will be    131072 words long.
 Raffenetti 2 integral format.
 Two-electron integral symmetry is turned on.
 Leave Link  301 at Sat May  4 10:39:32 2024, MaxMem= 13421772800 cpu:               1.6 elap:               0.1
 (Enter /tmpu/scunam/7/gaussian-2016.03/g1/g16/l302.exe)
 NPDir=0 NMtPBC=     1 NCelOv=     1 NCel=       1 NClECP=     1 NCelD=      1
         NCelK=      1 NCelE2=     1 NClLst=     1 CellRange=     0.0.
 One-electron integrals computed using PRISM.
 One-electron integral symmetry used in STVInt
   1 Symmetry operations used in ECPInt.
 ECPInt:  NShTT=   18721 NPrTT=   54252 LenC2=   17447 LenP2D=   38626.
 LDataN:  DoStor=T MaxTD1= 6 Len=  172
 NBasis=   449 RedAO= T EigKep=  6.71D-05  NBF=   449
 NBsUse=   449 1.00D-06 EigRej= -1.00D+00 NBFU=   449
 Precomputing XC quadrature grid using
 IXCGrd= 4 IRadAn=           5 IRanWt=          -1 IRanGd=           0 AccXCQ= 0.00D+00.
 Generated NRdTot=       0 NPtTot=           0 NUsed=           0 NTot=          32
 NSgBfM=   501   501   501   501   501 MxSgAt=    29 MxSgA2=    29.
 Leave Link  302 at Sat May  4 10:39:32 2024, MaxMem= 13421772800 cpu:              16.9 elap:               0.6
 (Enter /tmpu/scunam/7/gaussian-2016.03/g1/g16/l303.exe)
 DipDrv:  MaxL=1.
 Leave Link  303 at Sat May  4 10:39:32 2024, MaxMem= 13421772800 cpu:               3.0 elap:               0.1
 (Enter /tmpu/scunam/7/gaussian-2016.03/g1/g16/l401.exe)
 Initial guess from the checkpoint file:  "linalool.chk"
 B after Tr=     0.000000   -0.000000   -0.000000
         Rot=    0.999852   -0.016573    0.001924    0.004104 Ang=  -1.97 deg.
 Guess basis will be translated and rotated to current coordinates.
 JPrj=2 DoOrth=T DoCkMO=T.
 Generating alternative initial guess.
 ExpMin= 9.52D-02 ExpMax= 2.70D+04 ExpMxC= 9.22D+02 IAcc=2 IRadAn=         4 AccDes= 0.00D+00
 Harris functional with IExCor=  402 and IRadAn=       4 diagonalized for initial guess.
 HarFok:  IExCor=  402 AccDes= 0.00D+00 IRadAn=         4 IDoV= 1 UseB2=F ITyADJ=14
 ICtDFT=  3500011 ScaDFX=  1.000000  1.000000  1.000000  1.000000
 FoFCou: FMM=F IPFlag=           0 FMFlag=      100000 FMFlg1=           0
         NFxFlg=           0 DoJE=T BraDBF=F KetDBF=T FulRan=T
         wScrn=  0.000000 ICntrl=       500 IOpCl=  0 I1Cent=   200000004 NGrid=           0
         NMat0=    1 NMatS0=      1 NMatT0=    0 NMatD0=    1 NMtDS0=    0 NMtDT0=    0
 Petite list used in FoFCou.
 Harris En= -467.406918506846    
 Leave Link  401 at Sat May  4 10:39:34 2024, MaxMem= 13421772800 cpu:              40.4 elap:               1.3
 (Enter /tmpu/scunam/7/gaussian-2016.03/g1/g16/l502.exe)
 Integral symmetry usage will be decided dynamically.
 Closed shell SCF:
 Using DIIS extrapolation, IDIIS=  1040.
 NGot= 13421772800 LenX= 13421243903 LenY= 13420989383
 Requested convergence on RMS density matrix=1.00D-08 within 128 cycles.
 Requested convergence on MAX density matrix=1.00D-06.
 Requested convergence on             energy=1.00D-06.
 No special actions if energy rises.
 Fock matrices will be formed incrementally for  20 cycles.
 Integral accuracy reduced to 1.0D-05 until final iterations.

 Cycle   1  Pass 0  IDiag  1:
 FoFJK:  IHMeth= 1 ICntrl=       0 DoSepK=F KAlg= 0 I1Cent=           0 FoldK=F
 IRaf= 880000000 NMat=       1 IRICut=       1 DoRegI=T DoRafI=F ISym2E= 0 IDoP0=0 IntGTp=1.
 FoFCou: FMM=F IPFlag=           0 FMFlag=      100000 FMFlg1=           0
         NFxFlg=           0 DoJE=F BraDBF=F KetDBF=F FulRan=T
         wScrn=  0.000000 ICntrl=         0 IOpCl=  0 I1Cent=           0 NGrid=           0
         NMat0=    1 NMatS0=      1 NMatT0=    0 NMatD0=    1 NMtDS0=    0 NMtDT0=    0
 Symmetry not used in FoFCou.
 E= -467.262037551444    
 DIIS: error= 3.45D-03 at cycle   1 NSaved=   1.
 NSaved= 1 IEnMin= 1 EnMin= -467.262037551444     IErMin= 1 ErrMin= 3.45D-03
 ErrMax= 3.45D-03  0.00D+00 EMaxC= 1.00D-01 BMatC= 8.35D-03 BMatP= 8.35D-03
 IDIUse=3 WtCom= 9.65D-01 WtEn= 3.45D-02
 Coeff-Com:  0.100D+01
 Coeff-En:   0.100D+01
 Coeff:      0.100D+01
 Gap=     0.627 Goal=   None    Shift=    0.000
 GapD=    0.627 DampG=2.000 DampE=1.000 DampFc=2.0000 IDamp=-1.
 RMSDP=2.71D-04 MaxDP=7.34D-03              OVMax= 2.64D-02

 Cycle   2  Pass 0  IDiag  1:
 RMSU=  2.70D-04    CP:  9.98D-01
 E= -467.273468167666     Delta-E=       -0.011430616222 Rises=F Damp=F
 DIIS: error= 5.88D-04 at cycle   2 NSaved=   2.
 NSaved= 2 IEnMin= 2 EnMin= -467.273468167666     IErMin= 2 ErrMin= 5.88D-04
 ErrMax= 5.88D-04  0.00D+00 EMaxC= 1.00D-01 BMatC= 8.18D-05 BMatP= 8.35D-03
 IDIUse=3 WtCom= 9.94D-01 WtEn= 5.88D-03
 Coeff-Com: -0.518D-01 0.105D+01
 Coeff-En:   0.000D+00 0.100D+01
 Coeff:     -0.515D-01 0.105D+01
 Gap=     0.233 Goal=   None    Shift=    0.000
 RMSDP=4.86D-05 MaxDP=1.68D-03 DE=-1.14D-02 OVMax= 3.95D-03

 Cycle   3  Pass 0  IDiag  1:
 RMSU=  4.47D-05    CP:  9.97D-01  1.07D+00
 E= -467.273596523341     Delta-E=       -0.000128355675 Rises=F Damp=F
 DIIS: error= 2.65D-04 at cycle   3 NSaved=   3.
 NSaved= 3 IEnMin= 3 EnMin= -467.273596523341     IErMin= 3 ErrMin= 2.65D-04
 ErrMax= 2.65D-04  0.00D+00 EMaxC= 1.00D-01 BMatC= 5.51D-05 BMatP= 8.18D-05
 IDIUse=3 WtCom= 9.97D-01 WtEn= 2.65D-03
 Coeff-Com: -0.304D-01 0.510D+00 0.520D+00
 Coeff-En:   0.000D+00 0.000D+00 0.100D+01
 Coeff:     -0.304D-01 0.509D+00 0.521D+00
 Gap=     0.234 Goal=   None    Shift=    0.000
 RMSDP=2.20D-05 MaxDP=9.74D-04 DE=-1.28D-04 OVMax= 1.76D-03

 Cycle   4  Pass 0  IDiag  1:
 RMSU=  1.63D-05    CP:  9.98D-01  1.07D+00  6.75D-01
 E= -467.273632919842     Delta-E=       -0.000036396501 Rises=F Damp=F
 DIIS: error= 1.07D-04 at cycle   4 NSaved=   4.
 NSaved= 4 IEnMin= 4 EnMin= -467.273632919842     IErMin= 4 ErrMin= 1.07D-04
 ErrMax= 1.07D-04  0.00D+00 EMaxC= 1.00D-01 BMatC= 9.82D-06 BMatP= 5.51D-05
 IDIUse=3 WtCom= 9.99D-01 WtEn= 1.07D-03
 Coeff-Com: -0.659D-02 0.770D-01 0.299D+00 0.631D+00
 Coeff-En:   0.000D+00 0.000D+00 0.129D+00 0.871D+00
 Coeff:     -0.658D-02 0.770D-01 0.299D+00 0.631D+00
 Gap=     0.234 Goal=   None    Shift=    0.000
 RMSDP=7.00D-06 MaxDP=3.13D-04 DE=-3.64D-05 OVMax= 6.33D-04

 Initial convergence to 1.0D-05 achieved.  Increase integral accuracy.
 Cycle   5  Pass 1  IDiag  1:
 E= -467.273625287528     Delta-E=        0.000007632314 Rises=F Damp=F
 DIIS: error= 1.58D-04 at cycle   1 NSaved=   1.
 NSaved= 1 IEnMin= 1 EnMin= -467.273625287528     IErMin= 1 ErrMin= 1.58D-04
 ErrMax= 1.58D-04  0.00D+00 EMaxC= 1.00D-01 BMatC= 5.67D-06 BMatP= 5.67D-06
 IDIUse=3 WtCom= 9.98D-01 WtEn= 1.58D-03
 Coeff-Com:  0.100D+01
 Coeff-En:   0.100D+01
 Coeff:      0.100D+01
 Gap=     0.233 Goal=   None    Shift=    0.000
 RMSDP=7.00D-06 MaxDP=3.13D-04 DE= 7.63D-06 OVMax= 5.64D-04

 Cycle   6  Pass 1  IDiag  1:
 RMSU=  1.17D-04    CP:  1.00D+00
 E= -467.273628073327     Delta-E=       -0.000002785799 Rises=F Damp=F
 DIIS: error= 3.59D-05 at cycle   2 NSaved=   2.
 NSaved= 2 IEnMin= 2 EnMin= -467.273628073327     IErMin= 2 ErrMin= 3.59D-05
 ErrMax= 3.59D-05  0.00D+00 EMaxC= 1.00D-01 BMatC= 9.54D-07 BMatP= 5.67D-06
 IDIUse=1 WtCom= 1.00D+00 WtEn= 0.00D+00
 Coeff-Com:  0.195D+00 0.805D+00
 Coeff:      0.195D+00 0.805D+00
 Gap=     0.234 Goal=   None    Shift=    0.000
 RMSDP=4.20D-06 MaxDP=2.07D-04 DE=-2.79D-06 OVMax= 6.48D-04

 Cycle   7  Pass 1  IDiag  1:
 RMSU=  3.97D-06    CP:  1.00D+00  1.01D+00
 E= -467.273627593406     Delta-E=        0.000000479921 Rises=F Damp=F
 DIIS: error= 4.51D-05 at cycle   3 NSaved=   3.
 NSaved= 3 IEnMin= 2 EnMin= -467.273628073327     IErMin= 2 ErrMin= 3.59D-05
 ErrMax= 4.51D-05  0.00D+00 EMaxC= 1.00D-01 BMatC= 1.46D-06 BMatP= 9.54D-07
 IDIUse=1 WtCom= 1.00D+00 WtEn= 0.00D+00
 Coeff-Com:  0.507D-02 0.552D+00 0.443D+00
 Coeff:      0.507D-02 0.552D+00 0.443D+00
 Gap=     0.234 Goal=   None    Shift=    0.000
 RMSDP=2.17D-06 MaxDP=1.21D-04 DE= 4.80D-07 OVMax= 4.15D-04

 Cycle   8  Pass 1  IDiag  1:
 RMSU=  8.57D-07    CP:  1.00D+00  1.01D+00  5.04D-01
 E= -467.273628981646     Delta-E=       -0.000001388240 Rises=F Damp=F
 DIIS: error= 5.54D-06 at cycle   4 NSaved=   4.
 NSaved= 4 IEnMin= 4 EnMin= -467.273628981646     IErMin= 4 ErrMin= 5.54D-06
 ErrMax= 5.54D-06  0.00D+00 EMaxC= 1.00D-01 BMatC= 2.28D-08 BMatP= 9.54D-07
 IDIUse=1 WtCom= 1.00D+00 WtEn= 0.00D+00
 Coeff-Com: -0.186D-02 0.289D+00 0.247D+00 0.466D+00
 Coeff:     -0.186D-02 0.289D+00 0.247D+00 0.466D+00
 Gap=     0.234 Goal=   None    Shift=    0.000
 RMSDP=3.28D-07 MaxDP=1.63D-05 DE=-1.39D-06 OVMax= 5.12D-05

 Cycle   9  Pass 1  IDiag  1:
 RMSU=  2.37D-07    CP:  1.00D+00  1.01D+00  4.94D-01  7.40D-01
 E= -467.273629004405     Delta-E=       -0.000000022759 Rises=F Damp=F
 DIIS: error= 1.01D-06 at cycle   5 NSaved=   5.
 NSaved= 5 IEnMin= 5 EnMin= -467.273629004405     IErMin= 5 ErrMin= 1.01D-06
 ErrMax= 1.01D-06  0.00D+00 EMaxC= 1.00D-01 BMatC= 4.99D-10 BMatP= 2.28D-08
 IDIUse=1 WtCom= 1.00D+00 WtEn= 0.00D+00
 Coeff-Com: -0.111D-02 0.122D+00 0.105D+00 0.228D+00 0.546D+00
 Coeff:     -0.111D-02 0.122D+00 0.105D+00 0.228D+00 0.546D+00
 Gap=     0.234 Goal=   None    Shift=    0.000
 RMSDP=7.14D-08 MaxDP=2.78D-06 DE=-2.28D-08 OVMax= 5.77D-06

 Cycle  10  Pass 1  IDiag  1:
 RMSU=  6.88D-08    CP:  1.00D+00  1.01D+00  4.95D-01  7.32D-01  9.39D-01
 E= -467.273629004860     Delta-E=       -0.000000000455 Rises=F Damp=F
 DIIS: error= 2.21D-07 at cycle   6 NSaved=   6.
 NSaved= 6 IEnMin= 6 EnMin= -467.273629004860     IErMin= 6 ErrMin= 2.21D-07
 ErrMax= 2.21D-07  0.00D+00 EMaxC= 1.00D-01 BMatC= 4.95D-11 BMatP= 4.99D-10
 IDIUse=1 WtCom= 1.00D+00 WtEn= 0.00D+00
 Coeff-Com: -0.517D-03 0.510D-01 0.442D-01 0.998D-01 0.302D+00 0.503D+00
 Coeff:     -0.517D-03 0.510D-01 0.442D-01 0.998D-01 0.302D+00 0.503D+00
 Gap=     0.234 Goal=   None    Shift=    0.000
 RMSDP=1.98D-08 MaxDP=1.11D-06 DE=-4.55D-10 OVMax= 1.89D-06

 Cycle  11  Pass 1  IDiag  1:
 RMSU=  1.82D-08    CP:  1.00D+00  1.01D+00  4.96D-01  7.32D-01  9.49D-01
                    CP:  9.08D-01
 E= -467.273629004896     Delta-E=       -0.000000000036 Rises=F Damp=F
 DIIS: error= 6.60D-08 at cycle   7 NSaved=   7.
 NSaved= 7 IEnMin= 7 EnMin= -467.273629004896     IErMin= 7 ErrMin= 6.60D-08
 ErrMax= 6.60D-08  0.00D+00 EMaxC= 1.00D-01 BMatC= 3.62D-12 BMatP= 4.95D-11
 IDIUse=1 WtCom= 1.00D+00 WtEn= 0.00D+00
 Coeff-Com: -0.232D-05-0.213D-02-0.183D-02-0.238D-02 0.205D-01 0.213D+00
 Coeff-Com:  0.773D+00
 Coeff:     -0.232D-05-0.213D-02-0.183D-02-0.238D-02 0.205D-01 0.213D+00
 Coeff:      0.773D+00
 Gap=     0.234 Goal=   None    Shift=    0.000
 RMSDP=6.36D-09 MaxDP=2.53D-07 DE=-3.64D-11 OVMax= 7.65D-07

 SCF Done:  E(RB3LYP) =  -467.273629005     A.U. after   11 cycles
            NFock= 11  Conv=0.64D-08     -V/T= 2.0054
 KE= 4.647671743633D+02 PE=-2.322945174337D+03 EE= 7.720706789469D+02
 Leave Link  502 at Sat May  4 10:40:23 2024, MaxMem= 13421772800 cpu:            1557.4 elap:              48.7
 (Enter /tmpu/scunam/7/gaussian-2016.03/g1/g16/l508.exe)
 QCSCF skips out because SCF is already converged.
 Leave Link  508 at Sat May  4 10:40:23 2024, MaxMem= 13421772800 cpu:               0.2 elap:               0.0
 (Enter /tmpu/scunam/7/gaussian-2016.03/g1/g16/l701.exe)
 ... and contract with generalized density number  0.
 Compute integral first derivatives.
   1 Symmetry operations used in ECPInt.
 ECPInt:  NShTT=   18721 NPrTT=   54252 LenC2=   17447 LenP2D=   38626.
 LDataN:  DoStor=T MaxTD1= 7 Len=  274
 Leave Link  701 at Sat May  4 10:40:23 2024, MaxMem= 13421772800 cpu:              10.5 elap:               0.4
 (Enter /tmpu/scunam/7/gaussian-2016.03/g1/g16/l702.exe)
 L702 exits ... SP integral derivatives will be done elsewhere.
 Leave Link  702 at Sat May  4 10:40:23 2024, MaxMem= 13421772800 cpu:               1.8 elap:               0.1
 (Enter /tmpu/scunam/7/gaussian-2016.03/g1/g16/l703.exe)
 Integral derivatives from FoFJK, PRISM(SPDF).
 Compute integral first derivatives, UseDBF=F ICtDFT=           0.
 Calling FoFJK, ICntrl=      2127 FMM=F ISym2X=0 I1Cent= 0 IOpClX= 0 NMat=1 NMatS=1 NMatT=0.
 FoFJK:  IHMeth= 1 ICntrl=    2127 DoSepK=F KAlg= 0 I1Cent=           0 FoldK=F
 IRaf=         0 NMat=       1 IRICut=       1 DoRegI=T DoRafI=F ISym2E= 0 IDoP0=0 IntGTp=1.
 FoFCou: FMM=F IPFlag=           0 FMFlag=      100000 FMFlg1=         800
         NFxFlg=           0 DoJE=F BraDBF=F KetDBF=F FulRan=T
         wScrn=  0.000000 ICntrl=      2127 IOpCl=  0 I1Cent=           0 NGrid=           0
         NMat0=    1 NMatS0=      1 NMatT0=    0 NMatD0=    1 NMtDS0=    0 NMtDT0=    0
 Symmetry not used in FoFCou.
 Leave Link  703 at Sat May  4 10:40:44 2024, MaxMem= 13421772800 cpu:             665.2 elap:              20.8
 (Enter /tmpu/scunam/7/gaussian-2016.03/g1/g16/l716.exe)
 Dipole        = 5.52412691D-01 3.89429436D-01 9.28031929D-02
 ***** Axes restored to original set *****
 -------------------------------------------------------------------
 Center     Atomic                   Forces (Hartrees/Bohr)
 Number     Number              X              Y              Z
 -------------------------------------------------------------------
      1        8           0.000496028    0.000024420    0.000455962
      2        6           0.000758924    0.000300793   -0.000651222
      3        6          -0.000385092    0.000343093    0.001242602
      4        6           0.000594975   -0.000196282   -0.000474773
      5        6          -0.001153710    0.000786476   -0.000648571
      6        6          -0.000762622   -0.001376348   -0.000751437
      7        6           0.000562650    0.001487346   -0.000572416
      8        6          -0.001933353   -0.002687298    0.000552522
      9        6          -0.000386897    0.001636920   -0.000600197
     10        6          -0.000084156    0.000496767    0.000528762
     11        6           0.000515434    0.000614151    0.001090494
     12        1          -0.000048136   -0.000352746   -0.000176982
     13        1          -0.000198208   -0.000083678   -0.000149433
     14        1          -0.000033292   -0.000101701    0.000098437
     15        1          -0.000057052    0.000131131    0.000267991
     16        1           0.000223651   -0.000223848    0.000098442
     17        1           0.000445829   -0.000284991    0.000192667
     18        1           0.000158922   -0.000010125    0.000056031
     19        1           0.000186651    0.000491260    0.000362656
     20        1           0.000056211   -0.000401877   -0.000029227
     21        1          -0.000156469    0.000071920   -0.000157650
     22        1           0.000529785   -0.000250443    0.000106592
     23        1           0.000577212   -0.000252995    0.000341975
     24        1          -0.000055328   -0.000357218    0.000057358
     25        1           0.000202471    0.000115924    0.000057268
     26        1          -0.000189203    0.000329275   -0.000345662
     27        1           0.000326616    0.000117145   -0.000378796
     28        1          -0.000114939   -0.000134757   -0.000438921
     29        1          -0.000076903   -0.000232315   -0.000134470
 -------------------------------------------------------------------
 Cartesian Forces:  Max     0.002687298 RMS     0.000610006
 Leave Link  716 at Sat May  4 10:40:44 2024, MaxMem= 13421772800 cpu:               1.8 elap:               0.1
 (Enter /tmpu/scunam/7/gaussian-2016.03/g1/g16/l103.exe)

 GradGradGradGradGradGradGradGradGradGradGradGradGradGradGradGradGradGrad
 Berny optimization.
 Using GEDIIS/GDIIS optimizer.
 FormGI is forming the generalized inverse of G from B-inverse, IUseBI=4.
 Internal  Forces:  Max     0.001249260 RMS     0.000307106
 Search for a local minimum.
 Step number   5 out of a maximum of  174
 All quantities printed in internal units (Hartrees-Bohrs-Radians)
 RMS Force = .30711D-03 SwitMx=.10000D-02 MixMth= 2
 Mixed Optimization -- En-DIIS/RFO-DIIS
 Swapping is turned off.
 Update second derivatives using D2CorX and points    4    5
 DE= -1.53D-04 DEPred=-1.22D-04 R= 1.25D+00
 TightC=F SS=  1.41D+00  RLast= 3.02D-01 DXNew= 1.6575D+00 9.0640D-01
 Trust test= 1.25D+00 RLast= 3.02D-01 DXMaxT set to 9.86D-01
 ITU=  1  1  1  1  0
     Eigenvalues ---    0.00125   0.00251   0.00331   0.00341   0.00591
     Eigenvalues ---    0.00707   0.00735   0.01183   0.01316   0.01559
     Eigenvalues ---    0.01578   0.02820   0.02915   0.02921   0.03168
     Eigenvalues ---    0.04154   0.04520   0.04771   0.05477   0.05487
     Eigenvalues ---    0.05758   0.06722   0.06939   0.07040   0.07290
     Eigenvalues ---    0.07363   0.08413   0.08904   0.09290   0.12624
     Eigenvalues ---    0.12833   0.15979   0.15999   0.16000   0.16000
     Eigenvalues ---    0.16000   0.16000   0.16000   0.16000   0.16000
     Eigenvalues ---    0.16000   0.16054   0.16085   0.16233   0.16673
     Eigenvalues ---    0.16940   0.17750   0.21882   0.22003   0.22326
     Eigenvalues ---    0.23026   0.24818   0.25538   0.28031   0.29224
     Eigenvalues ---    0.29638   0.31246   0.31914   0.32071   0.33659
     Eigenvalues ---    0.33735   0.33854   0.34078   0.34100   0.34145
     Eigenvalues ---    0.34175   0.34229   0.34262   0.34286   0.34295
     Eigenvalues ---    0.34449   0.34532   0.34811   0.34906   0.35402
     Eigenvalues ---    0.35649   0.37062   0.40413   0.52959   0.57112
     Eigenvalues ---    0.58669
 En-DIIS/RFO-DIIS/Sim-DIIS IScMMF=       -3 using points:     5    4    3    2
 RFO step:  Lambda=-1.44053880D-04.
 NNeg= 0 NGDIIS= 4 SimSw=  2.50D-01 Rises=F DC= -1.53D-04 SmlDif=  1.00D-05
 NRisDI= 0 DoIntr=F SqrtH=F CThrHd= 10.0 CDAdj=  3.0
 RMS Error=  0.2088596198D-01 NUsed= 4 OKEnD=T EnDIS=F
 InvSVX:  RCond= 5.31D-05 Info=           0 Equed=N FErr=  1.58D-12 BErr=  4.25D-17
 DidBck=F Rises=F RFO-DIIS coefs:    1.32478    0.22147   -0.75217    0.20592
 Iteration  1 RMS(Cart)=  0.05996633 RMS(Int)=  0.00099591
 Iteration  2 RMS(Cart)=  0.00168351 RMS(Int)=  0.00000831
 Iteration  3 RMS(Cart)=  0.00000102 RMS(Int)=  0.00000829
 Iteration  4 RMS(Cart)=  0.00000000 RMS(Int)=  0.00000829
 ITry= 1 IFail=0 DXMaxC= 2.12D-01 DCOld= 1.00D+10 DXMaxT= 9.86D-01 DXLimC= 3.00D+00 Rises=F
 Variable       Old X    -DE/DX   Delta X   Delta X   Delta X     New X
                                 (Linear)    (Quad)   (Total)
    R1        2.73307  -0.00009   0.00054  -0.00135  -0.00080   2.73227
    R2        1.82241   0.00022   0.00054  -0.00003   0.00051   1.82292
    R3        2.91703   0.00046   0.00103  -0.00003   0.00100   2.91803
    R4        2.87909  -0.00048  -0.00002  -0.00019  -0.00021   2.87888
    R5        2.86262  -0.00068   0.00008  -0.00072  -0.00064   2.86198
    R6        2.90775  -0.00030   0.00111  -0.00200  -0.00089   2.90686
    R7        2.07126   0.00006  -0.00016   0.00037   0.00021   2.07147
    R8        2.06633   0.00010   0.00051  -0.00007   0.00044   2.06677
    R9        2.83730   0.00036  -0.00274   0.00132  -0.00141   2.83589
   R10        2.06035  -0.00010  -0.00054  -0.00014  -0.00067   2.05968
   R11        2.06787   0.00018   0.00091   0.00043   0.00134   2.06921
   R12        2.05992   0.00019   0.00024   0.00028   0.00052   2.06043
   R13        2.05784   0.00040   0.00026   0.00051   0.00077   2.05861
   R14        2.05844  -0.00003   0.00080  -0.00075   0.00005   2.05849
   R15        2.50402   0.00062   0.00026   0.00055   0.00082   2.50484
   R16        2.05944  -0.00023  -0.00000  -0.00049  -0.00049   2.05895
   R17        2.52474   0.00015   0.00281  -0.00254   0.00027   2.52501
   R18        2.05477   0.00037  -0.00000   0.00105   0.00105   2.05582
   R19        2.84915  -0.00089   0.00197  -0.00290  -0.00093   2.84822
   R20        2.83846   0.00109  -0.00267   0.00386   0.00119   2.83965
   R21        2.07064  -0.00029   0.00085  -0.00126  -0.00041   2.07023
   R22        2.07052  -0.00032   0.00046  -0.00109  -0.00063   2.06988
   R23        2.05854   0.00036  -0.00031   0.00096   0.00065   2.05919
   R24        2.06930  -0.00003   0.00012  -0.00034  -0.00022   2.06908
   R25        2.05598  -0.00011  -0.00028   0.00013  -0.00015   2.05583
   R26        2.06793   0.00029   0.00013   0.00079   0.00092   2.06885
   R27        2.04631  -0.00003   0.00035  -0.00035   0.00000   2.04631
   R28        2.04642  -0.00009   0.00076  -0.00090  -0.00014   2.04628
    A1        1.89630  -0.00014  -0.00051  -0.00015  -0.00067   1.89564
    A2        1.88045   0.00028   0.00217  -0.00064   0.00154   1.88198
    A3        1.82175  -0.00002  -0.00011   0.00004  -0.00008   1.82167
    A4        1.88224  -0.00001  -0.00064   0.00121   0.00058   1.88282
    A5        1.96323  -0.00032   0.00181  -0.00384  -0.00202   1.96120
    A6        1.92159   0.00021  -0.00010   0.00121   0.00115   1.92274
    A7        1.98718  -0.00012  -0.00298   0.00202  -0.00096   1.98622
    A8        2.03103   0.00021  -0.00053   0.00095   0.00042   2.03145
    A9        1.88435  -0.00003   0.00033   0.00078   0.00111   1.88546
   A10        1.86928   0.00001  -0.00087   0.00040  -0.00047   1.86881
   A11        1.89200   0.00001  -0.00135   0.00238   0.00103   1.89303
   A12        1.91889  -0.00011   0.00147  -0.00200  -0.00053   1.91836
   A13        1.86102  -0.00013   0.00110  -0.00287  -0.00177   1.85925
   A14        1.95646  -0.00013  -0.00248   0.00025  -0.00223   1.95423
   A15        1.91012   0.00023  -0.00100   0.00204   0.00105   1.91117
   A16        1.89921   0.00003  -0.00012  -0.00026  -0.00038   1.89883
   A17        1.94283   0.00003   0.00209  -0.00021   0.00189   1.94472
   A18        1.89474  -0.00005   0.00059  -0.00105  -0.00046   1.89427
   A19        1.85728  -0.00011   0.00108  -0.00087   0.00020   1.85748
   A20        1.90839   0.00016  -0.00015   0.00144   0.00129   1.90968
   A21        1.91775   0.00035  -0.00128   0.00199   0.00071   1.91846
   A22        1.95026   0.00012  -0.00031   0.00144   0.00114   1.95139
   A23        1.89321  -0.00038   0.00166  -0.00364  -0.00198   1.89122
   A24        1.89450  -0.00009  -0.00018  -0.00061  -0.00079   1.89371
   A25        1.89875  -0.00020   0.00034  -0.00083  -0.00049   1.89826
   A26        2.23599  -0.00049  -0.00035  -0.00058  -0.00093   2.23505
   A27        1.97493   0.00086  -0.00215   0.00509   0.00294   1.97787
   A28        2.07227  -0.00036   0.00250  -0.00451  -0.00201   2.07026
   A29        2.23623   0.00096   0.00417   0.00168   0.00585   2.24208
   A30        2.00287  -0.00060  -0.00315  -0.00094  -0.00410   1.99877
   A31        2.04387  -0.00036  -0.00101  -0.00061  -0.00163   2.04224
   A32        2.10161   0.00125  -0.00346   0.00562   0.00215   2.10376
   A33        2.18354  -0.00073   0.00505  -0.00501   0.00003   2.18356
   A34        1.99803  -0.00052  -0.00153  -0.00062  -0.00217   1.99586
   A35        1.93918  -0.00032   0.00038  -0.00149  -0.00111   1.93807
   A36        1.94016  -0.00046   0.00028  -0.00218  -0.00190   1.93826
   A37        1.95171   0.00011  -0.00057   0.00053  -0.00004   1.95167
   A38        1.85037   0.00068  -0.00136   0.00526   0.00389   1.85426
   A39        1.88904   0.00001   0.00038  -0.00065  -0.00027   1.88877
   A40        1.88950   0.00002   0.00086  -0.00120  -0.00033   1.88917
   A41        1.92703   0.00016  -0.00166   0.00241   0.00075   1.92778
   A42        1.97639   0.00050   0.00275   0.00018   0.00294   1.97933
   A43        1.92754   0.00002  -0.00153   0.00082  -0.00071   1.92683
   A44        1.88564  -0.00030   0.00061  -0.00154  -0.00093   1.88471
   A45        1.85360   0.00008  -0.00027   0.00130   0.00103   1.85463
   A46        1.88890  -0.00050  -0.00003  -0.00323  -0.00326   1.88564
   A47        2.11770  -0.00046   0.00192  -0.00353  -0.00161   2.11610
   A48        2.13751  -0.00004  -0.00012   0.00013   0.00001   2.13752
   A49        2.02796   0.00050  -0.00181   0.00341   0.00160   2.02956
    D1        1.00742   0.00019  -0.00313  -0.00064  -0.00377   1.00366
    D2        3.09783  -0.00006  -0.00006  -0.00535  -0.00541   3.09241
    D3       -1.06635  -0.00021  -0.00391  -0.00238  -0.00628  -1.07263
    D4        3.07445  -0.00009   0.00136   0.00308   0.00445   3.07890
    D5       -1.07794   0.00005  -0.00051   0.00748   0.00697  -1.07097
    D6        0.92026  -0.00010   0.00049   0.00473   0.00523   0.92549
    D7        1.07615  -0.00006  -0.00076   0.00549   0.00473   1.08087
    D8       -3.07625   0.00008  -0.00263   0.00989   0.00725  -3.06900
    D9       -1.07804  -0.00008  -0.00163   0.00714   0.00551  -1.07254
   D10       -1.16031   0.00018   0.00185   0.00483   0.00668  -1.15363
   D11        0.97048   0.00032  -0.00002   0.00923   0.00920   0.97968
   D12        2.96869   0.00016   0.00097   0.00648   0.00745   2.97615
   D13       -1.06715  -0.00004  -0.00212  -0.00067  -0.00279  -1.06994
   D14        1.00888  -0.00019  -0.00096  -0.00305  -0.00400   1.00488
   D15        3.11828  -0.00012  -0.00160  -0.00178  -0.00338   3.11490
   D16        0.96657   0.00013   0.00129  -0.00330  -0.00201   0.96456
   D17        3.04260  -0.00002   0.00245  -0.00568  -0.00322   3.03938
   D18       -1.13119   0.00005   0.00181  -0.00442  -0.00260  -1.13379
   D19       -3.11512   0.00005   0.00027  -0.00321  -0.00294  -3.11806
   D20       -1.03909  -0.00010   0.00144  -0.00559  -0.00416  -1.04325
   D21        1.07031  -0.00003   0.00079  -0.00432  -0.00354   1.06677
   D22       -2.16282   0.00024  -0.03061   0.01701  -0.01361  -2.17642
   D23        0.97706   0.00021  -0.02813   0.01640  -0.01172   0.96534
   D24        2.07305  -0.00020  -0.03283   0.01641  -0.01642   2.05663
   D25       -1.07025  -0.00024  -0.03035   0.01580  -0.01454  -1.08479
   D26       -0.15016   0.00015  -0.03286   0.01898  -0.01388  -0.16404
   D27        2.98972   0.00011  -0.03038   0.01838  -0.01200   2.97772
   D28        3.13326   0.00011  -0.01117   0.01298   0.00180   3.13506
   D29        0.96885  -0.00000  -0.01142   0.01159   0.00017   0.96902
   D30       -1.05405  -0.00001  -0.01209   0.01165  -0.00043  -1.05448
   D31        1.00650  -0.00002  -0.01017   0.00940  -0.00077   1.00572
   D32       -1.15791  -0.00013  -0.01042   0.00801  -0.00240  -1.16032
   D33        3.10237  -0.00014  -0.01109   0.00808  -0.00301   3.09936
   D34       -1.02165   0.00019  -0.01153   0.01259   0.00105  -1.02060
   D35        3.09713   0.00008  -0.01178   0.01120  -0.00058   3.09655
   D36        1.07423   0.00007  -0.01244   0.01126  -0.00118   1.07305
   D37       -1.90679  -0.00032  -0.08230  -0.01482  -0.09712  -2.00390
   D38        1.21153  -0.00021  -0.08113  -0.00806  -0.08918   1.12235
   D39        0.23925  -0.00010  -0.08384  -0.01215  -0.09599   0.14326
   D40       -2.92562   0.00001  -0.08267  -0.00538  -0.08805  -3.01367
   D41        2.27792  -0.00025  -0.08099  -0.01396  -0.09494   2.18298
   D42       -0.88695  -0.00014  -0.07981  -0.00720  -0.08701  -0.97396
   D43        3.13336  -0.00007   0.00214   0.00014   0.00227   3.13564
   D44       -0.00494   0.00000   0.00684  -0.00339   0.00345  -0.00149
   D45       -0.00644  -0.00004  -0.00046   0.00076   0.00030  -0.00613
   D46        3.13845   0.00004   0.00424  -0.00277   0.00147   3.13992
   D47        3.12801   0.00004   0.00113   0.00293   0.00406   3.13206
   D48       -0.01737   0.00005   0.00766  -0.00141   0.00626  -0.01111
   D49        0.01016  -0.00007  -0.00004  -0.00397  -0.00402   0.00614
   D50       -3.13522  -0.00006   0.00649  -0.00831  -0.00181  -3.13704
   D51       -2.10099   0.00013   0.00093  -0.00486  -0.00395  -2.10495
   D52        2.12594  -0.00022   0.00221  -0.00907  -0.00689   2.11906
   D53        0.01184  -0.00000   0.00129  -0.00637  -0.00510   0.00674
   D54        1.04401   0.00012  -0.00501  -0.00095  -0.00594   1.03807
   D55       -1.01224  -0.00023  -0.00373  -0.00516  -0.00887  -1.02111
   D56       -3.12634  -0.00001  -0.00465  -0.00246  -0.00709  -3.13343
   D57       -2.10177   0.00003  -0.03493   0.00917  -0.02577  -2.12754
   D58        0.01514   0.00012  -0.03342   0.00907  -0.02437  -0.00923
   D59        2.13664  -0.00017  -0.03264   0.00561  -0.02705   2.10958
   D60        1.03623   0.00005  -0.02877   0.00508  -0.02367   1.01256
   D61       -3.13004   0.00013  -0.02726   0.00497  -0.02228   3.13087
   D62       -1.00855  -0.00016  -0.02649   0.00151  -0.02496  -1.03351
         Item               Value     Threshold  Converged?
 Maximum Force            0.001249     0.000450     NO 
 RMS     Force            0.000307     0.000300     NO 
 Maximum Displacement     0.211987     0.001800     NO 
 RMS     Displacement     0.060031     0.001200     NO 
 Predicted change in Energy=-7.486809D-05
 Lowest energy point so far.  Saving SCF results.
 GradGradGradGradGradGradGradGradGradGradGradGradGradGradGradGradGradGrad

 Leave Link  103 at Sat May  4 10:40:44 2024, MaxMem= 13421772800 cpu:               5.8 elap:               0.2
 (Enter /tmpu/scunam/7/gaussian-2016.03/g1/g16/l202.exe)
                          Input orientation:                          
 ---------------------------------------------------------------------
 Center     Atomic      Atomic             Coordinates (Angstroms)
 Number     Number       Type             X           Y           Z
 ---------------------------------------------------------------------
      1          8           0        2.712207   -1.303024   -1.199710
      2          6           0        1.981591   -0.543665   -0.209723
      3          6           0        0.480983   -0.865716   -0.379639
      4          6           0       -0.475956   -0.222777    0.638739
      5          6           0        2.532105   -1.032633    1.123957
      6          6           0        2.233101    0.926459   -0.472726
      7          6           0       -1.906320   -0.593596    0.376788
      8          6           0       -2.916991    0.200084    0.010746
      9          6           0       -4.293708   -0.369206   -0.217838
     10          6           0       -2.815979    1.683561   -0.206339
     11          6           0        2.702975    1.838093    0.366976
     12          1           0        0.178620   -0.552720   -1.385726
     13          1           0        0.380733   -1.954374   -0.349213
     14          1           0       -0.337946    0.858381    0.635455
     15          1           0       -0.205556   -0.566384    1.642628
     16          1           0        2.333622   -2.099618    1.228728
     17          1           0        3.610015   -0.879050    1.159287
     18          1           0        2.076259   -0.511997    1.965224
     19          1           0        1.984225    1.231698   -1.488604
     20          1           0       -2.126639   -1.652657    0.492388
     21          1           0        2.377391   -1.071288   -2.074205
     22          1           0       -4.631901   -0.181269   -1.242762
     23          1           0       -5.029986    0.105567    0.439615
     24          1           0       -4.321954   -1.444146   -0.041478
     25          1           0       -3.513686    2.214600    0.449430
     26          1           0       -1.818756    2.079676   -0.026996
     27          1           0       -3.103236    1.939676   -1.231255
     28          1           0        2.845531    2.866040    0.057791
     29          1           0        2.968655    1.603884    1.390262
 ---------------------------------------------------------------------
                    Distance matrix (angstroms):
                    1          2          3          4          5
     1  O    0.000000
     2  C    1.445856   0.000000
     3  C    2.417047   1.544155   0.000000
     4  C    3.835520   2.619618   1.538244   0.000000
     5  C    2.346268   1.523436   2.548679   3.152735   0.000000
     6  C    2.393459   1.514494   2.508082   3.145646   2.544964
     7  C    4.931473   3.932218   2.519017   1.500688   4.522238
     8  C    5.950832   4.959625   3.582535   2.555746   5.696620
     9  C    7.135750   6.277729   4.803163   3.915405   6.988010
    10  C    6.361393   5.289350   4.171188   3.134324   6.144054
    11  C    3.510158   2.554554   3.578445   3.798242   2.973766
    12  H    2.648890   2.152619   1.096176   2.153089   3.473862
    13  H    2.565808   2.138295   1.093687   2.169883   2.765545
    14  H    4.164485   2.839069   2.161845   1.089936   3.471565
    15  H    4.139428   2.866240   2.156501   1.094978   2.825101
    16  H    2.583640   2.148036   2.746202   3.429920   1.090335
    17  H    2.559429   2.153703   3.487021   4.170951   1.089370
    18  H    3.323696   2.177236   2.858042   2.890850   1.089306
    19  H    2.652967   2.188026   2.808681   3.562804   3.500406
    20  H    5.138080   4.312816   2.859965   2.188773   4.742068
    21  H    0.964648   1.977710   2.551505   4.027607   3.202135
    22  H    7.429408   6.703490   5.230204   4.562197   7.592705
    23  H    8.038225   7.071446   5.655559   4.570191   7.677828
    24  H    7.130276   6.369761   4.849447   4.092204   6.964604
    25  H    7.338602   6.183897   5.112053   3.899288   6.895731
    26  H    5.774733   4.621466   3.753464   2.747291   5.471852
    27  H    6.658489   5.750302   4.630562   3.882741   6.792549
    28  H    4.356625   3.527612   4.439419   4.572808   4.053961
    29  H    3.901773   2.854157   3.926829   3.970746   2.685650
                    6          7          8          9         10
     6  C    0.000000
     7  C    4.490773   0.000000
     8  C    5.223486   1.336177   0.000000
     9  C    6.659050   2.470537   1.507213   0.000000
    10  C    5.112472   2.520508   1.502676   2.529361   0.000000
    11  C    1.325502   5.211411   5.864639   7.359874   5.550804
    12  H    2.691177   2.730403   3.478456   4.625944   3.919124
    13  H    3.427203   2.758515   3.955533   4.937653   4.844993
    14  H    2.800532   2.152892   2.734061   4.228846   2.744119
    15  H    3.556733   2.120304   3.256131   4.495910   3.910913
    16  H    3.473067   4.579412   5.860123   7.000599   6.549065
    17  H    2.796287   5.578866   6.714573   8.038984   7.051618
    18  H    2.835023   4.288441   5.409213   6.735179   5.785340
    19  H    1.089550   4.684839   5.228211   6.602286   4.989022
    20  H    5.156609   1.087894   2.071058   2.616841   3.477608
    21  H    2.564478   4.958400   5.830427   6.960070   6.168403
    22  H    6.996303   3.197147   2.158154   1.095520   2.801666
    23  H    7.366048   3.201572   2.158150   1.095335   2.794486
    24  H    6.983873   2.594931   2.163363   1.089678   3.475297
    25  H    5.961144   3.236490   2.146338   2.780240   1.094911
    26  H    4.236287   2.705013   2.177249   3.486952   1.087899
    27  H    5.484384   3.230461   2.145562   2.788399   1.094789
    28  H    2.102021   5.886503   6.349503   7.842928   5.789707
    29  H    2.114396   5.442557   6.206009   7.695518   6.001456
                   11         12         13         14         15
    11  C    0.000000
    12  H    3.893625   0.000000
    13  H    4.504280   1.754948   0.000000
    14  H    3.206106   2.518575   3.065561   0.000000
    15  H    3.983510   3.052656   2.497535   1.749823   0.000000
    16  H    4.047791   3.724553   2.514910   4.029765   2.994920
    17  H    2.972094   4.284630   3.722924   4.345051   3.858751
    18  H    2.910343   3.851176   3.211212   3.078085   2.305148
    19  H    2.080263   2.540657   3.744389   3.169143   4.222896
    20  H    5.960389   3.170393   2.661999   3.086293   2.488694
    21  H    3.811806   2.361675   2.782459   4.294058   4.554271
    22  H    7.776212   4.826958   5.391552   4.800690   5.297765
    23  H    7.924999   5.558308   5.843072   4.756083   5.017358
    24  H    7.764635   4.780879   4.740284   4.651042   4.533366
    25  H    6.228598   4.965781   5.760614   3.458216   4.483450
    26  H    4.545286   3.572838   4.605989   2.030567   3.520184
    27  H    6.023018   4.123891   5.299025   3.507226   4.789164
    28  H    1.082863   4.569910   5.429298   3.807744   4.858228
    29  H    1.082846   4.487911   4.731207   3.472624   3.853488
                   16         17         18         19         20
    16  H    0.000000
    17  H    1.767425   0.000000
    18  H    1.768955   1.771065   0.000000
    19  H    4.313194   3.756298   3.870125   0.000000
    20  H    4.542675   5.826871   4.597250   5.398429   0.000000
    21  H    3.459587   3.465802   4.089067   2.408578   5.216481
    22  H    7.635891   8.613125   7.443115   6.769788   3.384090
    23  H    7.727112   8.725653   7.294353   7.361070   3.394636
    24  H    6.807331   8.042220   6.769999   7.001585   2.268898
    25  H    7.308269   7.798826   6.401520   5.911776   4.108701
    26  H    6.023752   6.295466   5.084964   4.161493   3.780855
    27  H    7.206028   7.663397   6.561658   5.142929   4.102382
    28  H    5.127466   3.977868   3.954898   2.409203   6.732753
    29  H    3.761022   2.574811   2.367256   3.065208   6.113367
                   21         22         23         24         25
    21  H    0.000000
    22  H    7.114323   0.000000
    23  H    7.910342   1.752467   0.000000
    24  H    7.010864   1.770313   1.770416   0.000000
    25  H    7.202123   3.139125   2.597554   3.778983   0.000000
    26  H    5.632698   3.808378   3.798267   4.322445   1.765778
    27  H    6.309813   2.614451   3.141358   3.788284   1.751786
    28  H    4.501901   8.178601   8.354027   8.364233   6.404482
    29  H    4.416862   8.239420   8.193103   8.030775   6.578669
                   26         27         28         29
    26  H    0.000000
    27  H    1.766275   0.000000
    28  H    4.730869   6.156916   0.000000
    29  H    5.015407   6.622158   1.839478   0.000000
 Stoichiometry    C10H18O
 Framework group  C1[X(C10H18O)]
 Deg. of freedom    81
 Full point group                 C1      NOp   1
 RotChk:  IX=2 Diff= 3.20D-02
 Largest Abelian subgroup         C1      NOp   1
 Largest concise Abelian subgroup C1      NOp   1
                         Standard orientation:                         
 ---------------------------------------------------------------------
 Center     Atomic      Atomic             Coordinates (Angstroms)
 Number     Number       Type             X           Y           Z
 ---------------------------------------------------------------------
      1          8           0       -2.782104   -1.153883    1.127658
      2          6           0       -2.005228   -0.394498    0.173564
      3          6           0       -0.528784   -0.822984    0.318232
      4          6           0        0.466162   -0.193062   -0.671452
      5          6           0       -2.589962   -0.777061   -1.180168
      6          6           0       -2.158437    1.073563    0.512705
      7          6           0        1.869507   -0.670241   -0.436958
      8          6           0        2.931263    0.035315   -0.036664
      9          6           0        4.267888   -0.634396    0.154684
     10          6           0        2.928997    1.509126    0.256442
     11          6           0       -2.569011    2.056051   -0.276663
     12          1           0       -0.204051   -0.582623    1.337240
     13          1           0       -0.500756   -1.912882    0.231700
     14          1           0        0.399897    0.893243   -0.612193
     15          1           0        0.171304   -0.466145   -1.690011
     16          1           0       -2.462656   -1.848018   -1.340403
     17          1           0       -3.655448   -0.551203   -1.201446
     18          1           0       -2.102679   -0.245099   -1.996353
     19          1           0       -1.887563    1.309214    1.541401
     20          1           0        2.019099   -1.734183   -0.607729
     21          1           0       -2.430665   -0.989883    2.010914
     22          1           0        4.620153   -0.521984    1.185914
     23          1           0        5.032388   -0.176040   -0.481877
     24          1           0        4.224635   -1.698393   -0.076479
     25          1           0        3.658732    2.026006   -0.375343
     26          1           0        1.959710    1.978744    0.103260
     27          1           0        3.234943    1.692833    1.291435
     28          1           0       -2.642612    3.073933    0.085404
     29          1           0       -2.851976    1.892668   -1.309035
 ---------------------------------------------------------------------
 Rotational constants (GHZ):           1.9527592           0.4670218           0.4248826
 Leave Link  202 at Sat May  4 10:40:44 2024, MaxMem= 13421772800 cpu:               2.8 elap:               0.1
 (Enter /tmpu/scunam/7/gaussian-2016.03/g1/g16/l301.exe)
 Standard basis: def2TZVP (5D, 7F)
 Ernie: Thresh=  0.10000D-02 Tol=  0.10000D-05 Strict=F.
 There are   504 symmetry adapted cartesian basis functions of A   symmetry.
 There are   449 symmetry adapted basis functions of A   symmetry.
   449 basis functions,   705 primitive gaussians,   504 cartesian basis functions
    43 alpha electrons       43 beta electrons
       nuclear repulsion energy       618.0605761755 Hartrees.
 IExCor=  402 DFT=T Ex+Corr=B3LYP ExCW=0 ScaHFX=  0.200000
 ScaDFX=  0.800000  0.720000  1.000000  0.810000 ScalE2=  1.000000  1.000000
 IRadAn=      5 IRanWt=     -1 IRanGd=            0 ICorTp=0 IEmpDi=  4
 NAtoms=   29 NActive=   29 NUniq=   29 SFac= 1.00D+00 NAtFMM=   60 NAOKFM=F Big=F
 Integral buffers will be    131072 words long.
 Raffenetti 2 integral format.
 Two-electron integral symmetry is turned on.
 Leave Link  301 at Sat May  4 10:40:44 2024, MaxMem= 13421772800 cpu:               3.2 elap:               0.1
 (Enter /tmpu/scunam/7/gaussian-2016.03/g1/g16/l302.exe)
 NPDir=0 NMtPBC=     1 NCelOv=     1 NCel=       1 NClECP=     1 NCelD=      1
         NCelK=      1 NCelE2=     1 NClLst=     1 CellRange=     0.0.
 One-electron integrals computed using PRISM.
 One-electron integral symmetry used in STVInt
   1 Symmetry operations used in ECPInt.
 ECPInt:  NShTT=   18721 NPrTT=   54252 LenC2=   17428 LenP2D=   38567.
 LDataN:  DoStor=T MaxTD1= 6 Len=  172
 NBasis=   449 RedAO= T EigKep=  6.67D-05  NBF=   449
 NBsUse=   449 1.00D-06 EigRej= -1.00D+00 NBFU=   449
 Precomputing XC quadrature grid using
 IXCGrd= 4 IRadAn=           5 IRanWt=          -1 IRanGd=           0 AccXCQ= 0.00D+00.
 Generated NRdTot=       0 NPtTot=           0 NUsed=           0 NTot=          32
 NSgBfM=   501   501   501   501   501 MxSgAt=    29 MxSgA2=    29.
 Leave Link  302 at Sat May  4 10:40:45 2024, MaxMem= 13421772800 cpu:              17.0 elap:               0.6
 (Enter /tmpu/scunam/7/gaussian-2016.03/g1/g16/l303.exe)
 DipDrv:  MaxL=1.
 Leave Link  303 at Sat May  4 10:40:45 2024, MaxMem= 13421772800 cpu:               4.6 elap:               0.2
 (Enter /tmpu/scunam/7/gaussian-2016.03/g1/g16/l401.exe)
 Initial guess from the checkpoint file:  "linalool.chk"
 B after Tr=    -0.000000    0.000000    0.000000
         Rot=    0.999917   -0.012530    0.001183    0.002687 Ang=  -1.47 deg.
 Guess basis will be translated and rotated to current coordinates.
 JPrj=2 DoOrth=T DoCkMO=T.
 Generating alternative initial guess.
 ExpMin= 9.52D-02 ExpMax= 2.70D+04 ExpMxC= 9.22D+02 IAcc=2 IRadAn=         4 AccDes= 0.00D+00
 Harris functional with IExCor=  402 and IRadAn=       4 diagonalized for initial guess.
 HarFok:  IExCor=  402 AccDes= 0.00D+00 IRadAn=         4 IDoV= 1 UseB2=F ITyADJ=14
 ICtDFT=  3500011 ScaDFX=  1.000000  1.000000  1.000000  1.000000
 FoFCou: FMM=F IPFlag=           0 FMFlag=      100000 FMFlg1=           0
         NFxFlg=           0 DoJE=T BraDBF=F KetDBF=T FulRan=T
         wScrn=  0.000000 ICntrl=       500 IOpCl=  0 I1Cent=   200000004 NGrid=           0
         NMat0=    1 NMatS0=      1 NMatT0=    0 NMatD0=    1 NMtDS0=    0 NMtDT0=    0
 Petite list used in FoFCou.
 Harris En= -467.406773336304    
 Leave Link  401 at Sat May  4 10:40:47 2024, MaxMem= 13421772800 cpu:              39.6 elap:               1.3
 (Enter /tmpu/scunam/7/gaussian-2016.03/g1/g16/l502.exe)
 Integral symmetry usage will be decided dynamically.
 Closed shell SCF:
 Using DIIS extrapolation, IDIIS=  1040.
 NGot= 13421772800 LenX= 13421243903 LenY= 13420989383
 Requested convergence on RMS density matrix=1.00D-08 within 128 cycles.
 Requested convergence on MAX density matrix=1.00D-06.
 Requested convergence on             energy=1.00D-06.
 No special actions if energy rises.
 Fock matrices will be formed incrementally for  20 cycles.
 Integral accuracy reduced to 1.0D-05 until final iterations.

 Cycle   1  Pass 0  IDiag  1:
 FoFJK:  IHMeth= 1 ICntrl=       0 DoSepK=F KAlg= 0 I1Cent=           0 FoldK=F
 IRaf= 880000000 NMat=       1 IRICut=       1 DoRegI=T DoRafI=F ISym2E= 0 IDoP0=0 IntGTp=1.
 FoFCou: FMM=F IPFlag=           0 FMFlag=      100000 FMFlg1=           0
         NFxFlg=           0 DoJE=F BraDBF=F KetDBF=F FulRan=T
         wScrn=  0.000000 ICntrl=         0 IOpCl=  0 I1Cent=           0 NGrid=           0
         NMat0=    1 NMatS0=      1 NMatT0=    0 NMatD0=    1 NMtDS0=    0 NMtDT0=    0
 Symmetry not used in FoFCou.
 E= -467.267780700646    
 DIIS: error= 2.80D-03 at cycle   1 NSaved=   1.
 NSaved= 1 IEnMin= 1 EnMin= -467.267780700646     IErMin= 1 ErrMin= 2.80D-03
 ErrMax= 2.80D-03  0.00D+00 EMaxC= 1.00D-01 BMatC= 4.30D-03 BMatP= 4.30D-03
 IDIUse=3 WtCom= 9.72D-01 WtEn= 2.80D-02
 Coeff-Com:  0.100D+01
 Coeff-En:   0.100D+01
 Coeff:      0.100D+01
 Gap=     0.628 Goal=   None    Shift=    0.000
 GapD=    0.628 DampG=2.000 DampE=1.000 DampFc=2.0000 IDamp=-1.
 RMSDP=2.16D-04 MaxDP=5.91D-03              OVMax= 1.96D-02

 Cycle   2  Pass 0  IDiag  1:
 RMSU=  2.16D-04    CP:  9.99D-01
 E= -467.273631748690     Delta-E=       -0.005851048044 Rises=F Damp=F
 DIIS: error= 4.56D-04 at cycle   2 NSaved=   2.
 NSaved= 2 IEnMin= 2 EnMin= -467.273631748690     IErMin= 2 ErrMin= 4.56D-04
 ErrMax= 4.56D-04  0.00D+00 EMaxC= 1.00D-01 BMatC= 3.99D-05 BMatP= 4.30D-03
 IDIUse=3 WtCom= 9.95D-01 WtEn= 4.56D-03
 Coeff-Com: -0.525D-01 0.105D+01
 Coeff-En:   0.000D+00 0.100D+01
 Coeff:     -0.523D-01 0.105D+01
 Gap=     0.233 Goal=   None    Shift=    0.000
 RMSDP=3.43D-05 MaxDP=1.50D-03 DE=-5.85D-03 OVMax= 2.84D-03

 Cycle   3  Pass 0  IDiag  1:
 RMSU=  3.12D-05    CP:  9.98D-01  1.06D+00
 E= -467.273696953320     Delta-E=       -0.000065204631 Rises=F Damp=F
 DIIS: error= 1.56D-04 at cycle   3 NSaved=   3.
 NSaved= 3 IEnMin= 3 EnMin= -467.273696953320     IErMin= 3 ErrMin= 1.56D-04
 ErrMax= 1.56D-04  0.00D+00 EMaxC= 1.00D-01 BMatC= 2.33D-05 BMatP= 3.99D-05
 IDIUse=3 WtCom= 9.98D-01 WtEn= 1.56D-03
 Coeff-Com: -0.293D-01 0.491D+00 0.538D+00
 Coeff-En:   0.000D+00 0.000D+00 0.100D+01
 Coeff:     -0.293D-01 0.490D+00 0.539D+00
 Gap=     0.234 Goal=   None    Shift=    0.000
 RMSDP=1.42D-05 MaxDP=6.06D-04 DE=-6.52D-05 OVMax= 1.28D-03

 Cycle   4  Pass 0  IDiag  1:
 RMSU=  1.10D-05    CP:  9.98D-01  1.06D+00  7.17D-01
 E= -467.273712269828     Delta-E=       -0.000015316507 Rises=F Damp=F
 DIIS: error= 7.09D-05 at cycle   4 NSaved=   4.
 NSaved= 4 IEnMin= 4 EnMin= -467.273712269828     IErMin= 4 ErrMin= 7.09D-05
 ErrMax= 7.09D-05  0.00D+00 EMaxC= 1.00D-01 BMatC= 5.15D-06 BMatP= 2.33D-05
 IDIUse=1 WtCom= 1.00D+00 WtEn= 0.00D+00
 Coeff-Com: -0.672D-02 0.811D-01 0.321D+00 0.605D+00
 Coeff:     -0.672D-02 0.811D-01 0.321D+00 0.605D+00
 Gap=     0.234 Goal=   None    Shift=    0.000
 RMSDP=4.84D-06 MaxDP=2.07D-04 DE=-1.53D-05 OVMax= 5.91D-04

 Initial convergence to 1.0D-05 achieved.  Increase integral accuracy.
 Cycle   5  Pass 1  IDiag  1:
 E= -467.273716962833     Delta-E=       -0.000004693005 Rises=F Damp=F
 DIIS: error= 1.79D-04 at cycle   1 NSaved=   1.
 NSaved= 1 IEnMin= 1 EnMin= -467.273716962833     IErMin= 1 ErrMin= 1.79D-04
 ErrMax= 1.79D-04  0.00D+00 EMaxC= 1.00D-01 BMatC= 5.69D-06 BMatP= 5.69D-06
 IDIUse=3 WtCom= 9.98D-01 WtEn= 1.79D-03
 Coeff-Com:  0.100D+01
 Coeff-En:   0.100D+01
 Coeff:      0.100D+01
 Gap=     0.234 Goal=   None    Shift=    0.000
 RMSDP=4.84D-06 MaxDP=2.07D-04 DE=-4.69D-06 OVMax= 5.60D-04

 Cycle   6  Pass 1  IDiag  1:
 RMSU=  1.18D-04    CP:  1.00D+00
 E= -467.273720020185     Delta-E=       -0.000003057352 Rises=F Damp=F
 DIIS: error= 3.28D-05 at cycle   2 NSaved=   2.
 NSaved= 2 IEnMin= 2 EnMin= -467.273720020185     IErMin= 2 ErrMin= 3.28D-05
 ErrMax= 3.28D-05  0.00D+00 EMaxC= 1.00D-01 BMatC= 5.19D-07 BMatP= 5.69D-06
 IDIUse=1 WtCom= 1.00D+00 WtEn= 0.00D+00
 Coeff-Com:  0.118D+00 0.882D+00
 Coeff:      0.118D+00 0.882D+00
 Gap=     0.234 Goal=   None    Shift=    0.000
 RMSDP=3.71D-06 MaxDP=2.05D-04 DE=-3.06D-06 OVMax= 6.71D-04

 Cycle   7  Pass 1  IDiag  1:
 RMSU=  3.39D-06    CP:  1.00D+00  1.01D+00
 E= -467.273719425891     Delta-E=        0.000000594295 Rises=F Damp=F
 DIIS: error= 4.91D-05 at cycle   3 NSaved=   3.
 NSaved= 3 IEnMin= 2 EnMin= -467.273720020185     IErMin= 2 ErrMin= 3.28D-05
 ErrMax= 4.91D-05  0.00D+00 EMaxC= 1.00D-01 BMatC= 1.13D-06 BMatP= 5.19D-07
 IDIUse=1 WtCom= 1.00D+00 WtEn= 0.00D+00
 Coeff-Com:  0.180D-03 0.597D+00 0.403D+00
 Coeff:      0.180D-03 0.597D+00 0.403D+00
 Gap=     0.234 Goal=   None    Shift=    0.000
 RMSDP=1.92D-06 MaxDP=1.27D-04 DE= 5.94D-07 OVMax= 4.43D-04

 Cycle   8  Pass 1  IDiag  1:
 RMSU=  7.21D-07    CP:  1.00D+00  1.01D+00  4.77D-01
 E= -467.273720523865     Delta-E=       -0.000001097975 Rises=F Damp=F
 DIIS: error= 4.24D-06 at cycle   4 NSaved=   4.
 NSaved= 4 IEnMin= 4 EnMin= -467.273720523865     IErMin= 4 ErrMin= 4.24D-06
 ErrMax= 4.24D-06  0.00D+00 EMaxC= 1.00D-01 BMatC= 1.10D-08 BMatP= 5.19D-07
 IDIUse=1 WtCom= 1.00D+00 WtEn= 0.00D+00
 Coeff-Com: -0.213D-02 0.311D+00 0.221D+00 0.470D+00
 Coeff:     -0.213D-02 0.311D+00 0.221D+00 0.470D+00
 Gap=     0.234 Goal=   None    Shift=    0.000
 RMSDP=2.43D-07 MaxDP=1.24D-05 DE=-1.10D-06 OVMax= 3.93D-05

 Cycle   9  Pass 1  IDiag  1:
 RMSU=  1.92D-07    CP:  1.00D+00  1.01D+00  4.66D-01  8.00D-01
 E= -467.273720534979     Delta-E=       -0.000000011114 Rises=F Damp=F
 DIIS: error= 7.22D-07 at cycle   5 NSaved=   5.
 NSaved= 5 IEnMin= 5 EnMin= -467.273720534979     IErMin= 5 ErrMin= 7.22D-07
 ErrMax= 7.22D-07  0.00D+00 EMaxC= 1.00D-01 BMatC= 2.14D-10 BMatP= 1.10D-08
 IDIUse=1 WtCom= 1.00D+00 WtEn= 0.00D+00
 Coeff-Com: -0.101D-02 0.124D+00 0.887D-01 0.219D+00 0.569D+00
 Coeff:     -0.101D-02 0.124D+00 0.887D-01 0.219D+00 0.569D+00
 Gap=     0.234 Goal=   None    Shift=    0.000
 RMSDP=4.72D-08 MaxDP=2.05D-06 DE=-1.11D-08 OVMax= 4.41D-06

 Cycle  10  Pass 1  IDiag  1:
 RMSU=  4.63D-08    CP:  1.00D+00  1.01D+00  4.67D-01  7.99D-01  9.71D-01
 E= -467.273720535169     Delta-E=       -0.000000000190 Rises=F Damp=F
 DIIS: error= 1.40D-07 at cycle   6 NSaved=   6.
 NSaved= 6 IEnMin= 6 EnMin= -467.273720535169     IErMin= 6 ErrMin= 1.40D-07
 ErrMax= 1.40D-07  0.00D+00 EMaxC= 1.00D-01 BMatC= 1.82D-11 BMatP= 2.14D-10
 IDIUse=1 WtCom= 1.00D+00 WtEn= 0.00D+00
 Coeff-Com: -0.407D-03 0.472D-01 0.338D-01 0.878D-01 0.290D+00 0.541D+00
 Coeff:     -0.407D-03 0.472D-01 0.338D-01 0.878D-01 0.290D+00 0.541D+00
 Gap=     0.234 Goal=   None    Shift=    0.000
 RMSDP=1.33D-08 MaxDP=7.01D-07 DE=-1.90D-10 OVMax= 1.16D-06

 Cycle  11  Pass 1  IDiag  1:
 RMSU=  1.19D-08    CP:  1.00D+00  1.01D+00  4.68D-01  8.00D-01  9.81D-01
                    CP:  9.05D-01
 E= -467.273720535184     Delta-E=       -0.000000000015 Rises=F Damp=F
 DIIS: error= 5.45D-08 at cycle   7 NSaved=   7.
 NSaved= 7 IEnMin= 7 EnMin= -467.273720535184     IErMin= 7 ErrMin= 5.45D-08
 ErrMax= 5.45D-08  0.00D+00 EMaxC= 1.00D-01 BMatC= 2.45D-12 BMatP= 1.82D-11
 IDIUse=1 WtCom= 1.00D+00 WtEn= 0.00D+00
 Coeff-Com:  0.174D-04-0.359D-02-0.260D-02-0.427D-02 0.195D-01 0.275D+00
 Coeff-Com:  0.716D+00
 Coeff:      0.174D-04-0.359D-02-0.260D-02-0.427D-02 0.195D-01 0.275D+00
 Coeff:      0.716D+00
 Gap=     0.234 Goal=   None    Shift=    0.000
 RMSDP=5.30D-09 MaxDP=2.43D-07 DE=-1.46D-11 OVMax= 3.10D-07

 SCF Done:  E(RB3LYP) =  -467.273720535     A.U. after   11 cycles
            NFock= 11  Conv=0.53D-08     -V/T= 2.0054
 KE= 4.647640651833D+02 PE=-2.321396225152D+03 EE= 7.712978632584D+02
 Leave Link  502 at Sat May  4 10:41:35 2024, MaxMem= 13421772800 cpu:            1548.7 elap:              48.5
 (Enter /tmpu/scunam/7/gaussian-2016.03/g1/g16/l508.exe)
 QCSCF skips out because SCF is already converged.
 Leave Link  508 at Sat May  4 10:41:35 2024, MaxMem= 13421772800 cpu:               1.1 elap:               0.1
 (Enter /tmpu/scunam/7/gaussian-2016.03/g1/g16/l701.exe)
 ... and contract with generalized density number  0.
 Compute integral first derivatives.
   1 Symmetry operations used in ECPInt.
 ECPInt:  NShTT=   18721 NPrTT=   54252 LenC2=   17428 LenP2D=   38567.
 LDataN:  DoStor=T MaxTD1= 7 Len=  274
 Leave Link  701 at Sat May  4 10:41:36 2024, MaxMem= 13421772800 cpu:              11.5 elap:               0.4
 (Enter /tmpu/scunam/7/gaussian-2016.03/g1/g16/l702.exe)
 L702 exits ... SP integral derivatives will be done elsewhere.
 Leave Link  702 at Sat May  4 10:41:36 2024, MaxMem= 13421772800 cpu:               1.6 elap:               0.1
 (Enter /tmpu/scunam/7/gaussian-2016.03/g1/g16/l703.exe)
 Integral derivatives from FoFJK, PRISM(SPDF).
 Compute integral first derivatives, UseDBF=F ICtDFT=           0.
 Calling FoFJK, ICntrl=      2127 FMM=F ISym2X=0 I1Cent= 0 IOpClX= 0 NMat=1 NMatS=1 NMatT=0.
 FoFJK:  IHMeth= 1 ICntrl=    2127 DoSepK=F KAlg= 0 I1Cent=           0 FoldK=F
 IRaf=         0 NMat=       1 IRICut=       1 DoRegI=T DoRafI=F ISym2E= 0 IDoP0=0 IntGTp=1.
 FoFCou: FMM=F IPFlag=           0 FMFlag=      100000 FMFlg1=         800
         NFxFlg=           0 DoJE=F BraDBF=F KetDBF=F FulRan=T
         wScrn=  0.000000 ICntrl=      2127 IOpCl=  0 I1Cent=           0 NGrid=           0
         NMat0=    1 NMatS0=      1 NMatT0=    0 NMatD0=    1 NMtDS0=    0 NMtDT0=    0
 Symmetry not used in FoFCou.
 Leave Link  703 at Sat May  4 10:41:56 2024, MaxMem= 13421772800 cpu:             666.2 elap:              20.9
 (Enter /tmpu/scunam/7/gaussian-2016.03/g1/g16/l716.exe)
 Dipole        = 5.56940099D-01 3.82093190D-01 1.10660973D-01
 ***** Axes restored to original set *****
 -------------------------------------------------------------------
 Center     Atomic                   Forces (Hartrees/Bohr)
 Number     Number              X              Y              Z
 -------------------------------------------------------------------
      1        8           0.000223726    0.000038784    0.000121575
      2        6           0.000563640    0.000210789   -0.000433170
      3        6          -0.000273016    0.000274238    0.000879525
      4        6           0.000621564   -0.000321290   -0.000349206
      5        6          -0.000670173    0.000449845   -0.000334044
      6        6          -0.000575311   -0.000834758   -0.000249112
      7        6          -0.000169143    0.000975000   -0.000232699
      8        6          -0.000918740   -0.001918837    0.000282161
      9        6          -0.000068683    0.000979758   -0.000313268
     10        6          -0.000058677    0.000530640    0.000033467
     11        6           0.000392723    0.000321706    0.000627848
     12        1           0.000039148   -0.000135104   -0.000119848
     13        1          -0.000111951    0.000009539   -0.000089243
     14        1          -0.000064606    0.000002593    0.000078079
     15        1           0.000012445    0.000126830    0.000098546
     16        1           0.000119186   -0.000061442   -0.000016833
     17        1           0.000193664   -0.000149827    0.000125752
     18        1           0.000120918    0.000000581   -0.000006612
     19        1           0.000005343    0.000285535    0.000196464
     20        1           0.000027735   -0.000217736   -0.000022016
     21        1          -0.000020536   -0.000021384    0.000037609
     22        1           0.000270510   -0.000132088    0.000112198
     23        1           0.000281569   -0.000173468    0.000150845
     24        1          -0.000040914   -0.000197149    0.000006783
     25        1           0.000175109    0.000033752    0.000057716
     26        1          -0.000052763    0.000078386   -0.000141839
     27        1           0.000097190    0.000112633   -0.000105525
     28        1          -0.000035693   -0.000126769   -0.000297906
     29        1          -0.000084265   -0.000140759   -0.000097247
 -------------------------------------------------------------------
 Cartesian Forces:  Max     0.001918837 RMS     0.000379509
 Leave Link  716 at Sat May  4 10:41:57 2024, MaxMem= 13421772800 cpu:               1.7 elap:               0.1
 (Enter /tmpu/scunam/7/gaussian-2016.03/g1/g16/l103.exe)

 GradGradGradGradGradGradGradGradGradGradGradGradGradGradGradGradGradGrad
 Berny optimization.
 Using GEDIIS/GDIIS optimizer.
 FormGI is forming the generalized inverse of G from B-inverse, IUseBI=4.
 Internal  Forces:  Max     0.000781350 RMS     0.000183417
 Search for a local minimum.
 Step number   6 out of a maximum of  174
 All quantities printed in internal units (Hartrees-Bohrs-Radians)
 RMS Force = .18342D-03 SwitMx=.10000D-02 MixMth= 2
 Mixed Optimization -- En-DIIS/RFO-DIIS
 Swapping is turned off.
 Update second derivatives using D2CorX and points    4    5    6
 DE= -9.15D-05 DEPred=-7.49D-05 R= 1.22D+00
 TightC=F SS=  1.41D+00  RLast= 2.38D-01 DXNew= 1.6575D+00 7.1532D-01
 Trust test= 1.22D+00 RLast= 2.38D-01 DXMaxT set to 9.86D-01
 ITU=  1  1  1  1  1  0
     Eigenvalues ---    0.00146   0.00251   0.00331   0.00339   0.00595
     Eigenvalues ---    0.00714   0.00737   0.01183   0.01317   0.01560
     Eigenvalues ---    0.01570   0.02824   0.02916   0.02924   0.03160
     Eigenvalues ---    0.04169   0.04525   0.04724   0.05474   0.05483
     Eigenvalues ---    0.05733   0.06681   0.06912   0.07053   0.07250
     Eigenvalues ---    0.07331   0.08288   0.08913   0.09251   0.12615
     Eigenvalues ---    0.12822   0.15609   0.15987   0.16000   0.16000
     Eigenvalues ---    0.16000   0.16000   0.16000   0.16000   0.16000
     Eigenvalues ---    0.16000   0.16006   0.16076   0.16251   0.16344
     Eigenvalues ---    0.16751   0.17551   0.21864   0.22011   0.22164
     Eigenvalues ---    0.22926   0.24109   0.25244   0.28007   0.29227
     Eigenvalues ---    0.29640   0.31246   0.31901   0.32077   0.33479
     Eigenvalues ---    0.33734   0.33863   0.34066   0.34088   0.34107
     Eigenvalues ---    0.34161   0.34226   0.34237   0.34285   0.34288
     Eigenvalues ---    0.34367   0.34537   0.34813   0.34904   0.35348
     Eigenvalues ---    0.35617   0.35722   0.40329   0.52981   0.57115
     Eigenvalues ---    0.58622
 En-DIIS/RFO-DIIS/Sim-DIIS IScMMF=       -3 using points:     6    5    4    3    2
 RFO step:  Lambda=-4.35908564D-05.
 NNeg= 0 NGDIIS= 5 SimSw=  2.50D-01 Rises=F DC= -9.15D-05 SmlDif=  1.00D-05
 NRisDI= 0 DoIntr=F SqrtH=F CThrHd= 10.0 CDAdj=  3.0
 RMS Error=  0.7540930258D-02 NUsed= 5 OKEnD=T EnDIS=F
 InvSVX:  RCond= 1.75D-05 Info=           0 Equed=N FErr=  2.65D-12 BErr=  7.51D-17
 DidBck=F Rises=F RFO-DIIS coefs:    2.19687   -1.84499    0.31048    0.49616   -0.15851
 Iteration  1 RMS(Cart)=  0.01635396 RMS(Int)=  0.00009519
 Iteration  2 RMS(Cart)=  0.00014795 RMS(Int)=  0.00000767
 Iteration  3 RMS(Cart)=  0.00000001 RMS(Int)=  0.00000767
 ITry= 1 IFail=0 DXMaxC= 8.80D-02 DCOld= 1.00D+10 DXMaxT= 9.86D-01 DXLimC= 3.00D+00 Rises=F
 Variable       Old X    -DE/DX   Delta X   Delta X   Delta X     New X
                                 (Linear)    (Quad)   (Total)
    R1        2.73227  -0.00002  -0.00113   0.00064  -0.00049   2.73178
    R2        1.82292  -0.00003   0.00001  -0.00006  -0.00004   1.82288
    R3        2.91803   0.00018   0.00035   0.00017   0.00052   2.91855
    R4        2.87888  -0.00037  -0.00039  -0.00083  -0.00122   2.87766
    R5        2.86198  -0.00056  -0.00130  -0.00105  -0.00236   2.85962
    R6        2.90686  -0.00035  -0.00196  -0.00035  -0.00232   2.90455
    R7        2.07147   0.00006   0.00037   0.00007   0.00044   2.07191
    R8        2.06677  -0.00000  -0.00004   0.00010   0.00006   2.06683
    R9        2.83589   0.00045   0.00143   0.00055   0.00198   2.83787
   R10        2.05968  -0.00001  -0.00006   0.00018   0.00012   2.05980
   R11        2.06921   0.00005   0.00036   0.00001   0.00037   2.06958
   R12        2.06043   0.00004   0.00027  -0.00007   0.00020   2.06063
   R13        2.05861   0.00017   0.00062   0.00007   0.00069   2.05930
   R14        2.05849  -0.00006  -0.00069   0.00052  -0.00018   2.05831
   R15        2.50484   0.00028   0.00065   0.00027   0.00092   2.50576
   R16        2.05895  -0.00010  -0.00052   0.00020  -0.00032   2.05863
   R17        2.52501  -0.00019  -0.00219   0.00143  -0.00076   2.52425
   R18        2.05582   0.00020   0.00106  -0.00020   0.00086   2.05668
   R19        2.84822  -0.00058  -0.00290   0.00042  -0.00248   2.84574
   R20        2.83965   0.00078   0.00394  -0.00051   0.00343   2.84308
   R21        2.07023  -0.00021  -0.00123   0.00029  -0.00094   2.06929
   R22        2.06988  -0.00017  -0.00108   0.00040  -0.00068   2.06920
   R23        2.05919   0.00020   0.00099  -0.00012   0.00086   2.06005
   R24        2.06908  -0.00006  -0.00037   0.00000  -0.00037   2.06871
   R25        2.05583  -0.00004   0.00008  -0.00001   0.00007   2.05590
   R26        2.06885   0.00010   0.00081  -0.00047   0.00033   2.06919
   R27        2.04631  -0.00004  -0.00033   0.00018  -0.00015   2.04617
   R28        2.04628  -0.00008  -0.00078   0.00036  -0.00042   2.04586
    A1        1.89564  -0.00003  -0.00008   0.00001  -0.00006   1.89558
    A2        1.88198   0.00014   0.00016   0.00149   0.00164   1.88362
    A3        1.82167  -0.00001   0.00015   0.00018   0.00035   1.82202
    A4        1.88282   0.00003   0.00121   0.00047   0.00167   1.88449
    A5        1.96120  -0.00014  -0.00323   0.00056  -0.00268   1.95853
    A6        1.92274   0.00008   0.00095  -0.00042   0.00049   1.92324
    A7        1.98622  -0.00008   0.00092  -0.00203  -0.00111   1.98511
    A8        2.03145   0.00025   0.00146   0.00024   0.00170   2.03315
    A9        1.88546  -0.00011   0.00055  -0.00157  -0.00103   1.88443
   A10        1.86881  -0.00002   0.00037   0.00056   0.00094   1.86975
   A11        1.89303  -0.00001   0.00181  -0.00096   0.00085   1.89388
   A12        1.91836  -0.00010  -0.00164   0.00115  -0.00049   1.91787
   A13        1.85925  -0.00004  -0.00296   0.00059  -0.00237   1.85688
   A14        1.95423  -0.00000   0.00023  -0.00035  -0.00012   1.95411
   A15        1.91117   0.00011   0.00225  -0.00075   0.00150   1.91266
   A16        1.89883   0.00001  -0.00039   0.00113   0.00074   1.89957
   A17        1.94472  -0.00005  -0.00027  -0.00049  -0.00076   1.94396
   A18        1.89427   0.00000  -0.00105   0.00122   0.00017   1.89445
   A19        1.85748  -0.00007  -0.00088  -0.00071  -0.00158   1.85589
   A20        1.90968  -0.00001   0.00108  -0.00113  -0.00005   1.90962
   A21        1.91846   0.00022   0.00214  -0.00039   0.00175   1.92021
   A22        1.95139   0.00007   0.00156  -0.00029   0.00127   1.95266
   A23        1.89122  -0.00018  -0.00367   0.00092  -0.00276   1.88847
   A24        1.89371   0.00001  -0.00036   0.00079   0.00044   1.89414
   A25        1.89826  -0.00012  -0.00096   0.00016  -0.00081   1.89745
   A26        2.23505  -0.00027  -0.00107  -0.00028  -0.00135   2.23370
   A27        1.97787   0.00045   0.00516  -0.00133   0.00383   1.98170
   A28        2.07026  -0.00018  -0.00410   0.00161  -0.00249   2.06777
   A29        2.24208   0.00037   0.00211  -0.00046   0.00164   2.24372
   A30        1.99877  -0.00024  -0.00132  -0.00007  -0.00140   1.99738
   A31        2.04224  -0.00012  -0.00070   0.00050  -0.00021   2.04203
   A32        2.10376   0.00077   0.00573  -0.00047   0.00526   2.10903
   A33        2.18356  -0.00058  -0.00490   0.00034  -0.00455   2.17901
   A34        1.99586  -0.00020  -0.00086   0.00014  -0.00071   1.99515
   A35        1.93807  -0.00015  -0.00142   0.00047  -0.00095   1.93711
   A36        1.93826  -0.00019  -0.00221   0.00108  -0.00113   1.93713
   A37        1.95167   0.00007   0.00043  -0.00036   0.00007   1.95174
   A38        1.85426   0.00032   0.00534  -0.00142   0.00392   1.85818
   A39        1.88877  -0.00001  -0.00069   0.00001  -0.00068   1.88809
   A40        1.88917  -0.00002  -0.00118   0.00016  -0.00103   1.88813
   A41        1.92778   0.00007   0.00213  -0.00159   0.00053   1.92831
   A42        1.97933   0.00008   0.00038  -0.00071  -0.00033   1.97899
   A43        1.92683   0.00012   0.00098   0.00050   0.00148   1.92831
   A44        1.88471  -0.00011  -0.00160   0.00041  -0.00119   1.88352
   A45        1.85463   0.00002   0.00135   0.00006   0.00142   1.85605
   A46        1.88564  -0.00019  -0.00331   0.00143  -0.00189   1.88375
   A47        2.11610  -0.00031  -0.00355   0.00047  -0.00308   2.11301
   A48        2.13752  -0.00002   0.00006  -0.00010  -0.00004   2.13748
   A49        2.02956   0.00033   0.00350  -0.00038   0.00311   2.03268
    D1        1.00366   0.00008  -0.00086  -0.00065  -0.00151   1.00215
    D2        3.09241  -0.00003  -0.00443   0.00080  -0.00364   3.08878
    D3       -1.07263  -0.00011  -0.00268  -0.00123  -0.00391  -1.07654
    D4        3.07890  -0.00004   0.00946   0.00082   0.01027   3.08917
    D5       -1.07097   0.00003   0.01327  -0.00151   0.01175  -1.05922
    D6        0.92549  -0.00007   0.01029  -0.00131   0.00898   0.93447
    D7        1.08087  -0.00003   0.01090  -0.00059   0.01032   1.09119
    D8       -3.06900   0.00004   0.01472  -0.00292   0.01180  -3.05720
    D9       -1.07254  -0.00006   0.01174  -0.00272   0.00902  -1.06351
   D10       -1.15363   0.00012   0.01148   0.00202   0.01351  -1.14012
   D11        0.97968   0.00020   0.01529  -0.00031   0.01499   0.99467
   D12        2.97615   0.00009   0.01232  -0.00011   0.01221   2.98836
   D13       -1.06994  -0.00000  -0.00350   0.00099  -0.00251  -1.07245
   D14        1.00488  -0.00009  -0.00604   0.00119  -0.00486   1.00002
   D15        3.11490  -0.00005  -0.00477   0.00093  -0.00384   3.11106
   D16        0.96456   0.00008  -0.00480   0.00314  -0.00167   0.96289
   D17        3.03938  -0.00000  -0.00735   0.00333  -0.00402   3.03536
   D18       -1.13379   0.00003  -0.00608   0.00308  -0.00300  -1.13679
   D19       -3.11806   0.00001  -0.00553   0.00135  -0.00417  -3.12224
   D20       -1.04325  -0.00008  -0.00807   0.00155  -0.00652  -1.04977
   D21        1.06677  -0.00004  -0.00680   0.00129  -0.00550   1.06127
   D22       -2.17642   0.00020   0.01779   0.01017   0.02796  -2.14846
   D23        0.96534   0.00015   0.01663   0.00636   0.02299   0.98833
   D24        2.05663  -0.00003   0.01640   0.00834   0.02474   2.08137
   D25       -1.08479  -0.00008   0.01524   0.00454   0.01977  -1.06502
   D26       -0.16404   0.00016   0.01928   0.00955   0.02883  -0.13521
   D27        2.97772   0.00011   0.01812   0.00574   0.02386   3.00158
   D28        3.13506  -0.00000   0.01106  -0.00396   0.00710  -3.14102
   D29        0.96902  -0.00001   0.00962  -0.00255   0.00707   0.97610
   D30       -1.05448   0.00000   0.00965  -0.00192   0.00773  -1.04675
   D31        1.00572  -0.00002   0.00789  -0.00130   0.00659   1.01231
   D32       -1.16032  -0.00003   0.00645   0.00012   0.00657  -1.15375
   D33        3.09936  -0.00002   0.00648   0.00074   0.00722   3.10659
   D34       -1.02060   0.00008   0.01131  -0.00210   0.00921  -1.01138
   D35        3.09655   0.00007   0.00987  -0.00068   0.00919   3.10574
   D36        1.07305   0.00008   0.00990  -0.00005   0.00984   1.08289
   D37       -2.00390  -0.00011  -0.01743  -0.00033  -0.01776  -2.02167
   D38        1.12235  -0.00007  -0.01094  -0.00329  -0.01424   1.10811
   D39        0.14326  -0.00000  -0.01454  -0.00192  -0.01646   0.12680
   D40       -3.01367   0.00004  -0.00806  -0.00488  -0.01293  -3.02661
   D41        2.18298  -0.00011  -0.01639  -0.00233  -0.01872   2.16426
   D42       -0.97396  -0.00007  -0.00991  -0.00529  -0.01520  -0.98915
   D43        3.13564  -0.00010  -0.00087  -0.00496  -0.00582   3.12981
   D44       -0.00149  -0.00004  -0.00298  -0.00108  -0.00405  -0.00554
   D45       -0.00613  -0.00004   0.00036  -0.00098  -0.00063  -0.00677
   D46        3.13992   0.00001  -0.00176   0.00291   0.00114   3.14106
   D47        3.13206   0.00004   0.00239   0.00139   0.00379   3.13585
   D48       -0.01111   0.00006  -0.00076   0.00570   0.00493  -0.00618
   D49        0.00614   0.00000  -0.00423   0.00442   0.00019   0.00633
   D50       -3.13704   0.00001  -0.00738   0.00873   0.00134  -3.13570
   D51       -2.10495   0.00006  -0.00475  -0.00033  -0.00506  -2.11001
   D52        2.11906  -0.00012  -0.00909   0.00045  -0.00862   2.11044
   D53        0.00674  -0.00001  -0.00632  -0.00025  -0.00655   0.00018
   D54        1.03807   0.00005  -0.00186  -0.00420  -0.00609   1.03198
   D55       -1.02111  -0.00013  -0.00621  -0.00342  -0.00964  -1.03076
   D56       -3.13343  -0.00002  -0.00344  -0.00412  -0.00758  -3.14101
   D57       -2.12754   0.00011   0.00859   0.00452   0.01312  -2.11442
   D58       -0.00923   0.00007   0.00833   0.00338   0.01173   0.00250
   D59        2.10958  -0.00003   0.00502   0.00511   0.01014   2.11973
   D60        1.01256   0.00012   0.00563   0.00859   0.01420   1.02676
   D61        3.13087   0.00008   0.00537   0.00746   0.01282  -3.13950
   D62       -1.03351  -0.00002   0.00206   0.00918   0.01123  -1.02228
         Item               Value     Threshold  Converged?
 Maximum Force            0.000781     0.000450     NO 
 RMS     Force            0.000183     0.000300     YES
 Maximum Displacement     0.088044     0.001800     NO 
 RMS     Displacement     0.016325     0.001200     NO 
 Predicted change in Energy=-1.190438D-05
 Lowest energy point so far.  Saving SCF results.
 GradGradGradGradGradGradGradGradGradGradGradGradGradGradGradGradGradGrad

 Leave Link  103 at Sat May  4 10:41:57 2024, MaxMem= 13421772800 cpu:               2.9 elap:               0.1
 (Enter /tmpu/scunam/7/gaussian-2016.03/g1/g16/l202.exe)
                          Input orientation:                          
 ---------------------------------------------------------------------
 Center     Atomic      Atomic             Coordinates (Angstroms)
 Number     Number       Type             X           Y           Z
 ---------------------------------------------------------------------
      1          8           0        2.716303   -1.299717   -1.196798
      2          6           0        1.983357   -0.541465   -0.208068
      3          6           0        0.482417   -0.862387   -0.379687
      4          6           0       -0.477746   -0.209817    0.627620
      5          6           0        2.528298   -1.032914    1.126250
      6          6           0        2.236006    0.928224   -0.465160
      7          6           0       -1.907230   -0.590045    0.368355
      8          6           0       -2.925508    0.195758    0.007909
      9          6           0       -4.300638   -0.376176   -0.214916
     10          6           0       -2.829773    1.681352   -0.209677
     11          6           0        2.730604    1.829841    0.371922
     12          1           0        0.185135   -0.559297   -1.390562
     13          1           0        0.379180   -1.950531   -0.340821
     14          1           0       -0.344998    0.871941    0.610936
     15          1           0       -0.207696   -0.537750    1.637044
     16          1           0        2.325954   -2.099407    1.229720
     17          1           0        3.607344   -0.885806    1.165506
     18          1           0        2.073605   -0.511187    1.967342
     19          1           0        1.970668    1.245586   -1.472942
     20          1           0       -2.119192   -1.651174    0.484882
     21          1           0        2.382397   -1.068436   -2.071735
     22          1           0       -4.645010   -0.182964   -1.236264
     23          1           0       -5.032383    0.090357    0.452817
     24          1           0       -4.324023   -1.452900   -0.046068
     25          1           0       -3.515571    2.211447    0.458966
     26          1           0       -1.829962    2.078138   -0.046763
     27          1           0       -3.132857    1.939542   -1.229691
     28          1           0        2.875474    2.857821    0.064194
     29          1           0        3.015246    1.585567    1.387490
 ---------------------------------------------------------------------
                    Distance matrix (angstroms):
                    1          2          3          4          5
     1  O    0.000000
     2  C    1.445594   0.000000
     3  C    2.418507   1.544430   0.000000
     4  C    3.836448   2.620190   1.537019   0.000000
     5  C    2.345865   1.522790   2.546086   3.156331   0.000000
     6  C    2.393680   1.513246   2.507721   3.139069   2.542456
     7  C    4.932586   3.933356   2.518760   1.501738   4.521554
     8  C    5.959681   4.968611   3.589408   2.557356   5.701256
     9  C    7.145242   6.286172   4.810526   3.918168   6.990308
    10  C    6.373393   5.301616   4.179726   3.132030   6.153119
    11  C    3.500746   2.553010   3.587109   3.810393   2.967374
    12  H    2.644348   2.152257   1.096407   2.152813   3.471177
    13  H    2.572625   2.139269   1.093721   2.168475   2.759171
    14  H    4.166002   2.844244   2.161908   1.090000   3.485665
    15  H    4.142587   2.864466   2.156119   1.095174   2.826971
    16  H    2.584543   2.147508   2.742086   3.434212   1.090438
    17  H    2.558468   2.154672   3.486164   4.175434   1.089735
    18  H    3.323646   2.177492   2.857230   2.897425   1.089211
    19  H    2.666608   2.189434   2.802436   3.539109   3.501188
    20  H    5.131625   4.306104   2.852724   2.189116   4.732099
    21  H    0.964625   1.977419   2.552530   4.025439   3.201509
    22  H    7.445645   6.717213   5.242695   4.565180   7.600016
    23  H    8.043362   7.075067   5.658074   4.567863   7.673275
    24  H    7.135394   6.374951   4.854058   4.097921   6.964555
    25  H    7.342076   6.185601   5.112309   3.888360   6.891988
    26  H    5.779361   4.629227   3.755612   2.741900   5.481700
    27  H    6.686296   5.777089   4.652259   3.888310   6.814296
    28  H    4.347477   3.524932   4.445638   4.579513   4.048002
    29  H    3.884943   2.852169   3.940890   4.000225   2.676156
                    6          7          8          9         10
     6  C    0.000000
     7  C    4.490690   0.000000
     8  C    5.234646   1.335776   0.000000
     9  C    6.670216   2.472720   1.505902   0.000000
    10  C    5.127824   2.518819   1.504493   2.529207   0.000000
    11  C    1.325989   5.231192   5.898672   7.392513   5.592682
    12  H    2.697249   2.733629   3.493126   4.640887   3.937596
    13  H    3.427899   2.753457   3.955898   4.939143   4.848211
    14  H    2.796915   2.153327   2.734940   4.229292   2.739097
    15  H    3.541189   2.121491   3.252479   4.495335   3.900010
    16  H    3.470916   4.576021   5.859902   6.997729   6.553435
    17  H    2.798276   5.579736   6.722200   8.043722   7.065260
    18  H    2.831138   4.290691   5.415743   6.738801   5.795666
    19  H    1.089380   4.668834   5.221839   6.598638   4.982967
    20  H    5.150108   1.088348   2.070944   2.621840   3.477509
    21  H    2.566937   4.958205   5.839260   6.970649   6.180235
    22  H    7.012683   3.199368   2.155941   1.095022   2.797256
    23  H    7.373884   3.199478   2.155916   1.094975   2.796722
    24  H    6.991378   2.599453   2.162599   1.090134   3.476074
    25  H    5.965006   3.231614   2.148169   2.786798   1.094716
    26  H    4.246110   2.701387   2.178661   3.486570   1.087934
    27  H    5.516517   3.233376   2.148355   2.784964   1.094966
    28  H    2.100590   5.903775   6.382879   7.876117   5.831717
    29  H    2.114622   5.477472   6.255188   7.741983   6.060063
                   11         12         13         14         15
    11  C    0.000000
    12  H    3.910721   0.000000
    13  H    4.508704   1.753608   0.000000
    14  H    3.230175   2.517038   3.065392   0.000000
    15  H    3.979903   3.053061   2.500465   1.748994   0.000000
    16  H    4.042097   3.717650   2.505732   4.042993   3.004009
    17  H    2.961958   4.283877   3.718024   4.360990   3.859796
    18  H    2.908165   3.852810   3.204747   3.098793   2.305241
    19  H    2.079033   2.540180   3.745624   3.137590   4.194947
    20  H    5.970824   3.165345   2.648256   3.087032   2.494195
    21  H    3.806930   2.356094   2.790526   4.289578   4.554696
    22  H    7.812639   4.847241   5.400796   4.797403   5.298257
    23  H    7.955898   5.571588   5.837816   4.754729   5.007446
    24  H    7.792231   4.789437   4.738632   4.655017   4.540321
    25  H    6.258426   4.979257   5.755936   3.445272   4.459595
    26  H    4.586470   3.580848   4.604014   2.023016   3.508536
    27  H    6.079257   4.156819   5.315746   3.507112   4.786618
    28  H    1.082786   4.585949   5.432842   3.822838   4.848681
    29  H    1.082622   4.508607   4.737076   3.521866   3.867571
                   16         17         18         19         20
    16  H    0.000000
    17  H    1.766044   0.000000
    18  H    1.769240   1.770773   0.000000
    19  H    4.315042   3.766026   3.864246   0.000000
    20  H    4.529350   5.817409   4.590948   5.380636   0.000000
    21  H    3.459146   3.466062   4.089013   2.425442   5.209623
    22  H    7.638597   8.623447   7.450544   6.772294   3.390832
    23  H    7.716460   8.723858   7.290453   7.354306   3.394207
    24  H    6.802044   8.043388   6.772761   6.995780   2.276511
    25  H    7.300749   7.799237   6.397407   5.896098   4.107358
    26  H    6.029339   6.310219   5.098927   4.143901   3.778104
    27  H    7.222217   7.690895   6.582882   5.156231   4.106156
    28  H    5.121966   3.970298   3.951605   2.404321   6.742010
    29  H    3.752206   2.550989   2.370504   3.064116   6.136257
                   21         22         23         24         25
    21  H    0.000000
    22  H    7.132077   0.000000
    23  H    7.918025   1.754353   0.000000
    24  H    7.016211   1.769841   1.769831   0.000000
    25  H    7.207503   3.143667   2.607639   3.786304   0.000000
    26  H    5.634306   3.801577   3.802150   4.323028   1.764882
    27  H    6.338374   2.606085   3.139827   3.785301   1.752701
    28  H    4.496755   8.215549   8.387138   8.392094   6.435767
    29  H    4.405732   8.288022   8.238543   8.071694   6.626119
                   26         27         28         29
    26  H    0.000000
    27  H    1.765237   0.000000
    28  H    4.770885   6.214291   0.000000
    29  H    5.076982   6.691345   1.841000   0.000000
 Stoichiometry    C10H18O
 Framework group  C1[X(C10H18O)]
 Deg. of freedom    81
 Full point group                 C1      NOp   1
 RotChk:  IX=2 Diff= 3.25D-03
 Largest Abelian subgroup         C1      NOp   1
 Largest concise Abelian subgroup C1      NOp   1
                         Standard orientation:                         
 ---------------------------------------------------------------------
 Center     Atomic      Atomic             Coordinates (Angstroms)
 Number     Number       Type             X           Y           Z
 ---------------------------------------------------------------------
      1          8           0       -2.782840   -1.156433    1.126052
      2          6           0       -2.005862   -0.395873    0.173372
      3          6           0       -0.528192   -0.821209    0.317742
      4          6           0        0.468641   -0.179595   -0.660564
      5          6           0       -2.585958   -0.780350   -1.181085
      6          6           0       -2.162226    1.071442    0.508707
      7          6           0        1.871477   -0.664052   -0.431286
      8          6           0        2.939586    0.034597   -0.037169
      9          6           0        4.275681   -0.635490    0.146062
     10          6           0        2.940700    1.509755    0.258479
     11          6           0       -2.600451    2.045803   -0.276675
     12          1           0       -0.208505   -0.591492    1.341040
     13          1           0       -0.495549   -1.910181    0.221306
     14          1           0        0.406061    0.906079   -0.586412
     15          1           0        0.174530   -0.435896   -1.683898
     16          1           0       -2.453239   -1.850716   -1.341578
     17          1           0       -3.653384   -0.562317   -1.205243
     18          1           0       -2.101415   -0.245381   -1.996810
     19          1           0       -1.873506    1.317599    1.529881
     20          1           0        2.014095   -1.729005   -0.604602
     21          1           0       -2.431705   -0.993474    2.009596
     22          1           0        4.635303   -0.518850    1.173749
     23          1           0        5.033727   -0.182461   -0.501320
     24          1           0        4.228932   -1.701106   -0.079036
     25          1           0        3.656994    2.029128   -0.386174
     26          1           0        1.968037    1.978019    0.123357
     27          1           0        3.263310    1.693873    1.288514
     28          1           0       -2.677604    3.063342    0.085385
     29          1           0       -2.903745    1.874133   -1.301670
 ---------------------------------------------------------------------
 Rotational constants (GHZ):           1.9608370           0.4650340           0.4233040
 Leave Link  202 at Sat May  4 10:41:57 2024, MaxMem= 13421772800 cpu:               2.7 elap:               0.1
 (Enter /tmpu/scunam/7/gaussian-2016.03/g1/g16/l301.exe)
 Standard basis: def2TZVP (5D, 7F)
 Ernie: Thresh=  0.10000D-02 Tol=  0.10000D-05 Strict=F.
 There are   504 symmetry adapted cartesian basis functions of A   symmetry.
 There are   449 symmetry adapted basis functions of A   symmetry.
   449 basis functions,   705 primitive gaussians,   504 cartesian basis functions
    43 alpha electrons       43 beta electrons
       nuclear repulsion energy       617.8363156318 Hartrees.
 IExCor=  402 DFT=T Ex+Corr=B3LYP ExCW=0 ScaHFX=  0.200000
 ScaDFX=  0.800000  0.720000  1.000000  0.810000 ScalE2=  1.000000  1.000000
 IRadAn=      5 IRanWt=     -1 IRanGd=            0 ICorTp=0 IEmpDi=  4
 NAtoms=   29 NActive=   29 NUniq=   29 SFac= 1.00D+00 NAtFMM=   60 NAOKFM=F Big=F
 Integral buffers will be    131072 words long.
 Raffenetti 2 integral format.
 Two-electron integral symmetry is turned on.
 Leave Link  301 at Sat May  4 10:41:57 2024, MaxMem= 13421772800 cpu:               1.6 elap:               0.1
 (Enter /tmpu/scunam/7/gaussian-2016.03/g1/g16/l302.exe)
 NPDir=0 NMtPBC=     1 NCelOv=     1 NCel=       1 NClECP=     1 NCelD=      1
         NCelK=      1 NCelE2=     1 NClLst=     1 CellRange=     0.0.
 One-electron integrals computed using PRISM.
 One-electron integral symmetry used in STVInt
   1 Symmetry operations used in ECPInt.
 ECPInt:  NShTT=   18721 NPrTT=   54252 LenC2=   17421 LenP2D=   38551.
 LDataN:  DoStor=T MaxTD1= 6 Len=  172
 NBasis=   449 RedAO= T EigKep=  6.64D-05  NBF=   449
 NBsUse=   449 1.00D-06 EigRej= -1.00D+00 NBFU=   449
 Precomputing XC quadrature grid using
 IXCGrd= 4 IRadAn=           5 IRanWt=          -1 IRanGd=           0 AccXCQ= 0.00D+00.
 Generated NRdTot=       0 NPtTot=           0 NUsed=           0 NTot=          32
 NSgBfM=   501   501   501   501   501 MxSgAt=    29 MxSgA2=    29.
 Leave Link  302 at Sat May  4 10:41:57 2024, MaxMem= 13421772800 cpu:              17.3 elap:               0.6
 (Enter /tmpu/scunam/7/gaussian-2016.03/g1/g16/l303.exe)
 DipDrv:  MaxL=1.
 Leave Link  303 at Sat May  4 10:41:58 2024, MaxMem= 13421772800 cpu:               2.0 elap:               0.1
 (Enter /tmpu/scunam/7/gaussian-2016.03/g1/g16/l401.exe)
 Initial guess from the checkpoint file:  "linalool.chk"
 B after Tr=     0.000000    0.000000   -0.000000
         Rot=    1.000000   -0.000473   -0.000199   -0.000741 Ang=  -0.10 deg.
 Guess basis will be translated and rotated to current coordinates.
 JPrj=2 DoOrth=T DoCkMO=T.
 Generating alternative initial guess.
 ExpMin= 9.52D-02 ExpMax= 2.70D+04 ExpMxC= 9.22D+02 IAcc=2 IRadAn=         4 AccDes= 0.00D+00
 Harris functional with IExCor=  402 and IRadAn=       4 diagonalized for initial guess.
 HarFok:  IExCor=  402 AccDes= 0.00D+00 IRadAn=         4 IDoV= 1 UseB2=F ITyADJ=14
 ICtDFT=  3500011 ScaDFX=  1.000000  1.000000  1.000000  1.000000
 FoFCou: FMM=F IPFlag=           0 FMFlag=      100000 FMFlg1=           0
         NFxFlg=           0 DoJE=T BraDBF=F KetDBF=T FulRan=T
         wScrn=  0.000000 ICntrl=       500 IOpCl=  0 I1Cent=   200000004 NGrid=           0
         NMat0=    1 NMatS0=      1 NMatT0=    0 NMatD0=    1 NMtDS0=    0 NMtDT0=    0
 Petite list used in FoFCou.
 Harris En= -467.406757814263    
 Leave Link  401 at Sat May  4 10:41:59 2024, MaxMem= 13421772800 cpu:              40.1 elap:               1.3
 (Enter /tmpu/scunam/7/gaussian-2016.03/g1/g16/l502.exe)
 Integral symmetry usage will be decided dynamically.
 Closed shell SCF:
 Using DIIS extrapolation, IDIIS=  1040.
 NGot= 13421772800 LenX= 13421243903 LenY= 13420989383
 Requested convergence on RMS density matrix=1.00D-08 within 128 cycles.
 Requested convergence on MAX density matrix=1.00D-06.
 Requested convergence on             energy=1.00D-06.
 No special actions if energy rises.
 Fock matrices will be formed incrementally for  20 cycles.
 Integral accuracy reduced to 1.0D-05 until final iterations.

 Cycle   1  Pass 0  IDiag  1:
 FoFJK:  IHMeth= 1 ICntrl=       0 DoSepK=F KAlg= 0 I1Cent=           0 FoldK=F
 IRaf= 880000000 NMat=       1 IRICut=       1 DoRegI=T DoRafI=F ISym2E= 0 IDoP0=0 IntGTp=1.
 FoFCou: FMM=F IPFlag=           0 FMFlag=      100000 FMFlg1=           0
         NFxFlg=           0 DoJE=F BraDBF=F KetDBF=F FulRan=T
         wScrn=  0.000000 ICntrl=         0 IOpCl=  0 I1Cent=           0 NGrid=           0
         NMat0=    1 NMatS0=      1 NMatT0=    0 NMatD0=    1 NMtDS0=    0 NMtDT0=    0
 Symmetry not used in FoFCou.
 E= -467.273207031662    
 DIIS: error= 8.90D-04 at cycle   1 NSaved=   1.
 NSaved= 1 IEnMin= 1 EnMin= -467.273207031662     IErMin= 1 ErrMin= 8.90D-04
 ErrMax= 8.90D-04  0.00D+00 EMaxC= 1.00D-01 BMatC= 4.03D-04 BMatP= 4.03D-04
 IDIUse=3 WtCom= 9.91D-01 WtEn= 8.90D-03
 Coeff-Com:  0.100D+01
 Coeff-En:   0.100D+01
 Coeff:      0.100D+01
 Gap=     0.628 Goal=   None    Shift=    0.000
 RMSDP=1.38D-04 MaxDP=4.28D-03              OVMax= 6.76D-03

 Cycle   2  Pass 0  IDiag  1:
 RMSU=  1.38D-04    CP:  1.00D+00
 E= -467.273738116091     Delta-E=       -0.000531084429 Rises=F Damp=F
 DIIS: error= 1.46D-04 at cycle   2 NSaved=   2.
 NSaved= 2 IEnMin= 2 EnMin= -467.273738116091     IErMin= 2 ErrMin= 1.46D-04
 ErrMax= 1.46D-04  0.00D+00 EMaxC= 1.00D-01 BMatC= 3.31D-06 BMatP= 4.03D-04
 IDIUse=3 WtCom= 9.99D-01 WtEn= 1.46D-03
 Coeff-Com: -0.519D-01 0.105D+01
 Coeff-En:   0.000D+00 0.100D+01
 Coeff:     -0.519D-01 0.105D+01
 Gap=     0.234 Goal=   None    Shift=    0.000
 RMSDP=1.13D-05 MaxDP=3.66D-04 DE=-5.31D-04 OVMax= 9.56D-04

 Cycle   3  Pass 0  IDiag  1:
 RMSU=  1.06D-05    CP:  1.00D+00  1.03D+00
 E= -467.273744859921     Delta-E=       -0.000006743830 Rises=F Damp=F
 DIIS: error= 5.24D-05 at cycle   3 NSaved=   3.
 NSaved= 3 IEnMin= 3 EnMin= -467.273744859921     IErMin= 3 ErrMin= 5.24D-05
 ErrMax= 5.24D-05  0.00D+00 EMaxC= 1.00D-01 BMatC= 1.40D-06 BMatP= 3.31D-06
 IDIUse=1 WtCom= 1.00D+00 WtEn= 0.00D+00
 Coeff-Com: -0.256D-01 0.439D+00 0.586D+00
 Coeff:     -0.256D-01 0.439D+00 0.586D+00
 Gap=     0.234 Goal=   None    Shift=    0.000
 RMSDP=3.88D-06 MaxDP=1.82D-04 DE=-6.74D-06 OVMax= 6.80D-04

 Initial convergence to 1.0D-05 achieved.  Increase integral accuracy.
 Cycle   4  Pass 1  IDiag  1:
 E= -467.273750771576     Delta-E=       -0.000005911655 Rises=F Damp=F
 DIIS: error= 1.87D-04 at cycle   1 NSaved=   1.
 NSaved= 1 IEnMin= 1 EnMin= -467.273750771576     IErMin= 1 ErrMin= 1.87D-04
 ErrMax= 1.87D-04  0.00D+00 EMaxC= 1.00D-01 BMatC= 6.08D-06 BMatP= 6.08D-06
 IDIUse=3 WtCom= 9.98D-01 WtEn= 1.87D-03
 Coeff-Com:  0.100D+01
 Coeff-En:   0.100D+01
 Coeff:      0.100D+01
 Gap=     0.234 Goal=   None    Shift=    0.000
 RMSDP=3.88D-06 MaxDP=1.82D-04 DE=-5.91D-06 OVMax= 9.89D-04

 Cycle   5  Pass 1  IDiag  1:
 RMSU=  1.21D-04    CP:  1.00D+00
 E= -467.273752938804     Delta-E=       -0.000002167227 Rises=F Damp=F
 DIIS: error= 5.80D-05 at cycle   2 NSaved=   2.
 NSaved= 2 IEnMin= 2 EnMin= -467.273752938804     IErMin= 2 ErrMin= 5.80D-05
 ErrMax= 5.80D-05  0.00D+00 EMaxC= 1.00D-01 BMatC= 1.74D-06 BMatP= 6.08D-06
 IDIUse=1 WtCom= 1.00D+00 WtEn= 0.00D+00
 Coeff-Com:  0.273D+00 0.727D+00
 Coeff:      0.273D+00 0.727D+00
 Gap=     0.234 Goal=   None    Shift=    0.000
 RMSDP=5.22D-06 MaxDP=3.23D-04 DE=-2.17D-06 OVMax= 1.29D-03

 Cycle   6  Pass 1  IDiag  1:
 RMSU=  5.10D-06    CP:  1.00D+00  1.01D+00
 E= -467.273752444924     Delta-E=        0.000000493879 Rises=F Damp=F
 DIIS: error= 6.60D-05 at cycle   3 NSaved=   3.
 NSaved= 3 IEnMin= 2 EnMin= -467.273752938804     IErMin= 2 ErrMin= 5.80D-05
 ErrMax= 6.60D-05  0.00D+00 EMaxC= 1.00D-01 BMatC= 2.23D-06 BMatP= 1.74D-06
 IDIUse=1 WtCom= 1.00D+00 WtEn= 0.00D+00
 Coeff-Com: -0.226D-02 0.532D+00 0.471D+00
 Coeff:     -0.226D-02 0.532D+00 0.471D+00
 Gap=     0.234 Goal=   None    Shift=    0.000
 RMSDP=2.67D-06 MaxDP=1.79D-04 DE= 4.94D-07 OVMax= 7.16D-04

 Cycle   7  Pass 1  IDiag  1:
 RMSU=  6.10D-07    CP:  1.00D+00  1.01D+00  5.01D-01
 E= -467.273754682267     Delta-E=       -0.000002237342 Rises=F Damp=F
 DIIS: error= 3.54D-06 at cycle   4 NSaved=   4.
 NSaved= 4 IEnMin= 4 EnMin= -467.273754682267     IErMin= 4 ErrMin= 3.54D-06
 ErrMax= 3.54D-06  0.00D+00 EMaxC= 1.00D-01 BMatC= 8.92D-09 BMatP= 1.74D-06
 IDIUse=1 WtCom= 1.00D+00 WtEn= 0.00D+00
 Coeff-Com: -0.267D-02 0.300D+00 0.269D+00 0.434D+00
 Coeff:     -0.267D-02 0.300D+00 0.269D+00 0.434D+00
 Gap=     0.234 Goal=   None    Shift=    0.000
 RMSDP=1.52D-07 MaxDP=7.80D-06 DE=-2.24D-06 OVMax= 2.04D-05

 Cycle   8  Pass 1  IDiag  1:
 RMSU=  1.37D-07    CP:  1.00D+00  1.01D+00  5.00D-01  8.96D-01
 E= -467.273754690681     Delta-E=       -0.000000008414 Rises=F Damp=F
 DIIS: error= 1.92D-07 at cycle   5 NSaved=   5.
 NSaved= 5 IEnMin= 5 EnMin= -467.273754690681     IErMin= 5 ErrMin= 1.92D-07
 ErrMax= 1.92D-07  0.00D+00 EMaxC= 1.00D-01 BMatC= 3.63D-11 BMatP= 8.92D-09
 IDIUse=1 WtCom= 1.00D+00 WtEn= 0.00D+00
 Coeff-Com: -0.789D-03 0.840D-01 0.754D-01 0.134D+00 0.707D+00
 Coeff:     -0.789D-03 0.840D-01 0.754D-01 0.134D+00 0.707D+00
 Gap=     0.234 Goal=   None    Shift=    0.000
 RMSDP=2.40D-08 MaxDP=1.16D-06 DE=-8.41D-09 OVMax= 3.92D-06

 Cycle   9  Pass 1  IDiag  1:
 RMSU=  2.12D-08    CP:  1.00D+00  1.01D+00  4.99D-01  9.10D-01  9.94D-01
 E= -467.273754690703     Delta-E=       -0.000000000023 Rises=F Damp=F
 DIIS: error= 1.61D-07 at cycle   6 NSaved=   6.
 NSaved= 6 IEnMin= 6 EnMin= -467.273754690703     IErMin= 6 ErrMin= 1.61D-07
 ErrMax= 1.61D-07  0.00D+00 EMaxC= 1.00D-01 BMatC= 2.44D-11 BMatP= 3.63D-11
 IDIUse=1 WtCom= 1.00D+00 WtEn= 0.00D+00
 Coeff-Com: -0.471D-04 0.243D-02 0.229D-02 0.115D-01 0.456D+00 0.528D+00
 Coeff:     -0.471D-04 0.243D-02 0.229D-02 0.115D-01 0.456D+00 0.528D+00
 Gap=     0.234 Goal=   None    Shift=    0.000
 RMSDP=1.24D-08 MaxDP=6.14D-07 DE=-2.25D-11 OVMax= 2.46D-06

 Cycle  10  Pass 1  IDiag  1:
 RMSU=  8.42D-09    CP:  1.00D+00  1.01D+00  5.00D-01  9.18D-01  1.00D+00
                    CP:  7.11D-01
 E= -467.273754690724     Delta-E=       -0.000000000021 Rises=F Damp=F
 DIIS: error= 4.38D-08 at cycle   7 NSaved=   7.
 NSaved= 7 IEnMin= 7 EnMin= -467.273754690724     IErMin= 7 ErrMin= 4.38D-08
 ErrMax= 4.38D-08  0.00D+00 EMaxC= 1.00D-01 BMatC= 1.29D-12 BMatP= 2.44D-11
 IDIUse=1 WtCom= 1.00D+00 WtEn= 0.00D+00
 Coeff-Com:  0.562D-04-0.734D-02-0.654D-02-0.810D-02 0.157D+00 0.261D+00
 Coeff-Com:  0.604D+00
 Coeff:      0.562D-04-0.734D-02-0.654D-02-0.810D-02 0.157D+00 0.261D+00
 Coeff:      0.604D+00
 Gap=     0.234 Goal=   None    Shift=    0.000
 RMSDP=3.54D-09 MaxDP=1.72D-07 DE=-2.09D-11 OVMax= 6.33D-07

 SCF Done:  E(RB3LYP) =  -467.273754691     A.U. after   10 cycles
            NFock= 10  Conv=0.35D-08     -V/T= 2.0054
 KE= 4.647652844048D+02 PE=-2.320948024950D+03 EE= 7.710726702224D+02
 Leave Link  502 at Sat May  4 10:42:45 2024, MaxMem= 13421772800 cpu:            1459.0 elap:              45.7
 (Enter /tmpu/scunam/7/gaussian-2016.03/g1/g16/l508.exe)
 QCSCF skips out because SCF is already converged.
 Leave Link  508 at Sat May  4 10:42:45 2024, MaxMem= 13421772800 cpu:               1.1 elap:               0.1
 (Enter /tmpu/scunam/7/gaussian-2016.03/g1/g16/l701.exe)
 ... and contract with generalized density number  0.
 Compute integral first derivatives.
   1 Symmetry operations used in ECPInt.
 ECPInt:  NShTT=   18721 NPrTT=   54252 LenC2=   17421 LenP2D=   38551.
 LDataN:  DoStor=T MaxTD1= 7 Len=  274
 Leave Link  701 at Sat May  4 10:42:46 2024, MaxMem= 13421772800 cpu:              51.7 elap:               1.7
 (Enter /tmpu/scunam/7/gaussian-2016.03/g1/g16/l702.exe)
 L702 exits ... SP integral derivatives will be done elsewhere.
 Leave Link  702 at Sat May  4 10:42:46 2024, MaxMem= 13421772800 cpu:               1.7 elap:               0.1
 (Enter /tmpu/scunam/7/gaussian-2016.03/g1/g16/l703.exe)
 Integral derivatives from FoFJK, PRISM(SPDF).
 Compute integral first derivatives, UseDBF=F ICtDFT=           0.
 Calling FoFJK, ICntrl=      2127 FMM=F ISym2X=0 I1Cent= 0 IOpClX= 0 NMat=1 NMatS=1 NMatT=0.
 FoFJK:  IHMeth= 1 ICntrl=    2127 DoSepK=F KAlg= 0 I1Cent=           0 FoldK=F
 IRaf=         0 NMat=       1 IRICut=       1 DoRegI=T DoRafI=F ISym2E= 0 IDoP0=0 IntGTp=1.
 FoFCou: FMM=F IPFlag=           0 FMFlag=      100000 FMFlg1=         800
         NFxFlg=           0 DoJE=F BraDBF=F KetDBF=F FulRan=T
         wScrn=  0.000000 ICntrl=      2127 IOpCl=  0 I1Cent=           0 NGrid=           0
         NMat0=    1 NMatS0=      1 NMatT0=    0 NMatD0=    1 NMtDS0=    0 NMtDT0=    0
 Symmetry not used in FoFCou.
 Leave Link  703 at Sat May  4 10:43:08 2024, MaxMem= 13421772800 cpu:             695.4 elap:              21.9
 (Enter /tmpu/scunam/7/gaussian-2016.03/g1/g16/l716.exe)
 Dipole        = 5.57704525D-01 3.81251186D-01 1.09964864D-01
 ***** Axes restored to original set *****
 -------------------------------------------------------------------
 Center     Atomic                   Forces (Hartrees/Bohr)
 Number     Number              X              Y              Z
 -------------------------------------------------------------------
      1        8           0.000029994    0.000038488    0.000017882
      2        6          -0.000029431   -0.000040770    0.000129219
      3        6          -0.000002055   -0.000084667   -0.000036849
      4        6          -0.000034734   -0.000003885   -0.000114155
      5        6           0.000012916   -0.000066351    0.000040821
      6        6           0.000025596    0.000069742   -0.000018751
      7        6           0.000101370    0.000037148    0.000148631
      8        6           0.000052730    0.000082743   -0.000167150
      9        6           0.000117329   -0.000052676   -0.000037647
     10        6          -0.000022732    0.000088496    0.000029543
     11        6           0.000115769   -0.000048555   -0.000078230
     12        1          -0.000014580    0.000008401   -0.000004967
     13        1           0.000018439   -0.000011187   -0.000016134
     14        1           0.000013387   -0.000090503    0.000039032
     15        1          -0.000070419    0.000031650    0.000015232
     16        1           0.000019966   -0.000001102   -0.000006295
     17        1          -0.000000033   -0.000026010    0.000019394
     18        1          -0.000007888    0.000014218   -0.000033908
     19        1          -0.000084732    0.000031667    0.000006282
     20        1           0.000042590   -0.000020304   -0.000011236
     21        1          -0.000009475    0.000001194   -0.000006285
     22        1          -0.000030128    0.000023271    0.000001864
     23        1          -0.000005623    0.000002967    0.000014092
     24        1          -0.000007195    0.000002290    0.000012626
     25        1          -0.000023238    0.000069926    0.000038381
     26        1          -0.000092582   -0.000002951   -0.000054686
     27        1          -0.000045137   -0.000079433    0.000066640
     28        1          -0.000008868    0.000002996    0.000007874
     29        1          -0.000061235    0.000023195   -0.000001219
 -------------------------------------------------------------------
 Cartesian Forces:  Max     0.000167150 RMS     0.000053124
 Leave Link  716 at Sat May  4 10:43:08 2024, MaxMem= 13421772800 cpu:               0.7 elap:               0.0
 (Enter /tmpu/scunam/7/gaussian-2016.03/g1/g16/l103.exe)

 GradGradGradGradGradGradGradGradGradGradGradGradGradGradGradGradGradGrad
 Berny optimization.
 Using GEDIIS/GDIIS optimizer.
 FormGI is forming the generalized inverse of G from B-inverse, IUseBI=4.
 Internal  Forces:  Max     0.000431954 RMS     0.000070612
 Search for a local minimum.
 Step number   7 out of a maximum of  174
 All quantities printed in internal units (Hartrees-Bohrs-Radians)
 RMS Force = .70612D-04 SwitMx=.10000D-02 MixMth= 2
 Mixed Optimization -- En-DIIS/RFO-DIIS
 Swapping is turned off.
 Update second derivatives using D2CorX and points    4    5    6    7
 DE= -3.42D-05 DEPred=-1.19D-05 R= 2.87D+00
 TightC=F SS=  1.41D+00  RLast= 9.36D-02 DXNew= 1.6575D+00 2.8071D-01
 Trust test= 2.87D+00 RLast= 9.36D-02 DXMaxT set to 9.86D-01
 ITU=  1  1  1  1  1  1  0
     Eigenvalues ---    0.00149   0.00244   0.00314   0.00336   0.00422
     Eigenvalues ---    0.00664   0.00731   0.01182   0.01323   0.01551
     Eigenvalues ---    0.01572   0.02817   0.02906   0.02928   0.03147
     Eigenvalues ---    0.04172   0.04559   0.04731   0.05457   0.05462
     Eigenvalues ---    0.05721   0.06702   0.06916   0.07060   0.07266
     Eigenvalues ---    0.07335   0.08391   0.08935   0.09212   0.12636
     Eigenvalues ---    0.12829   0.15398   0.15986   0.16000   0.16000
     Eigenvalues ---    0.16000   0.16000   0.16000   0.16000   0.16000
     Eigenvalues ---    0.16007   0.16067   0.16118   0.16234   0.16499
     Eigenvalues ---    0.16756   0.17594   0.21697   0.22012   0.22184
     Eigenvalues ---    0.22711   0.24968   0.26170   0.28015   0.29068
     Eigenvalues ---    0.29631   0.31285   0.31846   0.32082   0.32725
     Eigenvalues ---    0.33735   0.33806   0.34065   0.34088   0.34134
     Eigenvalues ---    0.34195   0.34234   0.34256   0.34285   0.34358
     Eigenvalues ---    0.34407   0.34485   0.34753   0.34900   0.35065
     Eigenvalues ---    0.35418   0.35658   0.40251   0.52972   0.57162
     Eigenvalues ---    0.58639
 En-DIIS/RFO-DIIS/Sim-DIIS IScMMF=       -3 using points:     7    6    5    4    3    2
 RFO step:  Lambda=-1.24409226D-05.
 NNeg= 0 NGDIIS= 6 SimSw=  2.50D-01 Rises=F DC= -3.42D-05 SmlDif=  1.00D-05
 NRisDI= 0 DoIntr=F SqrtH=F CThrHd= 10.0 CDAdj=  3.0
 RMS Error=  0.5850300065D-02 NUsed= 6 OKEnD=T EnDIS=F
 InvSVX:  RCond= 8.41D-06 Info=           0 Equed=N FErr=  1.97D-12 BErr=  9.62D-17
 DidBck=F Rises=F RFO-DIIS coefs:    1.35531   -0.07266   -0.32331   -0.03620    0.16281
                  RFO-DIIS coefs:   -0.08595
 Iteration  1 RMS(Cart)=  0.01724056 RMS(Int)=  0.00008135
 Iteration  2 RMS(Cart)=  0.00013377 RMS(Int)=  0.00000270
 Iteration  3 RMS(Cart)=  0.00000001 RMS(Int)=  0.00000270
 ITry= 1 IFail=0 DXMaxC= 5.64D-02 DCOld= 1.00D+10 DXMaxT= 9.86D-01 DXLimC= 3.00D+00 Rises=F
 Variable       Old X    -DE/DX   Delta X   Delta X   Delta X     New X
                                 (Linear)    (Quad)   (Total)
    R1        2.73178  -0.00002  -0.00055   0.00033  -0.00021   2.73156
    R2        1.82288   0.00001  -0.00002   0.00004   0.00002   1.82290
    R3        2.91855   0.00001   0.00006   0.00009   0.00014   2.91869
    R4        2.87766   0.00005  -0.00018   0.00021   0.00004   2.87769
    R5        2.85962   0.00009  -0.00069   0.00054  -0.00015   2.85947
    R6        2.90455   0.00003  -0.00119   0.00076  -0.00043   2.90411
    R7        2.07191   0.00001   0.00023  -0.00009   0.00014   2.07205
    R8        2.06683   0.00001   0.00003   0.00005   0.00007   2.06691
    R9        2.83787  -0.00013   0.00037  -0.00082  -0.00044   2.83743
   R10        2.05980  -0.00009  -0.00007  -0.00026  -0.00034   2.05947
   R11        2.06958  -0.00001   0.00040  -0.00017   0.00023   2.06981
   R12        2.06063  -0.00000   0.00010  -0.00007   0.00003   2.06066
   R13        2.05930  -0.00000   0.00024  -0.00013   0.00011   2.05941
   R14        2.05831  -0.00002  -0.00020   0.00014  -0.00006   2.05825
   R15        2.50576  -0.00004   0.00035  -0.00025   0.00010   2.50586
   R16        2.05863   0.00002  -0.00017   0.00018   0.00001   2.05864
   R17        2.52425   0.00015  -0.00080   0.00098   0.00018   2.52443
   R18        2.05668   0.00001   0.00052  -0.00025   0.00027   2.05695
   R19        2.84574  -0.00006  -0.00102   0.00056  -0.00047   2.84527
   R20        2.84308   0.00005   0.00149  -0.00085   0.00064   2.84372
   R21        2.06929   0.00001  -0.00049   0.00038  -0.00011   2.06918
   R22        2.06920   0.00001  -0.00039   0.00032  -0.00008   2.06913
   R23        2.06005  -0.00000   0.00039  -0.00025   0.00014   2.06019
   R24        2.06871   0.00007  -0.00024   0.00034   0.00009   2.06881
   R25        2.05590  -0.00009   0.00007  -0.00034  -0.00027   2.05563
   R26        2.06919  -0.00007   0.00030  -0.00039  -0.00010   2.06909
   R27        2.04617  -0.00000  -0.00011   0.00009  -0.00002   2.04615
   R28        2.04586  -0.00002  -0.00030   0.00018  -0.00012   2.04574
    A1        1.89558  -0.00001   0.00003  -0.00007  -0.00004   1.89554
    A2        1.88362   0.00002  -0.00006   0.00009   0.00003   1.88365
    A3        1.82202  -0.00001   0.00019  -0.00022  -0.00002   1.82200
    A4        1.88449  -0.00004   0.00060  -0.00087  -0.00028   1.88421
    A5        1.95853  -0.00001  -0.00133   0.00114  -0.00019   1.95834
    A6        1.92324  -0.00003   0.00038  -0.00041  -0.00005   1.92319
    A7        1.98511   0.00008   0.00030   0.00019   0.00049   1.98559
    A8        2.03315  -0.00003   0.00060  -0.00042   0.00018   2.03333
    A9        1.88443   0.00003  -0.00021   0.00011  -0.00011   1.88432
   A10        1.86975  -0.00001   0.00019  -0.00031  -0.00012   1.86963
   A11        1.89388  -0.00001   0.00072  -0.00072  -0.00000   1.89387
   A12        1.91787   0.00003  -0.00044   0.00074   0.00031   1.91818
   A13        1.85688  -0.00001  -0.00101   0.00070  -0.00031   1.85657
   A14        1.95411  -0.00001  -0.00042   0.00001  -0.00041   1.95370
   A15        1.91266   0.00003   0.00051   0.00025   0.00076   1.91342
   A16        1.89957   0.00003   0.00021  -0.00015   0.00005   1.89962
   A17        1.94396   0.00004  -0.00014   0.00090   0.00075   1.94471
   A18        1.89445  -0.00006   0.00019  -0.00094  -0.00075   1.89370
   A19        1.85589  -0.00002  -0.00033  -0.00011  -0.00044   1.85545
   A20        1.90962   0.00000   0.00031  -0.00030   0.00001   1.90963
   A21        1.92021   0.00005   0.00074  -0.00021   0.00053   1.92074
   A22        1.95266  -0.00005   0.00071  -0.00075  -0.00004   1.95263
   A23        1.88847  -0.00003  -0.00133   0.00075  -0.00058   1.88789
   A24        1.89414   0.00002  -0.00012   0.00026   0.00014   1.89428
   A25        1.89745   0.00001  -0.00040   0.00031  -0.00010   1.89736
   A26        2.23370   0.00004  -0.00033   0.00033  -0.00000   2.23370
   A27        1.98170  -0.00001   0.00189  -0.00136   0.00052   1.98223
   A28        2.06777  -0.00003  -0.00155   0.00103  -0.00052   2.06725
   A29        2.24372   0.00036   0.00136   0.00136   0.00271   2.24643
   A30        1.99738  -0.00022  -0.00103  -0.00089  -0.00193   1.99545
   A31        2.04203  -0.00014  -0.00029  -0.00048  -0.00077   2.04127
   A32        2.10903  -0.00027   0.00225  -0.00267  -0.00042   2.10861
   A33        2.17901   0.00043  -0.00182   0.00324   0.00143   2.18044
   A34        1.99515  -0.00017  -0.00044  -0.00058  -0.00101   1.99414
   A35        1.93711   0.00003  -0.00053   0.00058   0.00005   1.93717
   A36        1.93713  -0.00002  -0.00067   0.00028  -0.00040   1.93673
   A37        1.95174   0.00001   0.00016  -0.00005   0.00011   1.95184
   A38        1.85818  -0.00002   0.00194  -0.00147   0.00047   1.85865
   A39        1.88809   0.00001  -0.00032   0.00039   0.00007   1.88816
   A40        1.88813  -0.00001  -0.00048   0.00020  -0.00029   1.88784
   A41        1.92831   0.00006   0.00042  -0.00006   0.00035   1.92867
   A42        1.97899   0.00008  -0.00003   0.00072   0.00068   1.97967
   A43        1.92831  -0.00013   0.00062  -0.00134  -0.00072   1.92759
   A44        1.88352  -0.00004  -0.00063   0.00044  -0.00020   1.88332
   A45        1.85605  -0.00000   0.00062  -0.00058   0.00004   1.85609
   A46        1.88375   0.00002  -0.00100   0.00080  -0.00020   1.88356
   A47        2.11301   0.00000  -0.00150   0.00100  -0.00050   2.11251
   A48        2.13748   0.00000   0.00007  -0.00003   0.00004   2.13752
   A49        2.03268  -0.00001   0.00143  -0.00096   0.00047   2.03315
    D1        1.00215  -0.00002  -0.00166  -0.00009  -0.00174   1.00041
    D2        3.08878  -0.00003  -0.00312   0.00116  -0.00196   3.08682
    D3       -1.07654   0.00004  -0.00237   0.00083  -0.00154  -1.07809
    D4        3.08917   0.00002   0.00271   0.00066   0.00337   3.09254
    D5       -1.05922   0.00001   0.00390  -0.00050   0.00340  -1.05581
    D6        0.93447   0.00001   0.00272   0.00022   0.00294   0.93741
    D7        1.09119   0.00004   0.00323   0.00025   0.00348   1.09467
    D8       -3.05720   0.00002   0.00442  -0.00090   0.00352  -3.05368
    D9       -1.06351   0.00002   0.00324  -0.00019   0.00305  -1.06046
   D10       -1.14012  -0.00003   0.00359  -0.00056   0.00302  -1.13710
   D11        0.99467  -0.00004   0.00477  -0.00172   0.00306   0.99773
   D12        2.98836  -0.00004   0.00359  -0.00101   0.00259   2.99095
   D13       -1.07245  -0.00001  -0.00020  -0.00029  -0.00049  -1.07294
   D14        1.00002  -0.00001  -0.00118   0.00031  -0.00087   0.99915
   D15        3.11106  -0.00001  -0.00071   0.00006  -0.00065   3.11041
   D16        0.96289  -0.00000  -0.00081   0.00025  -0.00056   0.96232
   D17        3.03536  -0.00000  -0.00179   0.00085  -0.00094   3.03441
   D18       -1.13679   0.00000  -0.00132   0.00060  -0.00073  -1.13752
   D19       -3.12224   0.00001  -0.00119   0.00080  -0.00039  -3.12263
   D20       -1.04977   0.00001  -0.00218   0.00140  -0.00077  -1.05054
   D21        1.06127   0.00001  -0.00171   0.00115  -0.00055   1.06072
   D22       -2.14846   0.00002   0.00766  -0.00027   0.00740  -2.14107
   D23        0.98833   0.00003   0.00670   0.00077   0.00747   0.99579
   D24        2.08137   0.00004   0.00719   0.00036   0.00755   2.08893
   D25       -1.06502   0.00005   0.00624   0.00140   0.00763  -1.05740
   D26       -0.13521   0.00002   0.00845  -0.00099   0.00746  -0.12775
   D27        3.00158   0.00003   0.00749   0.00005   0.00754   3.00912
   D28       -3.14102   0.00005   0.00359  -0.00050   0.00310  -3.13793
   D29        0.97610  -0.00001   0.00371  -0.00184   0.00187   0.97797
   D30       -1.04675  -0.00001   0.00371  -0.00176   0.00195  -1.04481
   D31        1.01231   0.00005   0.00288   0.00023   0.00312   1.01543
   D32       -1.15375  -0.00001   0.00301  -0.00112   0.00189  -1.15186
   D33        3.10659  -0.00002   0.00300  -0.00104   0.00197   3.10855
   D34       -1.01138   0.00004   0.00393  -0.00061   0.00332  -1.00806
   D35        3.10574  -0.00002   0.00406  -0.00196   0.00209   3.10783
   D36        1.08289  -0.00002   0.00405  -0.00188   0.00217   1.08506
   D37       -2.02167  -0.00006  -0.02643  -0.00077  -0.02719  -2.04886
   D38        1.10811  -0.00005  -0.02347  -0.00187  -0.02534   1.08277
   D39        0.12680  -0.00000  -0.02618   0.00023  -0.02595   0.10085
   D40       -3.02661   0.00000  -0.02323  -0.00087  -0.02410  -3.05071
   D41        2.16426  -0.00005  -0.02655   0.00004  -0.02651   2.13774
   D42       -0.98915  -0.00004  -0.02360  -0.00106  -0.02466  -1.01382
   D43        3.12981   0.00001  -0.00088   0.00090   0.00003   3.12984
   D44       -0.00554  -0.00005  -0.00111  -0.00048  -0.00158  -0.00712
   D45       -0.00677   0.00000   0.00013  -0.00017  -0.00005  -0.00682
   D46        3.14106  -0.00006  -0.00010  -0.00155  -0.00166   3.13940
   D47        3.13585  -0.00000   0.00221  -0.00016   0.00206   3.13791
   D48       -0.00618  -0.00003   0.00222  -0.00161   0.00061  -0.00557
   D49        0.00633  -0.00001  -0.00080   0.00097   0.00017   0.00650
   D50       -3.13570  -0.00004  -0.00079  -0.00049  -0.00128  -3.13698
   D51       -2.11001  -0.00004  -0.00324  -0.00095  -0.00419  -2.11420
   D52        2.11044  -0.00002  -0.00489   0.00033  -0.00456   2.10588
   D53        0.00018  -0.00001  -0.00391  -0.00008  -0.00399  -0.00380
   D54        1.03198  -0.00001  -0.00324   0.00036  -0.00289   1.02909
   D55       -1.03076   0.00000  -0.00490   0.00164  -0.00326  -1.03402
   D56       -3.14101   0.00002  -0.00391   0.00123  -0.00269   3.13949
   D57       -2.11442   0.00002   0.00024   0.00269   0.00294  -2.11148
   D58        0.00250   0.00007  -0.00030   0.00371   0.00341   0.00592
   D59        2.11973   0.00006  -0.00116   0.00427   0.00311   2.12284
   D60        1.02676  -0.00001   0.00025   0.00132   0.00157   1.02833
   D61       -3.13950   0.00004  -0.00029   0.00234   0.00205  -3.13745
   D62       -1.02228   0.00003  -0.00115   0.00290   0.00175  -1.02053
         Item               Value     Threshold  Converged?
 Maximum Force            0.000432     0.000450     YES
 RMS     Force            0.000071     0.000300     YES
 Maximum Displacement     0.056401     0.001800     NO 
 RMS     Displacement     0.017238     0.001200     NO 
 Predicted change in Energy=-6.123295D-06
 Lowest energy point so far.  Saving SCF results.
 GradGradGradGradGradGradGradGradGradGradGradGradGradGradGradGradGradGrad

 Leave Link  103 at Sat May  4 10:43:09 2024, MaxMem= 13421772800 cpu:               5.4 elap:               0.2
 (Enter /tmpu/scunam/7/gaussian-2016.03/g1/g16/l202.exe)
                          Input orientation:                          
 ---------------------------------------------------------------------
 Center     Atomic      Atomic             Coordinates (Angstroms)
 Number     Number       Type             X           Y           Z
 ---------------------------------------------------------------------
      1          8           0        2.724311   -1.310173   -1.185599
      2          6           0        1.987984   -0.545294   -0.204683
      3          6           0        0.487242   -0.864502   -0.381823
      4          6           0       -0.477113   -0.201303    0.614126
      5          6           0        2.525365   -1.030643    1.134945
      6          6           0        2.244509    0.922348   -0.469056
      7          6           0       -1.905076   -0.584541    0.352280
      8          6           0       -2.930283    0.198791    0.006016
      9          6           0       -4.301804   -0.380304   -0.218865
     10          6           0       -2.848223    1.688379   -0.191258
     11          6           0        2.743936    1.826261    0.362751
     12          1           0        0.196317   -0.569611   -1.397044
     13          1           0        0.381587   -1.952115   -0.334452
     14          1           0       -0.343960    0.880038    0.587965
     15          1           0       -0.212234   -0.519386    1.628197
     16          1           0        2.320010   -2.096087    1.243329
     17          1           0        3.604674   -0.886413    1.178963
     18          1           0        2.067988   -0.503099    1.970897
     19          1           0        1.977794    1.236494   -1.477485
     20          1           0       -2.109964   -1.648593    0.455356
     21          1           0        2.393965   -1.084238   -2.063294
     22          1           0       -4.653442   -0.172795   -1.234856
     23          1           0       -5.033093    0.068991    0.461010
     24          1           0       -4.315812   -1.459912   -0.067860
     25          1           0       -3.534175    2.203633    0.488812
     26          1           0       -1.851035    2.091781   -0.029478
     27          1           0       -3.160025    1.957538   -1.205739
     28          1           0        2.890999    2.852255    0.049522
     29          1           0        3.028957    1.586098    1.379126
 ---------------------------------------------------------------------
                    Distance matrix (angstroms):
                    1          2          3          4          5
     1  O    0.000000
     2  C    1.445481   0.000000
     3  C    2.418503   1.544506   0.000000
     4  C    3.836368   2.620206   1.536791   0.000000
     5  C    2.345771   1.522809   2.546004   3.158153   0.000000
     6  C    2.393281   1.513165   2.507674   3.137372   2.542808
     7  C    4.931819   3.932895   2.518029   1.501504   4.521104
     8  C    5.972550   4.978694   3.600067   2.558890   5.705268
     9  C    7.153008   6.291967   4.816219   3.918441   6.990421
    10  C    6.405713   5.327135   4.204621   3.137149   6.166632
    11  C    3.497856   2.552982   3.589884   3.814363   2.967483
    12  H    2.642706   2.152298   1.096481   2.152665   3.471021
    13  H    2.573888   2.139275   1.093760   2.168527   2.757540
    14  H    4.166155   2.845667   2.162130   1.089823   3.490403
    15  H    4.143198   2.863753   2.156050   1.095297   2.828274
    16  H    2.584727   2.147543   2.741708   3.436568   1.090454
    17  H    2.558470   2.155117   3.486391   4.177248   1.089792
    18  H    3.323492   2.177459   2.857387   2.899904   1.089179
    19  H    2.669831   2.189725   2.799358   3.531100   3.502076
    20  H    5.116393   4.294892   2.839216   2.187706   4.725461
    21  H    0.964636   1.977301   2.551710   4.023835   3.201386
    22  H    7.465072   6.731162   5.256686   4.567414   7.608359
    23  H    8.049270   7.079266   5.661791   4.566559   7.667704
    24  H    7.129874   6.371271   4.849991   4.096927   6.959362
    25  H    7.370152   6.207396   5.132568   3.891664   6.898990
    26  H    5.817534   4.660786   3.785670   2.749568   5.500754
    27  H    6.730806   5.811047   4.684581   3.894936   6.836058
    28  H    4.345010   3.524683   4.447290   4.581176   4.048299
    29  H    3.880594   2.852175   3.945465   4.009059   2.675922
                    6          7          8          9         10
     6  C    0.000000
     7  C    4.490475   0.000000
     8  C    5.246685   1.335873   0.000000
     9  C    6.679350   2.472292   1.505654   0.000000
    10  C    5.157509   2.520144   1.504833   2.528460   0.000000
    11  C    1.326043   5.236926   5.913770   7.406056   5.621226
    12  H    2.698554   2.734266   3.512071   4.653712   3.977645
    13  H    3.427993   2.751488   3.963685   4.941468   4.868817
    14  H    2.796293   2.153514   2.737121   4.231308   2.744438
    15  H    3.537323   2.120830   3.245772   4.489495   3.890126
    16  H    3.471154   4.574942   5.861995   6.995023   6.564363
    17  H    2.799576   5.579595   6.727491   8.045028   7.081450
    18  H    2.831329   4.290896   5.416282   6.736794   5.800571
    19  H    1.089383   4.662712   5.231331   6.605415   5.014880
    20  H    5.140595   1.088490   2.070666   2.620552   3.478292
    21  H    2.567162   4.956456   5.854556   6.980743   6.218719
    22  H    7.026202   3.200320   2.155717   1.094964   2.794974
    23  H    7.386253   3.197408   2.155384   1.094934   2.796699
    24  H    6.990990   2.598931   2.162509   1.090207   3.475741
    25  H    5.996032   3.232108   2.148760   2.786897   1.094766
    26  H    4.281856   2.703953   2.179322   3.486164   1.087791
    27  H    5.551875   3.234886   2.148098   2.782640   1.094915
    28  H    2.100336   5.908093   6.397662   7.890366   5.860994
    29  H    2.114639   5.487328   6.270772   7.756311   6.084226
                   11         12         13         14         15
    11  C    0.000000
    12  H    3.915028   0.000000
    13  H    4.510312   1.753495   0.000000
    14  H    3.237462   2.516673   3.065676   0.000000
    15  H    3.980246   3.053116   2.501465   1.748663   0.000000
    16  H    4.042270   3.716419   2.503518   4.047661   3.007719
    17  H    2.960688   4.284049   3.716778   4.365929   3.860740
    18  H    2.910147   3.853648   3.202847   3.105328   2.305889
    19  H    2.078766   2.538139   3.744547   3.127888   4.186239
    20  H    5.970221   3.148733   2.631302   3.087124   2.500408
    21  H    3.805152   2.353378   2.791375   4.287633   4.553948
    22  H    7.827501   4.868668   5.415554   4.796120   5.295424
    23  H    7.973697   5.586315   5.834072   4.760450   4.994917
    24  H    7.799000   4.787346   4.730634   4.656295   4.538783
    25  H    6.290705   5.016364   5.768986   3.455316   4.443908
    26  H    4.619319   3.625589   4.629332   2.029983   3.500249
    27  H    6.110168   4.205724   5.346733   3.508362   4.780776
    28  H    1.082775   4.589448   5.433834   3.826815   4.846672
    29  H    1.082559   4.514205   4.739606   3.535678   3.873037
                   16         17         18         19         20
    16  H    0.000000
    17  H    1.765734   0.000000
    18  H    1.769317   1.770732   0.000000
    19  H    4.315790   3.769641   3.863374   0.000000
    20  H    4.521706   5.810475   4.589587   5.363709   0.000000
    21  H    3.458766   3.466581   4.088848   2.429438   5.191096
    22  H    7.646534   8.633206   7.454097   6.783675   3.391765
    23  H    7.705045   8.720050   7.282335   7.367046   3.390400
    24  H    6.793974   8.038506   6.769411   6.990503   2.274889
    25  H    7.302628   7.809472   6.395874   5.931566   4.107206
    26  H    6.046147   6.332040   5.108194   4.181886   3.780543
    27  H    7.242969   7.715958   6.593775   5.195280   4.106829
    28  H    5.122235   3.970214   3.953153   2.403409   6.740324
    29  H    3.752270   2.546531   2.374530   3.063885   6.142075
                   21         22         23         24         25
    21  H    0.000000
    22  H    7.154229   0.000000
    23  H    7.928635   1.754582   0.000000
    24  H    7.010279   1.769899   1.769672   0.000000
    25  H    7.243355   3.141847   2.608491   3.787136   0.000000
    26  H    5.678339   3.799306   3.802335   4.323323   1.764680
    27  H    6.390197   2.601819   3.138957   3.782800   1.752728
    28  H    4.495221   8.229164   8.408752   8.399207   6.472754
    29  H    4.402745   8.303364   8.254768   8.081929   6.651970
                   26         27         28         29
    26  H    0.000000
    27  H    1.764955   0.000000
    28  H    4.803275   6.244284   0.000000
    29  H    5.104332   6.717365   1.841204   0.000000
 Stoichiometry    C10H18O
 Framework group  C1[X(C10H18O)]
 Deg. of freedom    81
 Full point group                 C1      NOp   1
 RotChk:  IX=2 Diff= 6.67D-03
 Largest Abelian subgroup         C1      NOp   1
 Largest concise Abelian subgroup C1      NOp   1
                         Standard orientation:                         
 ---------------------------------------------------------------------
 Center     Atomic      Atomic             Coordinates (Angstroms)
 Number     Number       Type             X           Y           Z
 ---------------------------------------------------------------------
      1          8           0       -2.791790   -1.166747    1.109365
      2          6           0       -2.010155   -0.396958    0.168149
      3          6           0       -0.533080   -0.823465    0.315926
      4          6           0        0.469335   -0.169060   -0.647738
      5          6           0       -2.583070   -0.768653   -1.192939
      6          6           0       -2.168523    1.066823    0.517338
      7          6           0        1.869872   -0.659426   -0.418501
      8          6           0        2.945664    0.033934   -0.035773
      9          6           0        4.276852   -0.645733    0.145844
     10          6           0        2.962591    1.511977    0.246404
     11          6           0       -2.610267    2.047605   -0.258109
     12          1           0       -0.219776   -0.606803    1.344114
     13          1           0       -0.499457   -1.911174    0.206071
     14          1           0        0.407786    0.915416   -0.559214
     15          1           0        0.180498   -0.410599   -1.676284
     16          1           0       -2.448720   -1.837325   -1.363172
     17          1           0       -3.650685   -0.551699   -1.220824
     18          1           0       -2.094898   -0.225301   -2.000879
     19          1           0       -1.878132    1.304643    1.540016
     20          1           0        2.003867   -1.726983   -0.583353
     21          1           0       -2.444179   -1.013502    1.996047
     22          1           0        4.644984   -0.520146    1.169393
     23          1           0        5.033738   -0.207212   -0.512719
     24          1           0        4.219189   -1.713534   -0.066352
     25          1           0        3.678582    2.019191   -0.408275
     26          1           0        1.993573    1.988471    0.115075
     27          1           0        3.295029    1.701679    1.272239
     28          1           0       -2.688326    3.061444    0.113967
     29          1           0       -2.914079    1.885142   -1.284383
 ---------------------------------------------------------------------
 Rotational constants (GHZ):           1.9638836           0.4634673           0.4216093
 Leave Link  202 at Sat May  4 10:43:09 2024, MaxMem= 13421772800 cpu:               2.7 elap:               0.1
 (Enter /tmpu/scunam/7/gaussian-2016.03/g1/g16/l301.exe)
 Standard basis: def2TZVP (5D, 7F)
 Ernie: Thresh=  0.10000D-02 Tol=  0.10000D-05 Strict=F.
 There are   504 symmetry adapted cartesian basis functions of A   symmetry.
 There are   449 symmetry adapted basis functions of A   symmetry.
   449 basis functions,   705 primitive gaussians,   504 cartesian basis functions
    43 alpha electrons       43 beta electrons
       nuclear repulsion energy       617.5216440816 Hartrees.
 IExCor=  402 DFT=T Ex+Corr=B3LYP ExCW=0 ScaHFX=  0.200000
 ScaDFX=  0.800000  0.720000  1.000000  0.810000 ScalE2=  1.000000  1.000000
 IRadAn=      5 IRanWt=     -1 IRanGd=            0 ICorTp=0 IEmpDi=  4
 NAtoms=   29 NActive=   29 NUniq=   29 SFac= 1.00D+00 NAtFMM=   60 NAOKFM=F Big=F
 Integral buffers will be    131072 words long.
 Raffenetti 2 integral format.
 Two-electron integral symmetry is turned on.
 Leave Link  301 at Sat May  4 10:43:09 2024, MaxMem= 13421772800 cpu:               2.7 elap:               0.1
 (Enter /tmpu/scunam/7/gaussian-2016.03/g1/g16/l302.exe)
 NPDir=0 NMtPBC=     1 NCelOv=     1 NCel=       1 NClECP=     1 NCelD=      1
         NCelK=      1 NCelE2=     1 NClLst=     1 CellRange=     0.0.
 One-electron integrals computed using PRISM.
 One-electron integral symmetry used in STVInt
   1 Symmetry operations used in ECPInt.
 ECPInt:  NShTT=   18721 NPrTT=   54252 LenC2=   17414 LenP2D=   38537.
 LDataN:  DoStor=T MaxTD1= 6 Len=  172
 NBasis=   449 RedAO= T EigKep=  6.64D-05  NBF=   449
 NBsUse=   449 1.00D-06 EigRej= -1.00D+00 NBFU=   449
 Precomputing XC quadrature grid using
 IXCGrd= 4 IRadAn=           5 IRanWt=          -1 IRanGd=           0 AccXCQ= 0.00D+00.
 Generated NRdTot=       0 NPtTot=           0 NUsed=           0 NTot=          32
 NSgBfM=   501   501   501   501   501 MxSgAt=    29 MxSgA2=    29.
 Leave Link  302 at Sat May  4 10:43:09 2024, MaxMem= 13421772800 cpu:              15.8 elap:               0.5
 (Enter /tmpu/scunam/7/gaussian-2016.03/g1/g16/l303.exe)
 DipDrv:  MaxL=1.
 Leave Link  303 at Sat May  4 10:43:10 2024, MaxMem= 13421772800 cpu:               3.2 elap:               0.1
 (Enter /tmpu/scunam/7/gaussian-2016.03/g1/g16/l401.exe)
 Initial guess from the checkpoint file:  "linalool.chk"
 B after Tr=     0.000000   -0.000000    0.000000
         Rot=    0.999996   -0.002756    0.000158    0.000401 Ang=  -0.32 deg.
 Guess basis will be translated and rotated to current coordinates.
 JPrj=2 DoOrth=T DoCkMO=T.
 Generating alternative initial guess.
 ExpMin= 9.52D-02 ExpMax= 2.70D+04 ExpMxC= 9.22D+02 IAcc=2 IRadAn=         4 AccDes= 0.00D+00
 Harris functional with IExCor=  402 and IRadAn=       4 diagonalized for initial guess.
 HarFok:  IExCor=  402 AccDes= 0.00D+00 IRadAn=         4 IDoV= 1 UseB2=F ITyADJ=14
 ICtDFT=  3500011 ScaDFX=  1.000000  1.000000  1.000000  1.000000
 FoFCou: FMM=F IPFlag=           0 FMFlag=      100000 FMFlg1=           0
         NFxFlg=           0 DoJE=T BraDBF=F KetDBF=T FulRan=T
         wScrn=  0.000000 ICntrl=       500 IOpCl=  0 I1Cent=   200000004 NGrid=           0
         NMat0=    1 NMatS0=      1 NMatT0=    0 NMatD0=    1 NMtDS0=    0 NMtDT0=    0
 Petite list used in FoFCou.
 Harris En= -467.406748926298    
 Leave Link  401 at Sat May  4 10:43:11 2024, MaxMem= 13421772800 cpu:              38.5 elap:               1.2
 (Enter /tmpu/scunam/7/gaussian-2016.03/g1/g16/l502.exe)
 Integral symmetry usage will be decided dynamically.
 Closed shell SCF:
 Using DIIS extrapolation, IDIIS=  1040.
 NGot= 13421772800 LenX= 13421243903 LenY= 13420989383
 Requested convergence on RMS density matrix=1.00D-08 within 128 cycles.
 Requested convergence on MAX density matrix=1.00D-06.
 Requested convergence on             energy=1.00D-06.
 No special actions if energy rises.
 Fock matrices will be formed incrementally for  20 cycles.
 Integral accuracy reduced to 1.0D-05 until final iterations.

 Cycle   1  Pass 0  IDiag  1:
 FoFJK:  IHMeth= 1 ICntrl=       0 DoSepK=F KAlg= 0 I1Cent=           0 FoldK=F
 IRaf= 880000000 NMat=       1 IRICut=       1 DoRegI=T DoRafI=F ISym2E= 0 IDoP0=0 IntGTp=1.
 FoFCou: FMM=F IPFlag=           0 FMFlag=      100000 FMFlg1=           0
         NFxFlg=           0 DoJE=F BraDBF=F KetDBF=F FulRan=T
         wScrn=  0.000000 ICntrl=         0 IOpCl=  0 I1Cent=           0 NGrid=           0
         NMat0=    1 NMatS0=      1 NMatT0=    0 NMatD0=    1 NMtDS0=    0 NMtDT0=    0
 Symmetry not used in FoFCou.
 E= -467.273311571669    
 DIIS: error= 7.45D-04 at cycle   1 NSaved=   1.
 NSaved= 1 IEnMin= 1 EnMin= -467.273311571669     IErMin= 1 ErrMin= 7.45D-04
 ErrMax= 7.45D-04  0.00D+00 EMaxC= 1.00D-01 BMatC= 3.28D-04 BMatP= 3.28D-04
 IDIUse=3 WtCom= 9.93D-01 WtEn= 7.45D-03
 Coeff-Com:  0.100D+01
 Coeff-En:   0.100D+01
 Coeff:      0.100D+01
 Gap=     0.629 Goal=   None    Shift=    0.000
 RMSDP=1.28D-04 MaxDP=4.62D-03              OVMax= 5.20D-03

 Cycle   2  Pass 0  IDiag  1:
 RMSU=  1.28D-04    CP:  1.00D+00
 E= -467.273741817095     Delta-E=       -0.000430245426 Rises=F Damp=F
 DIIS: error= 1.21D-04 at cycle   2 NSaved=   2.
 NSaved= 2 IEnMin= 2 EnMin= -467.273741817095     IErMin= 2 ErrMin= 1.21D-04
 ErrMax= 1.21D-04  0.00D+00 EMaxC= 1.00D-01 BMatC= 2.82D-06 BMatP= 3.28D-04
 IDIUse=3 WtCom= 9.99D-01 WtEn= 1.21D-03
 Coeff-Com: -0.515D-01 0.105D+01
 Coeff-En:   0.000D+00 0.100D+01
 Coeff:     -0.515D-01 0.105D+01
 Gap=     0.234 Goal=   None    Shift=    0.000
 RMSDP=1.16D-05 MaxDP=4.57D-04 DE=-4.30D-04 OVMax= 7.48D-04

 Cycle   3  Pass 0  IDiag  1:
 RMSU=  1.09D-05    CP:  1.00D+00  1.03D+00
 E= -467.273746760061     Delta-E=       -0.000004942966 Rises=F Damp=F
 DIIS: error= 4.19D-05 at cycle   3 NSaved=   3.
 NSaved= 3 IEnMin= 3 EnMin= -467.273746760061     IErMin= 3 ErrMin= 4.19D-05
 ErrMax= 4.19D-05  0.00D+00 EMaxC= 1.00D-01 BMatC= 1.74D-06 BMatP= 2.82D-06
 IDIUse=1 WtCom= 1.00D+00 WtEn= 0.00D+00
 Coeff-Com: -0.289D-01 0.502D+00 0.527D+00
 Coeff:     -0.289D-01 0.502D+00 0.527D+00
 Gap=     0.234 Goal=   None    Shift=    0.000
 RMSDP=4.05D-06 MaxDP=1.57D-04 DE=-4.94D-06 OVMax= 3.94D-04

 Initial convergence to 1.0D-05 achieved.  Increase integral accuracy.
 Cycle   4  Pass 1  IDiag  1:
 E= -467.273757328192     Delta-E=       -0.000010568132 Rises=F Damp=F
 DIIS: error= 1.90D-04 at cycle   1 NSaved=   1.
 NSaved= 1 IEnMin= 1 EnMin= -467.273757328192     IErMin= 1 ErrMin= 1.90D-04
 ErrMax= 1.90D-04  0.00D+00 EMaxC= 1.00D-01 BMatC= 6.06D-06 BMatP= 6.06D-06
 IDIUse=3 WtCom= 9.98D-01 WtEn= 1.90D-03
 Coeff-Com:  0.100D+01
 Coeff-En:   0.100D+01
 Coeff:      0.100D+01
 Gap=     0.234 Goal=   None    Shift=    0.000
 RMSDP=4.05D-06 MaxDP=1.57D-04 DE=-1.06D-05 OVMax= 5.97D-04

 Cycle   5  Pass 1  IDiag  1:
 RMSU=  1.22D-04    CP:  1.00D+00
 E= -467.273760089502     Delta-E=       -0.000002761310 Rises=F Damp=F
 DIIS: error= 4.27D-05 at cycle   2 NSaved=   2.
 NSaved= 2 IEnMin= 2 EnMin= -467.273760089502     IErMin= 2 ErrMin= 4.27D-05
 ErrMax= 4.27D-05  0.00D+00 EMaxC= 1.00D-01 BMatC= 1.20D-06 BMatP= 6.06D-06
 IDIUse=1 WtCom= 1.00D+00 WtEn= 0.00D+00
 Coeff-Com:  0.214D+00 0.786D+00
 Coeff:      0.214D+00 0.786D+00
 Gap=     0.234 Goal=   None    Shift=    0.000
 RMSDP=4.60D-06 MaxDP=1.94D-04 DE=-2.76D-06 OVMax= 6.67D-04

 Cycle   6  Pass 1  IDiag  1:
 RMSU=  4.44D-06    CP:  1.00D+00  1.01D+00
 E= -467.273759533795     Delta-E=        0.000000555707 Rises=F Damp=F
 DIIS: error= 5.49D-05 at cycle   3 NSaved=   3.
 NSaved= 3 IEnMin= 2 EnMin= -467.273760089502     IErMin= 2 ErrMin= 4.27D-05
 ErrMax= 5.49D-05  0.00D+00 EMaxC= 1.00D-01 BMatC= 1.85D-06 BMatP= 1.20D-06
 IDIUse=1 WtCom= 1.00D+00 WtEn= 0.00D+00
 Coeff-Com: -0.351D-02 0.555D+00 0.449D+00
 Coeff:     -0.351D-02 0.555D+00 0.449D+00
 Gap=     0.234 Goal=   None    Shift=    0.000
 RMSDP=2.45D-06 MaxDP=1.19D-04 DE= 5.56D-07 OVMax= 4.14D-04

 Cycle   7  Pass 1  IDiag  1:
 RMSU=  5.62D-07    CP:  1.00D+00  1.01D+00  4.78D-01
 E= -467.273761052626     Delta-E=       -0.000001518832 Rises=F Damp=F
 DIIS: error= 2.30D-06 at cycle   4 NSaved=   4.
 NSaved= 4 IEnMin= 4 EnMin= -467.273761052626     IErMin= 4 ErrMin= 2.30D-06
 ErrMax= 2.30D-06  0.00D+00 EMaxC= 1.00D-01 BMatC= 5.39D-09 BMatP= 1.20D-06
 IDIUse=1 WtCom= 1.00D+00 WtEn= 0.00D+00
 Coeff-Com: -0.270D-02 0.338D+00 0.275D+00 0.389D+00
 Coeff:     -0.270D-02 0.338D+00 0.275D+00 0.389D+00
 Gap=     0.234 Goal=   None    Shift=    0.000
 RMSDP=1.68D-07 MaxDP=9.20D-06 DE=-1.52D-06 OVMax= 3.41D-05

 Cycle   8  Pass 1  IDiag  1:
 RMSU=  1.54D-07    CP:  1.00D+00  1.01D+00  4.73D-01  8.94D-01
 E= -467.273761057566     Delta-E=       -0.000000004940 Rises=F Damp=F
 DIIS: error= 3.57D-07 at cycle   5 NSaved=   5.
 NSaved= 5 IEnMin= 5 EnMin= -467.273761057566     IErMin= 5 ErrMin= 3.57D-07
 ErrMax= 3.57D-07  0.00D+00 EMaxC= 1.00D-01 BMatC= 9.15D-11 BMatP= 5.39D-09
 IDIUse=1 WtCom= 1.00D+00 WtEn= 0.00D+00
 Coeff-Com: -0.926D-03 0.108D+00 0.888D-01 0.171D+00 0.633D+00
 Coeff:     -0.926D-03 0.108D+00 0.888D-01 0.171D+00 0.633D+00
 Gap=     0.234 Goal=   None    Shift=    0.000
 RMSDP=3.06D-08 MaxDP=1.25D-06 DE=-4.94D-09 OVMax= 4.13D-06

 Cycle   9  Pass 1  IDiag  1:
 RMSU=  2.56D-08    CP:  1.00D+00  1.01D+00  4.75D-01  9.13D-01  9.51D-01
 E= -467.273761057644     Delta-E=       -0.000000000078 Rises=F Damp=F
 DIIS: error= 1.01D-07 at cycle   6 NSaved=   6.
 NSaved= 6 IEnMin= 6 EnMin= -467.273761057644     IErMin= 6 ErrMin= 1.01D-07
 ErrMax= 1.01D-07  0.00D+00 EMaxC= 1.00D-01 BMatC= 1.04D-11 BMatP= 9.15D-11
 IDIUse=1 WtCom= 1.00D+00 WtEn= 0.00D+00
 Coeff-Com: -0.187D-03 0.199D-01 0.165D-01 0.445D-01 0.303D+00 0.616D+00
 Coeff:     -0.187D-03 0.199D-01 0.165D-01 0.445D-01 0.303D+00 0.616D+00
 Gap=     0.234 Goal=   None    Shift=    0.000
 RMSDP=1.16D-08 MaxDP=5.50D-07 DE=-7.78D-11 OVMax= 1.06D-06

 Cycle  10  Pass 1  IDiag  1:
 RMSU=  9.70D-09    CP:  1.00D+00  1.01D+00  4.75D-01  9.20D-01  9.69D-01
                    CP:  9.18D-01
 E= -467.273761057654     Delta-E=       -0.000000000010 Rises=F Damp=F
 DIIS: error= 3.47D-08 at cycle   7 NSaved=   7.
 NSaved= 7 IEnMin= 7 EnMin= -467.273761057654     IErMin= 7 ErrMin= 3.47D-08
 ErrMax= 3.47D-08  0.00D+00 EMaxC= 1.00D-01 BMatC= 9.91D-13 BMatP= 1.04D-11
 IDIUse=1 WtCom= 1.00D+00 WtEn= 0.00D+00
 Coeff-Com:  0.406D-04-0.570D-02-0.460D-02-0.292D-02 0.545D-01 0.281D+00
 Coeff-Com:  0.678D+00
 Coeff:      0.406D-04-0.570D-02-0.460D-02-0.292D-02 0.545D-01 0.281D+00
 Coeff:      0.678D+00
 Gap=     0.234 Goal=   None    Shift=    0.000
 RMSDP=3.52D-09 MaxDP=1.91D-07 DE=-1.05D-11 OVMax= 5.22D-07

 SCF Done:  E(RB3LYP) =  -467.273761058     A.U. after   10 cycles
            NFock= 10  Conv=0.35D-08     -V/T= 2.0054
 KE= 4.647650803314D+02 PE=-2.320318001113D+03 EE= 7.707575156427D+02
 Leave Link  502 at Sat May  4 10:43:57 2024, MaxMem= 13421772800 cpu:            1461.4 elap:              45.7
 (Enter /tmpu/scunam/7/gaussian-2016.03/g1/g16/l508.exe)
 QCSCF skips out because SCF is already converged.
 Leave Link  508 at Sat May  4 10:43:57 2024, MaxMem= 13421772800 cpu:               1.1 elap:               0.1
 (Enter /tmpu/scunam/7/gaussian-2016.03/g1/g16/l701.exe)
 ... and contract with generalized density number  0.
 Compute integral first derivatives.
   1 Symmetry operations used in ECPInt.
 ECPInt:  NShTT=   18721 NPrTT=   54252 LenC2=   17414 LenP2D=   38537.
 LDataN:  DoStor=T MaxTD1= 7 Len=  274
 Leave Link  701 at Sat May  4 10:43:57 2024, MaxMem= 13421772800 cpu:              10.6 elap:               0.4
 (Enter /tmpu/scunam/7/gaussian-2016.03/g1/g16/l702.exe)
 L702 exits ... SP integral derivatives will be done elsewhere.
 Leave Link  702 at Sat May  4 10:43:57 2024, MaxMem= 13421772800 cpu:               0.6 elap:               0.0
 (Enter /tmpu/scunam/7/gaussian-2016.03/g1/g16/l703.exe)
 Integral derivatives from FoFJK, PRISM(SPDF).
 Compute integral first derivatives, UseDBF=F ICtDFT=           0.
 Calling FoFJK, ICntrl=      2127 FMM=F ISym2X=0 I1Cent= 0 IOpClX= 0 NMat=1 NMatS=1 NMatT=0.
 FoFJK:  IHMeth= 1 ICntrl=    2127 DoSepK=F KAlg= 0 I1Cent=           0 FoldK=F
 IRaf=         0 NMat=       1 IRICut=       1 DoRegI=T DoRafI=F ISym2E= 0 IDoP0=0 IntGTp=1.
 FoFCou: FMM=F IPFlag=           0 FMFlag=      100000 FMFlg1=         800
         NFxFlg=           0 DoJE=F BraDBF=F KetDBF=F FulRan=T
         wScrn=  0.000000 ICntrl=      2127 IOpCl=  0 I1Cent=           0 NGrid=           0
         NMat0=    1 NMatS0=      1 NMatT0=    0 NMatD0=    1 NMtDS0=    0 NMtDT0=    0
 Symmetry not used in FoFCou.
 Leave Link  703 at Sat May  4 10:44:18 2024, MaxMem= 13421772800 cpu:             657.3 elap:              20.6
 (Enter /tmpu/scunam/7/gaussian-2016.03/g1/g16/l716.exe)
 Dipole        = 5.59091849D-01 3.80302558D-01 1.12340877D-01
 ***** Axes restored to original set *****
 -------------------------------------------------------------------
 Center     Atomic                   Forces (Hartrees/Bohr)
 Number     Number              X              Y              Z
 -------------------------------------------------------------------
      1        8           0.000032961   -0.000055575   -0.000058272
      2        6          -0.000101114   -0.000026317    0.000106131
      3        6           0.000068715   -0.000055228   -0.000125940
      4        6          -0.000091292   -0.000008743    0.000006679
      5        6           0.000064465   -0.000063924    0.000055198
      6        6           0.000031070    0.000202946    0.000085956
      7        6          -0.000085707   -0.000095757    0.000076201
      8        6           0.000251451    0.000278881   -0.000070635
      9        6           0.000044207   -0.000213772   -0.000015376
     10        6           0.000030237   -0.000096813   -0.000020562
     11        6          -0.000025911   -0.000085943   -0.000143538
     12        1           0.000005890    0.000022608    0.000016807
     13        1          -0.000000732    0.000017184    0.000018975
     14        1           0.000000680    0.000062098   -0.000022927
     15        1          -0.000005739    0.000013030    0.000014902
     16        1          -0.000005359    0.000014029   -0.000014602
     17        1          -0.000033932    0.000012025   -0.000017466
     18        1          -0.000026307    0.000020543   -0.000011207
     19        1          -0.000046875   -0.000040390   -0.000025102
     20        1          -0.000008404    0.000032126   -0.000004801
     21        1           0.000008685    0.000004089    0.000000457
     22        1          -0.000063454    0.000030213   -0.000009871
     23        1          -0.000064591    0.000029740   -0.000010880
     24        1          -0.000006380    0.000041299    0.000001432
     25        1          -0.000004111    0.000000568    0.000037885
     26        1           0.000063591   -0.000033715    0.000014780
     27        1          -0.000063352   -0.000042335    0.000047526
     28        1           0.000035539    0.000014759    0.000043790
     29        1          -0.000004232    0.000022374    0.000024460
 -------------------------------------------------------------------
 Cartesian Forces:  Max     0.000278881 RMS     0.000069883
 Leave Link  716 at Sat May  4 10:44:18 2024, MaxMem= 13421772800 cpu:               0.7 elap:               0.0
 (Enter /tmpu/scunam/7/gaussian-2016.03/g1/g16/l103.exe)

 GradGradGradGradGradGradGradGradGradGradGradGradGradGradGradGradGradGrad
 Berny optimization.
 Using GEDIIS/GDIIS optimizer.
 FormGI is forming the generalized inverse of G from B-inverse, IUseBI=4.
 Internal  Forces:  Max     0.000197547 RMS     0.000043324
 Search for a local minimum.
 Step number   8 out of a maximum of  174
 All quantities printed in internal units (Hartrees-Bohrs-Radians)
 RMS Force = .43324D-04 SwitMx=.10000D-02 MixMth= 2
 Mixed Optimization -- En-DIIS/RFO-DIIS
 Swapping is turned off.
 Update second derivatives using D2CorX and points    5    6    7    8
 DE= -6.37D-06 DEPred=-6.12D-06 R= 1.04D+00
 TightC=F SS=  1.41D+00  RLast= 6.78D-02 DXNew= 1.6575D+00 2.0343D-01
 Trust test= 1.04D+00 RLast= 6.78D-02 DXMaxT set to 9.86D-01
 ITU=  1  1  1  1  1  1  1  0
     Eigenvalues ---    0.00128   0.00239   0.00292   0.00335   0.00369
     Eigenvalues ---    0.00654   0.00733   0.01183   0.01319   0.01553
     Eigenvalues ---    0.01572   0.02819   0.02894   0.02938   0.03143
     Eigenvalues ---    0.04230   0.04563   0.04739   0.05455   0.05462
     Eigenvalues ---    0.05724   0.06698   0.06930   0.07061   0.07299
     Eigenvalues ---    0.07332   0.08352   0.08937   0.09217   0.12637
     Eigenvalues ---    0.12829   0.15704   0.15991   0.16000   0.16000
     Eigenvalues ---    0.16000   0.16000   0.16000   0.16000   0.16002
     Eigenvalues ---    0.16033   0.16067   0.16089   0.16231   0.16604
     Eigenvalues ---    0.16736   0.17587   0.21949   0.22148   0.22528
     Eigenvalues ---    0.23373   0.24979   0.27218   0.28261   0.29088
     Eigenvalues ---    0.29657   0.31287   0.31981   0.32150   0.33520
     Eigenvalues ---    0.33738   0.33809   0.34067   0.34098   0.34126
     Eigenvalues ---    0.34189   0.34230   0.34253   0.34285   0.34339
     Eigenvalues ---    0.34433   0.34512   0.34891   0.34901   0.35404
     Eigenvalues ---    0.35653   0.37343   0.40257   0.52960   0.57247
     Eigenvalues ---    0.59385
 En-DIIS/RFO-DIIS/Sim-DIIS IScMMF=       -3 using points:     8    7    6    5    4    3    2
 RFO step:  Lambda=-2.56314564D-06.
 NNeg= 0 NGDIIS= 7 SimSw=  2.50D-01 Rises=F DC= -6.37D-06 SmlDif=  1.00D-05
 NRisDI= 0 DoIntr=F SqrtH=F CThrHd= 10.0 CDAdj=  3.0
 RMS Error=  0.2057666692D-02 NUsed= 7 OKEnD=F EnDIS=F
 InvSVX:  RCond= 2.08D-06 Info=           0 Equed=N FErr=  3.38D-12 BErr=  6.12D-17
 DidBck=F Rises=F RFO-DIIS coefs:    1.51339   -0.39813   -0.33166    0.38716   -0.19532
                  RFO-DIIS coefs:   -0.01734    0.04190
 Iteration  1 RMS(Cart)=  0.00657484 RMS(Int)=  0.00001492
 Iteration  2 RMS(Cart)=  0.00002116 RMS(Int)=  0.00000129
 Iteration  3 RMS(Cart)=  0.00000000 RMS(Int)=  0.00000129
 ITry= 1 IFail=0 DXMaxC= 2.92D-02 DCOld= 1.00D+10 DXMaxT= 9.86D-01 DXLimC= 3.00D+00 Rises=F
 Variable       Old X    -DE/DX   Delta X   Delta X   Delta X     New X
                                 (Linear)    (Quad)   (Total)
    R1        2.73156   0.00009  -0.00004   0.00026   0.00022   2.73178
    R2        1.82290  -0.00000   0.00003  -0.00000   0.00003   1.82293
    R3        2.91869  -0.00006   0.00013  -0.00021  -0.00008   2.91862
    R4        2.87769   0.00002  -0.00022   0.00016  -0.00006   2.87763
    R5        2.85947   0.00011  -0.00023   0.00039   0.00015   2.85962
    R6        2.90411   0.00003  -0.00028   0.00024  -0.00004   2.90407
    R7        2.07205  -0.00001   0.00008  -0.00007   0.00001   2.07206
    R8        2.06691  -0.00002   0.00007  -0.00009  -0.00002   2.06689
    R9        2.83743  -0.00008   0.00004  -0.00033  -0.00029   2.83714
   R10        2.05947   0.00006  -0.00016   0.00029   0.00013   2.05960
   R11        2.06981   0.00001   0.00011  -0.00001   0.00010   2.06991
   R12        2.06066  -0.00001   0.00006  -0.00007  -0.00001   2.06065
   R13        2.05941  -0.00003   0.00014  -0.00014   0.00000   2.05941
   R14        2.05825   0.00001   0.00004  -0.00002   0.00002   2.05827
   R15        2.50586  -0.00008   0.00016  -0.00021  -0.00006   2.50580
   R16        2.05864   0.00002  -0.00001   0.00004   0.00003   2.05867
   R17        2.52443  -0.00014   0.00028  -0.00050  -0.00021   2.52422
   R18        2.05695  -0.00003   0.00015  -0.00012   0.00003   2.05698
   R19        2.84527   0.00013  -0.00044   0.00060   0.00016   2.84544
   R20        2.84372  -0.00018   0.00052  -0.00076  -0.00024   2.84348
   R21        2.06918   0.00004  -0.00008   0.00012   0.00004   2.06922
   R22        2.06913   0.00005  -0.00004   0.00013   0.00009   2.06921
   R23        2.06019  -0.00004   0.00013  -0.00017  -0.00003   2.06016
   R24        2.06881   0.00003   0.00009   0.00002   0.00010   2.06891
   R25        2.05563   0.00005  -0.00016   0.00024   0.00008   2.05571
   R26        2.06909  -0.00004  -0.00008  -0.00001  -0.00009   2.06900
   R27        2.04615   0.00001   0.00001  -0.00000   0.00001   2.04616
   R28        2.04574   0.00002  -0.00005   0.00007   0.00002   2.04576
    A1        1.89554   0.00001  -0.00014   0.00013  -0.00001   1.89553
    A2        1.88365  -0.00000   0.00043  -0.00024   0.00019   1.88384
    A3        1.82200  -0.00000  -0.00007   0.00009   0.00001   1.82201
    A4        1.88421  -0.00000   0.00007  -0.00013  -0.00006   1.88415
    A5        1.95834   0.00000  -0.00048   0.00036  -0.00012   1.95822
    A6        1.92319  -0.00001   0.00009  -0.00017  -0.00008   1.92311
    A7        1.98559   0.00002   0.00000   0.00007   0.00008   1.98567
    A8        2.03333  -0.00007   0.00009  -0.00030  -0.00022   2.03311
    A9        1.88432   0.00002  -0.00011   0.00017   0.00006   1.88439
   A10        1.86963   0.00003   0.00011   0.00000   0.00011   1.86974
   A11        1.89387   0.00002   0.00009  -0.00000   0.00009   1.89396
   A12        1.91818   0.00001   0.00013  -0.00018  -0.00006   1.91812
   A13        1.85657   0.00000  -0.00035   0.00038   0.00003   1.85660
   A14        1.95370   0.00003  -0.00014   0.00021   0.00007   1.95377
   A15        1.91342  -0.00001   0.00052  -0.00030   0.00023   1.91365
   A16        1.89962   0.00000   0.00018  -0.00004   0.00014   1.89976
   A17        1.94471  -0.00002   0.00039  -0.00043  -0.00004   1.94467
   A18        1.89370  -0.00001  -0.00046   0.00024  -0.00023   1.89347
   A19        1.85545   0.00001  -0.00053   0.00034  -0.00019   1.85527
   A20        1.90963  -0.00001  -0.00000  -0.00004  -0.00004   1.90959
   A21        1.92074  -0.00002   0.00034  -0.00018   0.00017   1.92091
   A22        1.95263  -0.00004  -0.00004  -0.00019  -0.00023   1.95239
   A23        1.88789   0.00002  -0.00044   0.00028  -0.00016   1.88773
   A24        1.89428   0.00002   0.00015   0.00006   0.00021   1.89449
   A25        1.89736   0.00003  -0.00003   0.00010   0.00007   1.89742
   A26        2.23370   0.00002  -0.00011   0.00001  -0.00010   2.23360
   A27        1.98223  -0.00007   0.00045  -0.00045  -0.00001   1.98222
   A28        2.06725   0.00005  -0.00034   0.00044   0.00010   2.06735
   A29        2.24643  -0.00020   0.00130  -0.00142  -0.00012   2.24631
   A30        1.99545   0.00011  -0.00094   0.00092  -0.00002   1.99543
   A31        2.04127   0.00008  -0.00035   0.00050   0.00015   2.04141
   A32        2.10861  -0.00006   0.00013  -0.00013  -0.00000   2.10861
   A33        2.18044  -0.00005   0.00040  -0.00056  -0.00015   2.18028
   A34        1.99414   0.00011  -0.00054   0.00069   0.00015   1.99429
   A35        1.93717   0.00004  -0.00004   0.00023   0.00019   1.93735
   A36        1.93673   0.00003  -0.00024   0.00010  -0.00014   1.93659
   A37        1.95184   0.00000  -0.00000   0.00016   0.00016   1.95200
   A38        1.85865  -0.00007   0.00048  -0.00067  -0.00019   1.85846
   A39        1.88816  -0.00000   0.00002   0.00008   0.00010   1.88827
   A40        1.88784  -0.00001  -0.00019   0.00005  -0.00014   1.88770
   A41        1.92867  -0.00001   0.00021  -0.00016   0.00005   1.92872
   A42        1.97967  -0.00006   0.00039  -0.00046  -0.00006   1.97961
   A43        1.92759  -0.00004  -0.00040   0.00002  -0.00039   1.92720
   A44        1.88332   0.00003  -0.00011   0.00011  -0.00000   1.88332
   A45        1.85609   0.00001   0.00013  -0.00002   0.00011   1.85620
   A46        1.88356   0.00007  -0.00024   0.00056   0.00031   1.88387
   A47        2.11251   0.00006  -0.00038   0.00050   0.00012   2.11263
   A48        2.13752  -0.00001  -0.00001  -0.00006  -0.00007   2.13745
   A49        2.03315  -0.00005   0.00039  -0.00044  -0.00005   2.03310
    D1        1.00041  -0.00000  -0.00051   0.00050  -0.00000   1.00040
    D2        3.08682  -0.00000  -0.00089   0.00085  -0.00005   3.08677
    D3       -1.07809   0.00002  -0.00089   0.00091   0.00002  -1.07807
    D4        3.09254  -0.00000   0.00113  -0.00068   0.00045   3.09300
    D5       -1.05581  -0.00001   0.00122  -0.00075   0.00047  -1.05534
    D6        0.93741   0.00001   0.00081  -0.00023   0.00059   0.93799
    D7        1.09467  -0.00000   0.00123  -0.00084   0.00039   1.09506
    D8       -3.05368  -0.00001   0.00132  -0.00091   0.00041  -3.05328
    D9       -1.06046   0.00001   0.00091  -0.00039   0.00052  -1.05994
   D10       -1.13710  -0.00002   0.00152  -0.00107   0.00045  -1.13665
   D11        0.99773  -0.00003   0.00161  -0.00115   0.00046   0.99819
   D12        2.99095  -0.00000   0.00120  -0.00062   0.00058   2.99153
   D13       -1.07294   0.00000  -0.00001  -0.00032  -0.00034  -1.07327
   D14        0.99915   0.00001  -0.00035  -0.00012  -0.00046   0.99868
   D15        3.11041   0.00001  -0.00018  -0.00025  -0.00042   3.10999
   D16        0.96232  -0.00000   0.00022  -0.00038  -0.00016   0.96216
   D17        3.03441   0.00001  -0.00012  -0.00017  -0.00029   3.03412
   D18       -1.13752   0.00000   0.00005  -0.00030  -0.00025  -1.13776
   D19       -3.12263  -0.00000  -0.00005  -0.00026  -0.00031  -3.12294
   D20       -1.05054   0.00001  -0.00039  -0.00005  -0.00044  -1.05098
   D21        1.06072   0.00000  -0.00022  -0.00018  -0.00040   1.06032
   D22       -2.14107   0.00001   0.00677  -0.00036   0.00641  -2.13465
   D23        0.99579   0.00000   0.00609  -0.00071   0.00538   1.00118
   D24        2.08893   0.00003   0.00616   0.00011   0.00627   2.09519
   D25       -1.05740   0.00002   0.00548  -0.00025   0.00523  -1.05216
   D26       -0.12775   0.00002   0.00673  -0.00029   0.00644  -0.12131
   D27        3.00912   0.00001   0.00605  -0.00064   0.00540   3.01452
   D28       -3.13793  -0.00001   0.00235  -0.00170   0.00065  -3.13727
   D29        0.97797   0.00000   0.00156  -0.00107   0.00049   0.97846
   D30       -1.04481   0.00000   0.00180  -0.00130   0.00050  -1.04430
   D31        1.01543   0.00000   0.00236  -0.00171   0.00065   1.01608
   D32       -1.15186   0.00001   0.00157  -0.00109   0.00048  -1.15137
   D33        3.10855   0.00001   0.00181  -0.00131   0.00050   3.10906
   D34       -1.00806  -0.00002   0.00267  -0.00207   0.00060  -1.00746
   D35        3.10783  -0.00000   0.00187  -0.00144   0.00043   3.10827
   D36        1.08506  -0.00001   0.00211  -0.00166   0.00045   1.08551
   D37       -2.04886  -0.00000  -0.00869  -0.00018  -0.00886  -2.05772
   D38        1.08277   0.00000  -0.00788  -0.00010  -0.00799   1.07478
   D39        0.10085  -0.00001  -0.00781  -0.00073  -0.00854   0.09231
   D40       -3.05071  -0.00001  -0.00701  -0.00065  -0.00766  -3.05837
   D41        2.13774  -0.00002  -0.00851  -0.00041  -0.00893   2.12881
   D42       -1.01382  -0.00002  -0.00771  -0.00034  -0.00805  -1.02187
   D43        3.12984  -0.00002  -0.00085  -0.00049  -0.00135   3.12849
   D44       -0.00712  -0.00002  -0.00133  -0.00007  -0.00140  -0.00852
   D45       -0.00682  -0.00001  -0.00016  -0.00012  -0.00028  -0.00709
   D46        3.13940  -0.00001  -0.00063   0.00030  -0.00033   3.13908
   D47        3.13791  -0.00000   0.00139  -0.00061   0.00078   3.13868
   D48       -0.00557  -0.00002   0.00081  -0.00165  -0.00084  -0.00641
   D49        0.00650  -0.00000   0.00057  -0.00069  -0.00012   0.00638
   D50       -3.13698  -0.00002  -0.00000  -0.00173  -0.00173  -3.13871
   D51       -2.11420  -0.00003  -0.00203  -0.00010  -0.00212  -2.11632
   D52        2.10588   0.00001  -0.00244   0.00052  -0.00192   2.10396
   D53       -0.00380  -0.00000  -0.00203   0.00028  -0.00175  -0.00556
   D54        1.02909  -0.00002  -0.00151   0.00084  -0.00067   1.02842
   D55       -1.03402   0.00002  -0.00193   0.00146  -0.00047  -1.03449
   D56        3.13949   0.00001  -0.00151   0.00121  -0.00030   3.13918
   D57       -2.11148   0.00004   0.00401   0.00297   0.00698  -2.10451
   D58        0.00592   0.00003   0.00430   0.00266   0.00696   0.01288
   D59        2.12284   0.00005   0.00396   0.00308   0.00704   2.12988
   D60        1.02833   0.00002   0.00347   0.00198   0.00545   1.03379
   D61       -3.13745   0.00001   0.00376   0.00168   0.00544  -3.13201
   D62       -1.02053   0.00004   0.00343   0.00209   0.00552  -1.01501
         Item               Value     Threshold  Converged?
 Maximum Force            0.000198     0.000450     YES
 RMS     Force            0.000043     0.000300     YES
 Maximum Displacement     0.029248     0.001800     NO 
 RMS     Displacement     0.006575     0.001200     NO 
 Predicted change in Energy=-1.203916D-06
 Lowest energy point so far.  Saving SCF results.
 GradGradGradGradGradGradGradGradGradGradGradGradGradGradGradGradGradGrad

 Leave Link  103 at Sat May  4 10:44:18 2024, MaxMem= 13421772800 cpu:               2.8 elap:               0.1
 (Enter /tmpu/scunam/7/gaussian-2016.03/g1/g16/l202.exe)
                          Input orientation:                          
 ---------------------------------------------------------------------
 Center     Atomic      Atomic             Coordinates (Angstroms)
 Number     Number       Type             X           Y           Z
 ---------------------------------------------------------------------
      1          8           0        2.727704   -1.313165   -1.180702
      2          6           0        1.988917   -0.546107   -0.203173
      3          6           0        0.488628   -0.865884   -0.382751
      4          6           0       -0.477700   -0.199824    0.609333
      5          6           0        2.523298   -1.028223    1.138786
      6          6           0        2.245750    0.921031   -0.470494
      7          6           0       -1.904953   -0.584297    0.346304
      8          6           0       -2.931611    0.198994    0.004711
      9          6           0       -4.302548   -0.381188   -0.221509
     10          6           0       -2.852239    1.689739   -0.183753
     11          6           0        2.749296    1.825458    0.358217
     12          1           0        0.199883   -0.573880   -1.399433
     13          1           0        0.382785   -1.953337   -0.332458
     14          1           0       -0.344920    0.881558    0.580219
     15          1           0       -0.214705   -0.514599    1.624981
     16          1           0        2.317580   -2.093378    1.249276
     17          1           0        3.602543   -0.884175    1.184937
     18          1           0        2.064055   -0.498397    1.972281
     19          1           0        1.976273    1.233879   -1.478610
     20          1           0       -2.107991   -1.649153    0.444805
     21          1           0        2.399287   -1.089351   -2.059680
     22          1           0       -4.656589   -0.167764   -1.235458
     23          1           0       -5.033391    0.062531    0.462568
     24          1           0       -4.314539   -1.461723   -0.077246
     25          1           0       -3.533932    2.200154    0.504289
     26          1           0       -1.854251    2.092995   -0.026322
     27          1           0       -3.171423    1.964557   -1.194362
     28          1           0        2.897299    2.850676    0.042888
     29          1           0        3.036895    1.586472    1.374154
 ---------------------------------------------------------------------
                    Distance matrix (angstroms):
                    1          2          3          4          5
     1  O    0.000000
     2  C    1.445596   0.000000
     3  C    2.418728   1.544465   0.000000
     4  C    3.836453   2.619977   1.536768   0.000000
     5  C    2.345847   1.522778   2.545841   3.157935   0.000000
     6  C    2.393388   1.513247   2.507636   3.136801   2.542913
     7  C    4.931989   3.932634   2.517945   1.501351   4.520454
     8  C    5.976594   4.980962   3.603072   2.558574   5.705104
     9  C    7.156331   6.293653   4.818329   3.918246   6.990080
    10  C    6.414601   5.332558   4.210962   3.136538   6.167076
    11  C    3.495668   2.552970   3.592071   3.818158   2.967130
    12  H    2.642776   2.152313   1.096486   2.152714   3.470913
    13  H    2.574487   2.139316   1.093749   2.168458   2.757207
    14  H    4.166374   2.845826   2.162329   1.089893   3.490836
    15  H    4.143349   2.863406   2.156170   1.095350   2.827871
    16  H    2.584903   2.147481   2.741408   3.436373   1.090450
    17  H    2.558443   2.155210   3.486323   4.177085   1.089794
    18  H    3.323490   2.177274   2.857130   2.899532   1.089190
    19  H    2.672234   2.189806   2.796963   3.526613   3.502443
    20  H    5.112642   4.291998   2.835629   2.187573   4.723981
    21  H    0.964651   1.977406   2.551988   4.023921   3.201452
    22  H    7.472799   6.735838   5.261914   4.568085   7.611058
    23  H    8.051551   7.080004   5.662968   4.565598   7.664891
    24  H    7.129718   6.370854   4.849616   4.096965   6.958640
    25  H    7.375005   6.208407   5.135019   3.887350   6.893115
    26  H    5.824846   4.665413   3.790922   2.748812   5.501128
    27  H    6.748581   5.823658   4.697455   3.897949   6.843256
    28  H    4.343214   3.524746   4.449234   4.584433   4.048052
    29  H    3.876956   2.852037   3.948979   4.015991   2.675035
                    6          7          8          9         10
     6  C    0.000000
     7  C    4.490157   0.000000
     8  C    5.249021   1.335761   0.000000
     9  C    6.681165   2.472271   1.505741   0.000000
    10  C    5.163587   2.519831   1.504705   2.528548   0.000000
    11  C    1.326013   5.241097   5.919717   7.411738   5.629329
    12  H    2.698751   2.734601   3.517841   4.657952   3.989649
    13  H    3.428073   2.751133   3.966286   4.943309   4.874371
    14  H    2.795913   2.153405   2.736434   4.230852   2.742892
    15  H    3.536367   2.120569   3.242849   4.487514   3.884226
    16  H    3.471228   4.574109   5.861562   6.994347   6.564493
    17  H    2.800019   5.579045   6.727656   8.044970   7.082553
    18  H    2.831067   4.290012   5.414273   6.734989   5.797100
    19  H    1.089399   4.658326   5.230540   6.603964   5.019860
    20  H    5.137965   1.088506   2.070671   2.620646   3.478101
    21  H    2.567239   4.956846   5.860035   6.985339   6.230648
    22  H    7.029433   3.201089   2.155941   1.094983   2.795010
    23  H    7.388743   3.196721   2.155397   1.094979   2.796955
    24  H    6.990677   2.599111   2.162681   1.090189   3.475827
    25  H    5.999258   3.229814   2.148723   2.789423   1.094820
    26  H    4.287284   2.703574   2.179198   3.486235   1.087833
    27  H    5.564054   3.236395   2.147673   2.780001   1.094867
    28  H    2.100383   5.912083   6.403832   7.896368   5.869951
    29  H    2.114581   5.494596   6.278816   7.764358   6.092589
                   11         12         13         14         15
    11  C    0.000000
    12  H    3.917354   0.000000
    13  H    4.511840   1.753508   0.000000
    14  H    3.242592   2.516770   3.065806   0.000000
    15  H    3.983197   3.053273   2.501705   1.748639   0.000000
    16  H    4.041984   3.716069   2.502983   4.048060   3.007684
    17  H    2.958649   4.284081   3.716509   4.366459   3.860260
    18  H    2.911196   3.853477   3.202396   3.105684   2.305130
    19  H    2.078813   2.535710   3.743157   3.122634   4.182086
    20  H    5.972743   3.143837   2.626905   3.087273   2.502911
    21  H    3.803267   2.353511   2.792141   4.287682   4.554121
    22  H    7.833254   4.876181   5.422082   4.794607   5.294596
    23  H    7.980540   5.590995   5.833588   4.760925   4.990393
    24  H    7.803394   4.787113   4.729870   4.656298   4.539082
    25  H    6.296086   5.026012   5.769949   3.451704   4.432054
    26  H    4.627320   3.635536   4.633665   2.028189   3.494919
    27  H    6.122480   4.225094   5.359586   3.508724   4.778817
    28  H    1.082779   4.591723   5.435274   3.831205   4.848985
    29  H    1.082569   4.517582   4.742054   3.544561   3.879474
                   16         17         18         19         20
    16  H    0.000000
    17  H    1.765627   0.000000
    18  H    1.769457   1.770786   0.000000
    19  H    4.316074   3.771657   3.862271   0.000000
    20  H    4.519977   5.808889   4.589487   5.356549   0.000000
    21  H    3.458892   3.466621   4.088804   2.431868   5.186655
    22  H    7.649897   8.636250   7.454258   6.783701   3.393103
    23  H    7.700884   8.717650   7.277884   7.367199   3.389415
    24  H    6.792912   8.037839   6.768679   6.986016   2.275197
    25  H    7.295863   7.804207   6.385502   5.935313   4.105363
    26  H    6.046242   6.333032   5.105178   4.185706   3.780213
    27  H    7.250335   7.724180   6.595756   5.207059   4.108120
    28  H    5.122022   3.968722   3.953877   2.403596   6.742620
    29  H    3.751574   2.541625   2.377152   3.063904   6.148400
                   21         22         23         24         25
    21  H    0.000000
    22  H    7.163383   0.000000
    23  H    7.933049   1.754511   0.000000
    24  H    7.010291   1.769966   1.769603   0.000000
    25  H    7.252439   3.145491   2.611427   3.789047   0.000000
    26  H    5.688098   3.798176   3.803778   4.323382   1.764755
    27  H    6.411548   2.598885   3.135290   3.780748   1.752807
    28  H    4.493619   8.234462   8.416990   8.403679   6.480494
    29  H    4.399749   8.311265   8.263347   8.089601   6.656504
                   26         27         28         29
    26  H    0.000000
    27  H    1.765150   0.000000
    28  H    4.812078   6.256627   0.000000
    29  H    5.112848   6.729297   1.841187   0.000000
 Stoichiometry    C10H18O
 Framework group  C1[X(C10H18O)]
 Deg. of freedom    81
 Full point group                 C1      NOp   1
 RotChk:  IX=2 Diff= 1.92D-03
 Largest Abelian subgroup         C1      NOp   1
 Largest concise Abelian subgroup C1      NOp   1
                         Standard orientation:                         
 ---------------------------------------------------------------------
 Center     Atomic      Atomic             Coordinates (Angstroms)
 Number     Number       Type             X           Y           Z
 ---------------------------------------------------------------------
      1          8           0       -2.795067   -1.170262    1.102959
      2          6           0       -2.010857   -0.397462    0.166186
      3          6           0       -0.534284   -0.824982    0.315628
      4          6           0        0.470255   -0.166873   -0.643251
      5          6           0       -2.580756   -0.764106   -1.197499
      6          6           0       -2.169381    1.065206    0.520287
      7          6           0        1.869988   -0.658928   -0.413718
      8          6           0        2.947313    0.033953   -0.034848
      9          6           0        4.277810   -0.647202    0.146980
     10          6           0        2.967133    1.513104    0.240575
     11          6           0       -2.615187    2.047676   -0.250634
     12          1           0       -0.223208   -0.612556    1.345379
     13          1           0       -0.500585   -1.912227    0.201391
     14          1           0        0.409201    0.917332   -0.550309
     15          1           0        0.183374   -0.403732   -1.673488
     16          1           0       -2.446149   -1.832171   -1.371280
     17          1           0       -3.648311   -0.547078   -1.227115
     18          1           0       -2.090603   -0.217700   -2.002189
     19          1           0       -1.876187    1.300162    1.542844
     20          1           0        2.001985   -1.727221   -0.575493
     21          1           0       -2.449405   -1.020306    1.990981
     22          1           0        4.648847   -0.517178    1.168945
     23          1           0        5.033834   -0.213140   -0.515588
     24          1           0        4.217977   -1.715896   -0.059960
     25          1           0        3.678500    2.017062   -0.421705
     26          1           0        1.997351    1.989515    0.114337
     27          1           0        3.307426    1.706769    1.263037
     28          1           0       -2.694093    3.060184    0.124879
     29          1           0       -2.921620    1.887944   -1.276568
 ---------------------------------------------------------------------
 Rotational constants (GHZ):           1.9653108           0.4630484           0.4211287
 Leave Link  202 at Sat May  4 10:44:18 2024, MaxMem= 13421772800 cpu:               2.7 elap:               0.1
 (Enter /tmpu/scunam/7/gaussian-2016.03/g1/g16/l301.exe)
 Standard basis: def2TZVP (5D, 7F)
 Ernie: Thresh=  0.10000D-02 Tol=  0.10000D-05 Strict=F.
 There are   504 symmetry adapted cartesian basis functions of A   symmetry.
 There are   449 symmetry adapted basis functions of A   symmetry.
   449 basis functions,   705 primitive gaussians,   504 cartesian basis functions
    43 alpha electrons       43 beta electrons
       nuclear repulsion energy       617.4507304765 Hartrees.
 IExCor=  402 DFT=T Ex+Corr=B3LYP ExCW=0 ScaHFX=  0.200000
 ScaDFX=  0.800000  0.720000  1.000000  0.810000 ScalE2=  1.000000  1.000000
 IRadAn=      5 IRanWt=     -1 IRanGd=            0 ICorTp=0 IEmpDi=  4
 NAtoms=   29 NActive=   29 NUniq=   29 SFac= 1.00D+00 NAtFMM=   60 NAOKFM=F Big=F
 Integral buffers will be    131072 words long.
 Raffenetti 2 integral format.
 Two-electron integral symmetry is turned on.
 Leave Link  301 at Sat May  4 10:44:18 2024, MaxMem= 13421772800 cpu:               1.6 elap:               0.1
 (Enter /tmpu/scunam/7/gaussian-2016.03/g1/g16/l302.exe)
 NPDir=0 NMtPBC=     1 NCelOv=     1 NCel=       1 NClECP=     1 NCelD=      1
         NCelK=      1 NCelE2=     1 NClLst=     1 CellRange=     0.0.
 One-electron integrals computed using PRISM.
 One-electron integral symmetry used in STVInt
   1 Symmetry operations used in ECPInt.
 ECPInt:  NShTT=   18721 NPrTT=   54252 LenC2=   17412 LenP2D=   38536.
 LDataN:  DoStor=T MaxTD1= 6 Len=  172
 NBasis=   449 RedAO= T EigKep=  6.63D-05  NBF=   449
 NBsUse=   449 1.00D-06 EigRej= -1.00D+00 NBFU=   449
 Precomputing XC quadrature grid using
 IXCGrd= 4 IRadAn=           5 IRanWt=          -1 IRanGd=           0 AccXCQ= 0.00D+00.
 Generated NRdTot=       0 NPtTot=           0 NUsed=           0 NTot=          32
 NSgBfM=   501   501   501   501   501 MxSgAt=    29 MxSgA2=    29.
 Leave Link  302 at Sat May  4 10:44:19 2024, MaxMem= 13421772800 cpu:              16.5 elap:               0.5
 (Enter /tmpu/scunam/7/gaussian-2016.03/g1/g16/l303.exe)
 DipDrv:  MaxL=1.
 Leave Link  303 at Sat May  4 10:44:19 2024, MaxMem= 13421772800 cpu:               3.0 elap:               0.1
 (Enter /tmpu/scunam/7/gaussian-2016.03/g1/g16/l401.exe)
 Initial guess from the checkpoint file:  "linalool.chk"
 B after Tr=    -0.000000   -0.000000    0.000000
         Rot=    1.000000   -0.000868    0.000068    0.000005 Ang=  -0.10 deg.
 Guess basis will be translated and rotated to current coordinates.
 JPrj=2 DoOrth=T DoCkMO=T.
 Generating alternative initial guess.
 ExpMin= 9.52D-02 ExpMax= 2.70D+04 ExpMxC= 9.22D+02 IAcc=2 IRadAn=         4 AccDes= 0.00D+00
 Harris functional with IExCor=  402 and IRadAn=       4 diagonalized for initial guess.
 HarFok:  IExCor=  402 AccDes= 0.00D+00 IRadAn=         4 IDoV= 1 UseB2=F ITyADJ=14
 ICtDFT=  3500011 ScaDFX=  1.000000  1.000000  1.000000  1.000000
 FoFCou: FMM=F IPFlag=           0 FMFlag=      100000 FMFlg1=           0
         NFxFlg=           0 DoJE=T BraDBF=F KetDBF=T FulRan=T
         wScrn=  0.000000 ICntrl=       500 IOpCl=  0 I1Cent=   200000004 NGrid=           0
         NMat0=    1 NMatS0=      1 NMatT0=    0 NMatD0=    1 NMtDS0=    0 NMtDT0=    0
 Petite list used in FoFCou.
 Harris En= -467.406755299749    
 Leave Link  401 at Sat May  4 10:44:20 2024, MaxMem= 13421772800 cpu:              40.0 elap:               1.3
 (Enter /tmpu/scunam/7/gaussian-2016.03/g1/g16/l502.exe)
 Integral symmetry usage will be decided dynamically.
 Closed shell SCF:
 Using DIIS extrapolation, IDIIS=  1040.
 NGot= 13421772800 LenX= 13421243903 LenY= 13420989383
 Requested convergence on RMS density matrix=1.00D-08 within 128 cycles.
 Requested convergence on MAX density matrix=1.00D-06.
 Requested convergence on             energy=1.00D-06.
 No special actions if energy rises.
 Fock matrices will be formed incrementally for  20 cycles.
 Integral accuracy reduced to 1.0D-05 until final iterations.

 Cycle   1  Pass 0  IDiag  1:
 FoFJK:  IHMeth= 1 ICntrl=       0 DoSepK=F KAlg= 0 I1Cent=           0 FoldK=F
 IRaf= 880000000 NMat=       1 IRICut=       1 DoRegI=T DoRafI=F ISym2E= 0 IDoP0=0 IntGTp=1.
 FoFCou: FMM=F IPFlag=           0 FMFlag=      100000 FMFlg1=           0
         NFxFlg=           0 DoJE=F BraDBF=F KetDBF=F FulRan=T
         wScrn=  0.000000 ICntrl=         0 IOpCl=  0 I1Cent=           0 NGrid=           0
         NMat0=    1 NMatS0=      1 NMatT0=    0 NMatD0=    1 NMtDS0=    0 NMtDT0=    0
 Symmetry not used in FoFCou.
 E= -467.273673662754    
 DIIS: error= 2.93D-04 at cycle   1 NSaved=   1.
 NSaved= 1 IEnMin= 1 EnMin= -467.273673662754     IErMin= 1 ErrMin= 2.93D-04
 ErrMax= 2.93D-04  0.00D+00 EMaxC= 1.00D-01 BMatC= 5.70D-05 BMatP= 5.70D-05
 IDIUse=3 WtCom= 9.97D-01 WtEn= 2.93D-03
 Coeff-Com:  0.100D+01
 Coeff-En:   0.100D+01
 Coeff:      0.100D+01
 Gap=     0.629 Goal=   None    Shift=    0.000
 RMSDP=1.21D-04 MaxDP=4.69D-03              OVMax= 1.89D-03

 Cycle   2  Pass 0  IDiag  1:
 RMSU=  1.21D-04    CP:  1.00D+00
 E= -467.273746815876     Delta-E=       -0.000073153122 Rises=F Damp=F
 DIIS: error= 4.39D-05 at cycle   2 NSaved=   2.
 NSaved= 2 IEnMin= 2 EnMin= -467.273746815876     IErMin= 2 ErrMin= 4.39D-05
 ErrMax= 4.39D-05  0.00D+00 EMaxC= 1.00D-01 BMatC= 5.13D-07 BMatP= 5.70D-05
 IDIUse=1 WtCom= 1.00D+00 WtEn= 0.00D+00
 Coeff-Com: -0.487D-01 0.105D+01
 Coeff:     -0.487D-01 0.105D+01
 Gap=     0.234 Goal=   None    Shift=    0.000
 RMSDP=8.17D-06 MaxDP=3.18D-04 DE=-7.32D-05 OVMax= 2.74D-04

 Initial convergence to 1.0D-05 achieved.  Increase integral accuracy.
 Cycle   3  Pass 1  IDiag  1:
 E= -467.273759091905     Delta-E=       -0.000012276029 Rises=F Damp=F
 DIIS: error= 1.91D-04 at cycle   1 NSaved=   1.
 NSaved= 1 IEnMin= 1 EnMin= -467.273759091905     IErMin= 1 ErrMin= 1.91D-04
 ErrMax= 1.91D-04  0.00D+00 EMaxC= 1.00D-01 BMatC= 6.19D-06 BMatP= 6.19D-06
 IDIUse=3 WtCom= 9.98D-01 WtEn= 1.91D-03
 Coeff-Com:  0.100D+01
 Coeff-En:   0.100D+01
 Coeff:      0.100D+01
 Gap=     0.234 Goal=   None    Shift=    0.000
 RMSDP=8.17D-06 MaxDP=3.18D-04 DE=-1.23D-05 OVMax= 5.52D-04

 Cycle   4  Pass 1  IDiag  1:
 RMSU=  1.22D-04    CP:  1.00D+00
 E= -467.273761769977     Delta-E=       -0.000002678072 Rises=F Damp=F
 DIIS: error= 4.29D-05 at cycle   2 NSaved=   2.
 NSaved= 2 IEnMin= 2 EnMin= -467.273761769977     IErMin= 2 ErrMin= 4.29D-05
 ErrMax= 4.29D-05  0.00D+00 EMaxC= 1.00D-01 BMatC= 1.43D-06 BMatP= 6.19D-06
 IDIUse=1 WtCom= 1.00D+00 WtEn= 0.00D+00
 Coeff-Com:  0.239D+00 0.761D+00
 Coeff:      0.239D+00 0.761D+00
 Gap=     0.234 Goal=   None    Shift=    0.000
 RMSDP=5.08D-06 MaxDP=2.17D-04 DE=-2.68D-06 OVMax= 5.95D-04

 Cycle   5  Pass 1  IDiag  1:
 RMSU=  4.90D-06    CP:  1.00D+00  1.01D+00
 E= -467.273761388539     Delta-E=        0.000000381437 Rises=F Damp=F
 DIIS: error= 5.32D-05 at cycle   3 NSaved=   3.
 NSaved= 3 IEnMin= 2 EnMin= -467.273761769977     IErMin= 2 ErrMin= 4.29D-05
 ErrMax= 5.32D-05  0.00D+00 EMaxC= 1.00D-01 BMatC= 1.90D-06 BMatP= 1.43D-06
 IDIUse=1 WtCom= 1.00D+00 WtEn= 0.00D+00
 Coeff-Com: -0.176D-02 0.536D+00 0.466D+00
 Coeff:     -0.176D-02 0.536D+00 0.466D+00
 Gap=     0.234 Goal=   None    Shift=    0.000
 RMSDP=2.58D-06 MaxDP=1.13D-04 DE= 3.81D-07 OVMax= 3.63D-04

 Cycle   6  Pass 1  IDiag  1:
 RMSU=  5.96D-07    CP:  1.00D+00  1.01D+00  4.99D-01
 E= -467.273762890941     Delta-E=       -0.000001502402 Rises=F Damp=F
 DIIS: error= 2.81D-06 at cycle   4 NSaved=   4.
 NSaved= 4 IEnMin= 4 EnMin= -467.273762890941     IErMin= 4 ErrMin= 2.81D-06
 ErrMax= 2.81D-06  0.00D+00 EMaxC= 1.00D-01 BMatC= 9.41D-09 BMatP= 1.43D-06
 IDIUse=1 WtCom= 1.00D+00 WtEn= 0.00D+00
 Coeff-Com: -0.233D-02 0.308D+00 0.270D+00 0.424D+00
 Coeff:     -0.233D-02 0.308D+00 0.270D+00 0.424D+00
 Gap=     0.234 Goal=   None    Shift=    0.000
 RMSDP=2.06D-07 MaxDP=9.95D-06 DE=-1.50D-06 OVMax= 4.16D-05

 Cycle   7  Pass 1  IDiag  1:
 RMSU=  1.81D-07    CP:  1.00D+00  1.01D+00  4.91D-01  8.54D-01
 E= -467.273762899776     Delta-E=       -0.000000008835 Rises=F Damp=F
 DIIS: error= 6.14D-07 at cycle   5 NSaved=   5.
 NSaved= 5 IEnMin= 5 EnMin= -467.273762899776     IErMin= 5 ErrMin= 6.14D-07
 ErrMax= 6.14D-07  0.00D+00 EMaxC= 1.00D-01 BMatC= 3.65D-10 BMatP= 9.41D-09
 IDIUse=1 WtCom= 1.00D+00 WtEn= 0.00D+00
 Coeff-Com: -0.118D-02 0.139D+00 0.122D+00 0.234D+00 0.506D+00
 Coeff:     -0.118D-02 0.139D+00 0.122D+00 0.234D+00 0.506D+00
 Gap=     0.234 Goal=   None    Shift=    0.000
 RMSDP=5.59D-08 MaxDP=3.65D-06 DE=-8.83D-09 OVMax= 8.37D-06

 Cycle   8  Pass 1  IDiag  1:
 RMSU=  5.11D-08    CP:  1.00D+00  1.01D+00  4.91D-01  8.65D-01  8.90D-01
 E= -467.273762900109     Delta-E=       -0.000000000332 Rises=F Damp=F
 DIIS: error= 1.23D-07 at cycle   6 NSaved=   6.
 NSaved= 6 IEnMin= 6 EnMin= -467.273762900109     IErMin= 6 ErrMin= 1.23D-07
 ErrMax= 1.23D-07  0.00D+00 EMaxC= 1.00D-01 BMatC= 2.16D-11 BMatP= 3.65D-10
 IDIUse=1 WtCom= 1.00D+00 WtEn= 0.00D+00
 Coeff-Com: -0.406D-03 0.452D-01 0.396D-01 0.838D-01 0.257D+00 0.575D+00
 Coeff:     -0.406D-03 0.452D-01 0.396D-01 0.838D-01 0.257D+00 0.575D+00
 Gap=     0.234 Goal=   None    Shift=    0.000
 RMSDP=1.18D-08 MaxDP=5.32D-07 DE=-3.32D-10 OVMax= 1.63D-06

 Cycle   9  Pass 1  IDiag  1:
 RMSU=  9.96D-09    CP:  1.00D+00  1.01D+00  4.90D-01  8.69D-01  9.12D-01
                    CP:  9.38D-01
 E= -467.273762900126     Delta-E=       -0.000000000017 Rises=F Damp=F
 DIIS: error= 5.22D-08 at cycle   7 NSaved=   7.
 NSaved= 7 IEnMin= 7 EnMin= -467.273762900126     IErMin= 7 ErrMin= 5.22D-08
 ErrMax= 5.22D-08  0.00D+00 EMaxC= 1.00D-01 BMatC= 1.01D-12 BMatP= 2.16D-11
 IDIUse=1 WtCom= 1.00D+00 WtEn= 0.00D+00
 Coeff-Com: -0.958D-05 0.210D-03 0.168D-03 0.333D-02 0.343D-01 0.207D+00
 Coeff-Com:  0.755D+00
 Coeff:     -0.958D-05 0.210D-03 0.168D-03 0.333D-02 0.343D-01 0.207D+00
 Coeff:      0.755D+00
 Gap=     0.234 Goal=   None    Shift=    0.000
 RMSDP=5.18D-09 MaxDP=3.11D-07 DE=-1.73D-11 OVMax= 5.97D-07

 SCF Done:  E(RB3LYP) =  -467.273762900     A.U. after    9 cycles
            NFock=  9  Conv=0.52D-08     -V/T= 2.0054
 KE= 4.647653255606D+02 PE=-2.320176719684D+03 EE= 7.706869007468D+02
 Leave Link  502 at Sat May  4 10:45:03 2024, MaxMem= 13421772800 cpu:            1375.9 elap:              43.1
 (Enter /tmpu/scunam/7/gaussian-2016.03/g1/g16/l508.exe)
 QCSCF skips out because SCF is already converged.
 Leave Link  508 at Sat May  4 10:45:03 2024, MaxMem= 13421772800 cpu:               0.1 elap:               0.0
 (Enter /tmpu/scunam/7/gaussian-2016.03/g1/g16/l701.exe)
 ... and contract with generalized density number  0.
 Compute integral first derivatives.
   1 Symmetry operations used in ECPInt.
 ECPInt:  NShTT=   18721 NPrTT=   54252 LenC2=   17412 LenP2D=   38536.
 LDataN:  DoStor=T MaxTD1= 7 Len=  274
 Leave Link  701 at Sat May  4 10:45:04 2024, MaxMem= 13421772800 cpu:              10.7 elap:               0.4
 (Enter /tmpu/scunam/7/gaussian-2016.03/g1/g16/l702.exe)
 L702 exits ... SP integral derivatives will be done elsewhere.
 Leave Link  702 at Sat May  4 10:45:04 2024, MaxMem= 13421772800 cpu:               0.6 elap:               0.0
 (Enter /tmpu/scunam/7/gaussian-2016.03/g1/g16/l703.exe)
 Integral derivatives from FoFJK, PRISM(SPDF).
 Compute integral first derivatives, UseDBF=F ICtDFT=           0.
 Calling FoFJK, ICntrl=      2127 FMM=F ISym2X=0 I1Cent= 0 IOpClX= 0 NMat=1 NMatS=1 NMatT=0.
 FoFJK:  IHMeth= 1 ICntrl=    2127 DoSepK=F KAlg= 0 I1Cent=           0 FoldK=F
 IRaf=         0 NMat=       1 IRICut=       1 DoRegI=T DoRafI=F ISym2E= 0 IDoP0=0 IntGTp=1.
 FoFCou: FMM=F IPFlag=           0 FMFlag=      100000 FMFlg1=         800
         NFxFlg=           0 DoJE=F BraDBF=F KetDBF=F FulRan=T
         wScrn=  0.000000 ICntrl=      2127 IOpCl=  0 I1Cent=           0 NGrid=           0
         NMat0=    1 NMatS0=      1 NMatT0=    0 NMatD0=    1 NMtDS0=    0 NMtDT0=    0
 Symmetry not used in FoFCou.
 Leave Link  703 at Sat May  4 10:45:24 2024, MaxMem= 13421772800 cpu:             654.8 elap:              20.5
 (Enter /tmpu/scunam/7/gaussian-2016.03/g1/g16/l716.exe)
 Dipole        = 5.59332927D-01 3.80111901D-01 1.12868793D-01
 ***** Axes restored to original set *****
 -------------------------------------------------------------------
 Center     Atomic                   Forces (Hartrees/Bohr)
 Number     Number              X              Y              Z
 -------------------------------------------------------------------
      1        8          -0.000021622   -0.000029363   -0.000048955
      2        6          -0.000107456   -0.000002452    0.000082891
      3        6           0.000085289   -0.000050268   -0.000103197
      4        6          -0.000044025    0.000015325    0.000068600
      5        6           0.000072084   -0.000055753    0.000051822
      6        6           0.000057062    0.000146482    0.000046799
      7        6          -0.000057895   -0.000168365    0.000051475
      8        6           0.000118519    0.000253851   -0.000010706
      9        6           0.000027712   -0.000146749    0.000007021
     10        6           0.000017282   -0.000065628   -0.000076973
     11        6          -0.000033603   -0.000065350   -0.000105839
     12        1           0.000005764    0.000025564    0.000017052
     13        1          -0.000000875    0.000011611    0.000017338
     14        1           0.000013896    0.000006855   -0.000024962
     15        1           0.000029681    0.000005501   -0.000001444
     16        1          -0.000011391    0.000015109   -0.000005110
     17        1          -0.000034840    0.000018887   -0.000020685
     18        1          -0.000013568    0.000002211   -0.000005061
     19        1          -0.000025336   -0.000041640   -0.000023779
     20        1          -0.000004236    0.000033371   -0.000026748
     21        1           0.000013651    0.000005190    0.000011582
     22        1          -0.000034501    0.000018016   -0.000001308
     23        1          -0.000053964    0.000024938   -0.000020577
     24        1           0.000010417    0.000032102    0.000000644
     25        1           0.000005106   -0.000012024    0.000018279
     26        1           0.000016541   -0.000027380    0.000007454
     27        1          -0.000049271    0.000011609    0.000036435
     28        1           0.000015590    0.000015404    0.000042351
     29        1           0.000003991    0.000022947    0.000015604
 -------------------------------------------------------------------
 Cartesian Forces:  Max     0.000253851 RMS     0.000056312
 Leave Link  716 at Sat May  4 10:45:24 2024, MaxMem= 13421772800 cpu:               0.7 elap:               0.0
 (Enter /tmpu/scunam/7/gaussian-2016.03/g1/g16/l103.exe)

 GradGradGradGradGradGradGradGradGradGradGradGradGradGradGradGradGradGrad
 Berny optimization.
 Using GEDIIS/GDIIS optimizer.
 FormGI is forming the generalized inverse of G from B-inverse, IUseBI=4.
 Internal  Forces:  Max     0.000108068 RMS     0.000028266
 Search for a local minimum.
 Step number   9 out of a maximum of  174
 All quantities printed in internal units (Hartrees-Bohrs-Radians)
 RMS Force = .28266D-04 SwitMx=.10000D-02 MixMth= 2
 Mixed Optimization -- En-DIIS/RFO-DIIS
 Swapping is turned off.
 Update second derivatives using D2CorX and points    5    6    7    8    9
 DE= -1.84D-06 DEPred=-1.20D-06 R= 1.53D+00
 TightC=F SS=  1.41D+00  RLast= 2.98D-02 DXNew= 1.6575D+00 8.9503D-02
 Trust test= 1.53D+00 RLast= 2.98D-02 DXMaxT set to 9.86D-01
 ITU=  1  1  1  1  1  1  1  1  0
     Eigenvalues ---    0.00118   0.00210   0.00259   0.00334   0.00344
     Eigenvalues ---    0.00626   0.00736   0.01181   0.01337   0.01559
     Eigenvalues ---    0.01582   0.02834   0.02924   0.02943   0.03154
     Eigenvalues ---    0.04280   0.04600   0.04721   0.05456   0.05461
     Eigenvalues ---    0.05719   0.06676   0.06955   0.07088   0.07222
     Eigenvalues ---    0.07328   0.08401   0.08931   0.09403   0.12633
     Eigenvalues ---    0.12838   0.15310   0.15967   0.15992   0.16000
     Eigenvalues ---    0.16000   0.16000   0.16000   0.16000   0.16002
     Eigenvalues ---    0.16034   0.16048   0.16214   0.16279   0.16493
     Eigenvalues ---    0.16868   0.17570   0.21865   0.22141   0.22476
     Eigenvalues ---    0.22842   0.24633   0.27660   0.28421   0.29038
     Eigenvalues ---    0.29742   0.31351   0.31991   0.32362   0.33077
     Eigenvalues ---    0.33734   0.33805   0.34069   0.34087   0.34117
     Eigenvalues ---    0.34166   0.34199   0.34254   0.34282   0.34312
     Eigenvalues ---    0.34433   0.34497   0.34905   0.34931   0.35401
     Eigenvalues ---    0.35641   0.36210   0.40271   0.52975   0.57421
     Eigenvalues ---    0.59536
 En-DIIS/RFO-DIIS/Sim-DIIS IScMMF=       -3 using points:     9    8    7    6    5    4    3    2
 RFO step:  Lambda=-1.89565133D-06.
 NNeg= 0 NGDIIS= 8 SimSw=  2.50D-01 Rises=F DC= -1.84D-06 SmlDif=  1.00D-05
 NRisDI= 0 DoIntr=F SqrtH=F CThrHd= 10.0 CDAdj=  3.0
 RMS Error=  0.2026191374D-02 NUsed= 8 OKEnD=F EnDIS=F
 InvSVX:  RCond= 5.69D-07 Info=           0 Equed=N FErr=  3.26D-12 BErr=  7.60D-17
 DidBck=F Rises=F RFO-DIIS coefs:    2.40758   -1.36138   -0.10769   -0.17147    0.29388
                  RFO-DIIS coefs:    0.01791   -0.12275    0.04392
 Iteration  1 RMS(Cart)=  0.00471874 RMS(Int)=  0.00001719
 Iteration  2 RMS(Cart)=  0.00001907 RMS(Int)=  0.00000163
 Iteration  3 RMS(Cart)=  0.00000000 RMS(Int)=  0.00000163
 ITry= 1 IFail=0 DXMaxC= 2.45D-02 DCOld= 1.00D+10 DXMaxT= 9.86D-01 DXLimC= 3.00D+00 Rises=F
 Variable       Old X    -DE/DX   Delta X   Delta X   Delta X     New X
                                 (Linear)    (Quad)   (Total)
    R1        2.73178   0.00003   0.00060  -0.00030   0.00030   2.73208
    R2        1.82293  -0.00001   0.00003  -0.00004  -0.00001   1.82291
    R3        2.91862  -0.00007  -0.00015  -0.00026  -0.00041   2.91821
    R4        2.87763   0.00003  -0.00003   0.00008   0.00005   2.87769
    R5        2.85962   0.00008   0.00045   0.00002   0.00048   2.86010
    R6        2.90407   0.00002   0.00043  -0.00029   0.00014   2.90421
    R7        2.07206  -0.00001  -0.00008   0.00002  -0.00006   2.07199
    R8        2.06689  -0.00001  -0.00004  -0.00001  -0.00005   2.06683
    R9        2.83714   0.00002  -0.00059   0.00061   0.00002   2.83716
   R10        2.05960   0.00001   0.00023  -0.00020   0.00003   2.05963
   R11        2.06991   0.00000  -0.00003   0.00008   0.00005   2.06996
   R12        2.06065  -0.00001  -0.00008   0.00003  -0.00005   2.06061
   R13        2.05941  -0.00003  -0.00013   0.00001  -0.00012   2.05929
   R14        2.05827   0.00000   0.00016  -0.00015   0.00001   2.05828
   R15        2.50580  -0.00005  -0.00024   0.00006  -0.00018   2.50562
   R16        2.05867   0.00002   0.00016  -0.00009   0.00007   2.05873
   R17        2.52422   0.00002   0.00017  -0.00004   0.00013   2.52435
   R18        2.05698  -0.00003  -0.00022   0.00008  -0.00014   2.05684
   R19        2.84544   0.00007   0.00079  -0.00047   0.00032   2.84575
   R20        2.84348  -0.00009  -0.00111   0.00070  -0.00041   2.84307
   R21        2.06922   0.00002   0.00031  -0.00023   0.00008   2.06930
   R22        2.06921   0.00003   0.00035  -0.00017   0.00019   2.06940
   R23        2.06016  -0.00003  -0.00026   0.00011  -0.00015   2.06001
   R24        2.06891   0.00000   0.00025  -0.00014   0.00011   2.06902
   R25        2.05571   0.00001   0.00007  -0.00010  -0.00003   2.05567
   R26        2.06900  -0.00002  -0.00033   0.00021  -0.00012   2.06888
   R27        2.04616   0.00000   0.00007  -0.00005   0.00002   2.04617
   R28        2.04576   0.00001   0.00020  -0.00013   0.00006   2.04582
    A1        1.89553   0.00000   0.00002  -0.00008  -0.00007   1.89546
    A2        1.88384  -0.00002   0.00031  -0.00057  -0.00026   1.88358
    A3        1.82201   0.00000  -0.00002  -0.00002  -0.00005   1.82196
    A4        1.88415  -0.00000  -0.00037   0.00002  -0.00035   1.88380
    A5        1.95822   0.00002   0.00061  -0.00035   0.00026   1.95847
    A6        1.92311  -0.00001  -0.00038   0.00033  -0.00004   1.92306
    A7        1.98567   0.00001  -0.00014   0.00052   0.00037   1.98604
    A8        2.03311  -0.00004  -0.00055   0.00006  -0.00049   2.03263
    A9        1.88439   0.00000  -0.00002  -0.00002  -0.00003   1.88435
   A10        1.86974   0.00002   0.00010   0.00027   0.00037   1.87011
   A11        1.89396   0.00001  -0.00034   0.00024  -0.00010   1.89386
   A12        1.91812   0.00000   0.00028  -0.00032  -0.00003   1.91809
   A13        1.85660   0.00001   0.00063  -0.00027   0.00036   1.85696
   A14        1.95377   0.00001   0.00023  -0.00003   0.00020   1.95397
   A15        1.91365  -0.00003  -0.00003  -0.00035  -0.00038   1.91328
   A16        1.89976  -0.00001   0.00021  -0.00026  -0.00005   1.89971
   A17        1.94467  -0.00000  -0.00005  -0.00005  -0.00009   1.94458
   A18        1.89347   0.00003  -0.00025   0.00071   0.00046   1.89393
   A19        1.85527   0.00001  -0.00014  -0.00001  -0.00015   1.85511
   A20        1.90959  -0.00001  -0.00035   0.00032  -0.00003   1.90956
   A21        1.92091  -0.00003  -0.00016   0.00002  -0.00014   1.92077
   A22        1.95239  -0.00001  -0.00070   0.00039  -0.00031   1.95209
   A23        1.88773   0.00003   0.00052  -0.00036   0.00016   1.88788
   A24        1.89449   0.00001   0.00044  -0.00028   0.00015   1.89465
   A25        1.89742   0.00002   0.00029  -0.00012   0.00018   1.89760
   A26        2.23360   0.00003   0.00003   0.00001   0.00005   2.23365
   A27        1.98222  -0.00007  -0.00109   0.00056  -0.00053   1.98170
   A28        2.06735   0.00004   0.00104  -0.00057   0.00047   2.06782
   A29        2.24631  -0.00011  -0.00077   0.00032  -0.00044   2.24586
   A30        1.99543   0.00007   0.00038  -0.00006   0.00033   1.99576
   A31        2.04141   0.00004   0.00037  -0.00026   0.00011   2.04153
   A32        2.10861  -0.00009  -0.00121   0.00047  -0.00075   2.10785
   A33        2.18028   0.00004   0.00080  -0.00024   0.00055   2.18084
   A34        1.99429   0.00005   0.00042  -0.00022   0.00019   1.99448
   A35        1.93735   0.00002   0.00059  -0.00044   0.00015   1.93750
   A36        1.93659   0.00004   0.00026  -0.00004   0.00022   1.93682
   A37        1.95200  -0.00002   0.00013  -0.00018  -0.00005   1.95195
   A38        1.85846  -0.00005  -0.00141   0.00076  -0.00065   1.85782
   A39        1.88827   0.00001   0.00030  -0.00010   0.00020   1.88847
   A40        1.88770   0.00000   0.00004   0.00005   0.00009   1.88779
   A41        1.92872  -0.00003  -0.00032   0.00002  -0.00030   1.92842
   A42        1.97961  -0.00004  -0.00019   0.00006  -0.00013   1.97949
   A43        1.92720   0.00003  -0.00077   0.00097   0.00020   1.92740
   A44        1.88332   0.00002   0.00034  -0.00043  -0.00009   1.88323
   A45        1.85620  -0.00001  -0.00015  -0.00007  -0.00022   1.85598
   A46        1.88387   0.00003   0.00115  -0.00060   0.00054   1.88441
   A47        2.11263   0.00005   0.00093  -0.00038   0.00055   2.11318
   A48        2.13745   0.00000  -0.00013   0.00007  -0.00005   2.13740
   A49        2.03310  -0.00005  -0.00080   0.00031  -0.00049   2.03260
    D1        1.00040  -0.00000   0.00049   0.00055   0.00104   1.00144
    D2        3.08677   0.00001   0.00132  -0.00014   0.00119   3.08796
    D3       -1.07807   0.00002   0.00096   0.00047   0.00142  -1.07664
    D4        3.09300   0.00000  -0.00039  -0.00044  -0.00083   3.09217
    D5       -1.05534  -0.00001  -0.00123  -0.00010  -0.00133  -1.05667
    D6        0.93799   0.00001  -0.00045  -0.00029  -0.00074   0.93725
    D7        1.09506   0.00000  -0.00087   0.00011  -0.00076   1.09430
    D8       -3.05328  -0.00001  -0.00171   0.00045  -0.00126  -3.05453
    D9       -1.05994   0.00001  -0.00093   0.00026  -0.00067  -1.06061
   D10       -1.13665  -0.00002  -0.00085  -0.00057  -0.00143  -1.13808
   D11        0.99819  -0.00003  -0.00169  -0.00023  -0.00192   0.99627
   D12        2.99153  -0.00001  -0.00092  -0.00042  -0.00134   2.99019
   D13       -1.07327   0.00001  -0.00022   0.00037   0.00015  -1.07312
   D14        0.99868   0.00001   0.00011   0.00014   0.00025   0.99893
   D15        3.10999   0.00001  -0.00009   0.00026   0.00017   3.11016
   D16        0.96216  -0.00001   0.00043  -0.00049  -0.00005   0.96211
   D17        3.03412  -0.00000   0.00076  -0.00072   0.00004   3.03416
   D18       -1.13776  -0.00001   0.00056  -0.00060  -0.00003  -1.13780
   D19       -3.12294   0.00000   0.00032   0.00009   0.00041  -3.12253
   D20       -1.05098   0.00001   0.00065  -0.00014   0.00050  -1.05048
   D21        1.06032   0.00000   0.00045  -0.00002   0.00043   1.06075
   D22       -2.13465  -0.00001   0.00652  -0.00159   0.00492  -2.12973
   D23        1.00118  -0.00001   0.00522  -0.00079   0.00443   1.00560
   D24        2.09519   0.00002   0.00656  -0.00110   0.00546   2.10066
   D25       -1.05216   0.00002   0.00526  -0.00030   0.00497  -1.04720
   D26       -0.12131  -0.00000   0.00617  -0.00131   0.00485  -0.11646
   D27        3.01452  -0.00000   0.00486  -0.00051   0.00436   3.01888
   D28       -3.13727  -0.00002  -0.00124  -0.00074  -0.00198  -3.13926
   D29        0.97846  -0.00001  -0.00133  -0.00041  -0.00174   0.97672
   D30       -1.04430   0.00001  -0.00127  -0.00005  -0.00132  -1.04562
   D31        1.01608  -0.00001  -0.00056  -0.00095  -0.00152   1.01456
   D32       -1.15137   0.00001  -0.00065  -0.00062  -0.00127  -1.15264
   D33        3.10906   0.00002  -0.00059  -0.00026  -0.00085   3.10820
   D34       -1.00746  -0.00002  -0.00129  -0.00059  -0.00188  -1.00934
   D35        3.10827  -0.00001  -0.00137  -0.00025  -0.00163   3.10664
   D36        1.08551   0.00001  -0.00132   0.00010  -0.00121   1.08430
   D37       -2.05772   0.00002  -0.00255   0.00015  -0.00240  -2.06012
   D38        1.07478   0.00001  -0.00296   0.00018  -0.00278   1.07200
   D39        0.09231  -0.00001  -0.00245  -0.00036  -0.00281   0.08950
   D40       -3.05837  -0.00002  -0.00286  -0.00033  -0.00319  -3.06156
   D41        2.12881   0.00001  -0.00279   0.00003  -0.00276   2.12605
   D42       -1.02187   0.00000  -0.00320   0.00005  -0.00314  -1.02501
   D43        3.12849   0.00000  -0.00188   0.00132  -0.00057   3.12792
   D44       -0.00852  -0.00001  -0.00159   0.00037  -0.00122  -0.00974
   D45       -0.00709   0.00000  -0.00053   0.00047  -0.00005  -0.00714
   D46        3.13908  -0.00000  -0.00023  -0.00047  -0.00070   3.13838
   D47        3.13868   0.00001   0.00026   0.00025   0.00051   3.13920
   D48       -0.00641   0.00001  -0.00164   0.00120  -0.00043  -0.00684
   D49        0.00638   0.00001   0.00068   0.00022   0.00090   0.00729
   D50       -3.13871   0.00001  -0.00122   0.00117  -0.00004  -3.13875
   D51       -2.11632  -0.00001  -0.00179   0.00169  -0.00010  -2.11642
   D52        2.10396   0.00002  -0.00058   0.00105   0.00047   2.10442
   D53       -0.00556   0.00000  -0.00091   0.00114   0.00023  -0.00533
   D54        1.02842  -0.00001  -0.00009   0.00084   0.00075   1.02917
   D55       -1.03449   0.00002   0.00112   0.00019   0.00131  -1.03317
   D56        3.13918   0.00000   0.00079   0.00028   0.00108   3.14026
   D57       -2.10451   0.00003   0.00998   0.00128   0.01126  -2.09325
   D58        0.01288   0.00000   0.01005   0.00079   0.01083   0.02371
   D59        2.12988   0.00004   0.01083   0.00076   0.01159   2.14147
   D60        1.03379   0.00003   0.00819   0.00218   0.01037   1.04415
   D61       -3.13201   0.00000   0.00826   0.00169   0.00994  -3.12207
   D62       -1.01501   0.00004   0.00904   0.00166   0.01070  -1.00431
         Item               Value     Threshold  Converged?
 Maximum Force            0.000108     0.000450     YES
 RMS     Force            0.000028     0.000300     YES
 Maximum Displacement     0.024547     0.001800     NO 
 RMS     Displacement     0.004720     0.001200     NO 
 Predicted change in Energy=-7.529146D-07
 Lowest energy point so far.  Saving SCF results.
 GradGradGradGradGradGradGradGradGradGradGradGradGradGradGradGradGradGrad

 Leave Link  103 at Sat May  4 10:45:24 2024, MaxMem= 13421772800 cpu:               2.2 elap:               0.1
 (Enter /tmpu/scunam/7/gaussian-2016.03/g1/g16/l202.exe)
                          Input orientation:                          
 ---------------------------------------------------------------------
 Center     Atomic      Atomic             Coordinates (Angstroms)
 Number     Number       Type             X           Y           Z
 ---------------------------------------------------------------------
      1          8           0        2.729186   -1.314039   -1.177604
      2          6           0        1.988707   -0.546283   -0.201669
      3          6           0        0.489176   -0.867869   -0.382499
      4          6           0       -0.478355   -0.202092    0.608720
      5          6           0        2.522481   -1.026040    1.141408
      6          6           0        2.244373    0.920862   -0.471478
      7          6           0       -1.905481   -0.585633    0.343596
      8          6           0       -2.931525    0.199292    0.003642
      9          6           0       -4.302506   -0.380469   -0.224505
     10          6           0       -2.852164    1.690438   -0.179839
     11          6           0        2.751154    1.826103    0.354213
     12          1           0        0.200979   -0.576227   -1.399403
     13          1           0        0.384155   -1.955351   -0.331737
     14          1           0       -0.344980    0.879246    0.580097
     15          1           0       -0.216471   -0.517197    1.624581
     16          1           0        2.317880   -2.091262    1.253085
     17          1           0        3.601443   -0.880558    1.188202
     18          1           0        2.061707   -0.495486    1.973601
     19          1           0        1.971066    1.232091   -1.479103
     20          1           0       -2.108943   -1.650674    0.438342
     21          1           0        2.401987   -1.090944   -2.057211
     22          1           0       -4.656428   -0.164510   -1.238002
     23          1           0       -5.033931    0.061732    0.460092
     24          1           0       -4.314476   -1.461253   -0.082733
     25          1           0       -3.526239    2.198779    0.517279
     26          1           0       -1.852144    2.091746   -0.030654
     27          1           0       -3.181595    1.969799   -1.185834
     28          1           0        2.898475    2.851042    0.037625
     29          1           0        3.041869    1.588355    1.369589
 ---------------------------------------------------------------------
                    Distance matrix (angstroms):
                    1          2          3          4          5
     1  O    0.000000
     2  C    1.445755   0.000000
     3  C    2.418452   1.544251   0.000000
     4  C    3.836105   2.619464   1.536843   0.000000
     5  C    2.345951   1.522806   2.545907   3.157161   0.000000
     6  C    2.393416   1.513498   2.507627   3.137053   2.543457
     7  C    4.932015   3.932374   2.518184   1.501360   4.520765
     8  C    5.977388   4.980634   3.604044   2.558373   5.704572
     9  C    7.157139   6.293439   4.818997   3.917934   6.990202
    10  C    6.416688   5.332675   4.213141   3.136633   6.165368
    11  C    3.493915   2.553144   3.593991   3.822052   2.967606
    12  H    2.642989   2.152077   1.096452   2.152679   3.470940
    13  H    2.574091   2.139387   1.093721   2.168479   2.757937
    14  H    4.165395   2.844184   2.162132   1.089909   3.488197
    15  H    4.142957   2.863362   2.156218   1.095376   2.827409
    16  H    2.584859   2.147469   2.741529   3.435564   1.090427
    17  H    2.558472   2.155087   3.486183   4.176227   1.089731
    18  H    3.323500   2.177088   2.857049   2.898430   1.089196
    19  H    2.673655   2.189695   2.794346   3.523571   3.502898
    20  H    5.111956   4.291856   2.834922   2.187746   4.725945
    21  H    0.964645   1.977497   2.552111   4.024129   3.201546
    22  H    7.474782   6.736287   5.263444   4.568161   7.611870
    23  H    8.052377   7.079904   5.663817   4.565628   7.664646
    24  H    7.129768   6.370355   4.849436   4.096268   6.959304
    25  H    7.371762   6.202168   5.132006   3.880998   6.883024
    26  H    5.822668   4.662680   3.790105   2.749144   5.498333
    27  H    6.761731   5.833633   4.708743   3.904490   6.850372
    28  H    4.342043   3.525160   4.451014   4.588110   4.048639
    29  H    3.874255   2.852136   3.952099   4.022014   2.675237
                    6          7          8          9         10
     6  C    0.000000
     7  C    4.489450   0.000000
     8  C    5.247506   1.335830   0.000000
     9  C    6.679526   2.471954   1.505909   0.000000
    10  C    5.162556   2.520058   1.504486   2.528664   0.000000
    11  C    1.325917   5.244124   5.921339   7.413366   5.630346
    12  H    2.697735   2.734101   3.518884   4.658335   3.993343
    13  H    3.428198   2.752206   3.968464   4.945356   4.877357
    14  H    2.795047   2.153362   2.735846   4.230399   2.742537
    15  H    3.537970   2.120934   3.242271   4.487036   3.882842
    16  H    3.471658   4.575027   5.862082   6.995684   6.563831
    17  H    2.800231   5.579118   6.726733   8.044765   7.080297
    18  H    2.831576   4.289945   5.412562   6.734100   5.793246
    19  H    1.089435   4.653383   5.224998   6.597884   5.016145
    20  H    5.137307   1.088433   2.070744   2.620020   3.478154
    21  H    2.566467   4.957166   5.861585   6.986688   6.234317
    22  H    7.027563   3.201016   2.156229   1.095024   2.795695
    23  H    7.387802   3.196850   2.155778   1.095078   2.796838
    24  H    6.988854   2.598407   2.162735   1.090109   3.475766
    25  H    5.992552   3.226449   2.148361   2.793806   1.094880
    26  H    4.283310   2.703935   2.178903   3.486215   1.087816
    27  H    5.572406   3.240039   2.147576   2.775671   1.094803
    28  H    2.100626   5.914587   6.404829   7.897182   5.870616
    29  H    2.114492   5.500469   6.283052   7.768992   6.095143
                   11         12         13         14         15
    11  C    0.000000
    12  H    3.917876   0.000000
    13  H    4.513603   1.753696   0.000000
    14  H    3.245552   2.516922   3.065620   0.000000
    15  H    3.988946   3.053232   2.501244   1.748574   0.000000
    16  H    4.042455   3.716489   2.503882   4.045695   3.006431
    17  H    2.957117   4.283862   3.717034   4.363595   3.859913
    18  H    2.913336   3.853049   3.203119   3.102238   2.304861
    19  H    2.079048   2.531713   3.740926   3.119115   4.180692
    20  H    5.976253   3.141255   2.627049   3.087419   2.504672
    21  H    3.800796   2.354162   2.792150   4.287525   4.554240
    22  H    7.833899   4.877496   5.425487   4.794111   5.294524
    23  H    7.983217   5.591868   5.835347   4.761196   4.989901
    24  H    7.805175   4.786045   4.731096   4.655553   4.538700
    25  H    6.290560   5.026578   5.767913   3.444637   4.422353
    26  H    4.626991   3.634126   4.633647   2.028477   3.495971
    27  H    6.131062   4.239064   5.371300   3.514855   4.782838
    28  H    1.082789   4.592135   5.436879   3.834352   4.854519
    29  H    1.082602   4.519224   4.745082   3.549208   3.887821
                   16         17         18         19         20
    16  H    0.000000
    17  H    1.765658   0.000000
    18  H    1.769539   1.770853   0.000000
    19  H    4.316226   3.773054   3.861853   0.000000
    20  H    4.522686   5.810669   4.591928   5.351019   0.000000
    21  H    3.459157   3.466362   4.088742   2.432364   5.185515
    22  H    7.652376   8.636645   7.453676   6.777337   3.392417
    23  H    7.701515   8.717095   7.276625   7.362078   3.389448
    24  H    6.794811   8.038299   6.768820   6.979397   2.274153
    25  H    7.286947   7.793351   6.372212   5.927933   4.102834
    26  H    6.044389   6.329441   5.101866   4.177792   3.780424
    27  H    7.258428   7.731119   6.599385   5.213457   4.110517
    28  H    5.122578   3.967724   3.955684   2.404486   6.745387
    29  H    3.751974   2.538022   2.380744   3.064081   6.155436
                   21         22         23         24         25
    21  H    0.000000
    22  H    7.165934   0.000000
    23  H    7.934629   1.754200   0.000000
    24  H    7.010461   1.770063   1.769677   0.000000
    25  H    7.252182   3.153328   2.615985   3.791724   0.000000
    26  H    5.686307   3.796365   3.805989   4.323146   1.764733
    27  H    6.426806   2.594827   3.127449   3.777879   1.752657
    28  H    4.491558   8.233914   8.419132   8.404584   6.475528
    29  H    4.396709   8.314797   8.268996   8.094761   6.651248
                   26         27         28         29
    26  H    0.000000
    27  H    1.765433   0.000000
    28  H    4.811400   6.264239   0.000000
    29  H    5.115217   6.738486   1.840943   0.000000
 Stoichiometry    C10H18O
 Framework group  C1[X(C10H18O)]
 Deg. of freedom    81
 Full point group                 C1      NOp   1
 RotChk:  IX=2 Diff= 3.32D-04
 Largest Abelian subgroup         C1      NOp   1
 Largest concise Abelian subgroup C1      NOp   1
                         Standard orientation:                         
 ---------------------------------------------------------------------
 Center     Atomic      Atomic             Coordinates (Angstroms)
 Number     Number       Type             X           Y           Z
 ---------------------------------------------------------------------
      1          8           0       -2.796283   -1.170681    1.100534
      2          6           0       -2.010542   -0.397480    0.165130
      3          6           0       -0.534794   -0.826743    0.315498
      4          6           0        0.470721   -0.169130   -0.642820
      5          6           0       -2.579929   -0.761953   -1.199384
      6          6           0       -2.167887    1.065013    0.521544
      7          6           0        1.870460   -0.660280   -0.411341
      8          6           0        2.947318    0.034461   -0.034303
      9          6           0        4.277955   -0.646311    0.149310
     10          6           0        2.967144    1.514338    0.235971
     11          6           0       -2.617044    2.048209   -0.246336
     12          1           0       -0.224101   -0.614506    1.345368
     13          1           0       -0.501895   -1.913950    0.200935
     14          1           0        0.409039    0.915109   -0.550497
     15          1           0        0.184741   -0.406525   -1.673211
     16          1           0       -2.446432   -1.829959   -1.374230
     17          1           0       -3.647123   -0.543526   -1.229386
     18          1           0       -2.088370   -0.215083   -2.002907
     19          1           0       -1.870796    1.298280    1.543401
     20          1           0        2.002897   -1.729020   -0.569266
     21          1           0       -2.451718   -1.021269    1.989066
     22          1           0        4.649228   -0.513577    1.170885
     23          1           0        5.034314   -0.213824   -0.514070
     24          1           0        4.218100   -1.715427   -0.055006
     25          1           0        3.670591    2.017203   -0.435633
     26          1           0        1.995194    1.988402    0.117988
     27          1           0        3.318130    1.712273    1.253922
     28          1           0       -2.695255    3.060367    0.130295
     29          1           0       -2.926690    1.889734   -1.271534
 ---------------------------------------------------------------------
 Rotational constants (GHZ):           1.9653246           0.4630274           0.4210347
 Leave Link  202 at Sat May  4 10:45:24 2024, MaxMem= 13421772800 cpu:               2.8 elap:               0.1
 (Enter /tmpu/scunam/7/gaussian-2016.03/g1/g16/l301.exe)
 Standard basis: def2TZVP (5D, 7F)
 Ernie: Thresh=  0.10000D-02 Tol=  0.10000D-05 Strict=F.
 There are   504 symmetry adapted cartesian basis functions of A   symmetry.
 There are   449 symmetry adapted basis functions of A   symmetry.
   449 basis functions,   705 primitive gaussians,   504 cartesian basis functions
    43 alpha electrons       43 beta electrons
       nuclear repulsion energy       617.4345469194 Hartrees.
 IExCor=  402 DFT=T Ex+Corr=B3LYP ExCW=0 ScaHFX=  0.200000
 ScaDFX=  0.800000  0.720000  1.000000  0.810000 ScalE2=  1.000000  1.000000
 IRadAn=      5 IRanWt=     -1 IRanGd=            0 ICorTp=0 IEmpDi=  4
 NAtoms=   29 NActive=   29 NUniq=   29 SFac= 1.00D+00 NAtFMM=   60 NAOKFM=F Big=F
 Integral buffers will be    131072 words long.
 Raffenetti 2 integral format.
 Two-electron integral symmetry is turned on.
 Leave Link  301 at Sat May  4 10:45:25 2024, MaxMem= 13421772800 cpu:               1.4 elap:               0.1
 (Enter /tmpu/scunam/7/gaussian-2016.03/g1/g16/l302.exe)
 NPDir=0 NMtPBC=     1 NCelOv=     1 NCel=       1 NClECP=     1 NCelD=      1
         NCelK=      1 NCelE2=     1 NClLst=     1 CellRange=     0.0.
 One-electron integrals computed using PRISM.
 One-electron integral symmetry used in STVInt
   1 Symmetry operations used in ECPInt.
 ECPInt:  NShTT=   18721 NPrTT=   54252 LenC2=   17413 LenP2D=   38537.
 LDataN:  DoStor=T MaxTD1= 6 Len=  172
 NBasis=   449 RedAO= T EigKep=  6.64D-05  NBF=   449
 NBsUse=   449 1.00D-06 EigRej= -1.00D+00 NBFU=   449
 Precomputing XC quadrature grid using
 IXCGrd= 4 IRadAn=           5 IRanWt=          -1 IRanGd=           0 AccXCQ= 0.00D+00.
 Generated NRdTot=       0 NPtTot=           0 NUsed=           0 NTot=          32
 NSgBfM=   501   501   501   501   501 MxSgAt=    29 MxSgA2=    29.
 Leave Link  302 at Sat May  4 10:45:25 2024, MaxMem= 13421772800 cpu:              16.5 elap:               0.5
 (Enter /tmpu/scunam/7/gaussian-2016.03/g1/g16/l303.exe)
 DipDrv:  MaxL=1.
 Leave Link  303 at Sat May  4 10:45:25 2024, MaxMem= 13421772800 cpu:               2.1 elap:               0.1
 (Enter /tmpu/scunam/7/gaussian-2016.03/g1/g16/l401.exe)
 Initial guess from the checkpoint file:  "linalool.chk"
 B after Tr=     0.000000    0.000000   -0.000000
         Rot=    1.000000   -0.000086   -0.000007   -0.000018 Ang=  -0.01 deg.
 Guess basis will be translated and rotated to current coordinates.
 JPrj=2 DoOrth=T DoCkMO=T.
 Generating alternative initial guess.
 ExpMin= 9.52D-02 ExpMax= 2.70D+04 ExpMxC= 9.22D+02 IAcc=2 IRadAn=         4 AccDes= 0.00D+00
 Harris functional with IExCor=  402 and IRadAn=       4 diagonalized for initial guess.
 HarFok:  IExCor=  402 AccDes= 0.00D+00 IRadAn=         4 IDoV= 1 UseB2=F ITyADJ=14
 ICtDFT=  3500011 ScaDFX=  1.000000  1.000000  1.000000  1.000000
 FoFCou: FMM=F IPFlag=           0 FMFlag=      100000 FMFlg1=           0
         NFxFlg=           0 DoJE=T BraDBF=F KetDBF=T FulRan=T
         wScrn=  0.000000 ICntrl=       500 IOpCl=  0 I1Cent=   200000004 NGrid=           0
         NMat0=    1 NMatS0=      1 NMatT0=    0 NMatD0=    1 NMtDS0=    0 NMtDT0=    0
 Petite list used in FoFCou.
 Harris En= -467.406757116308    
 Leave Link  401 at Sat May  4 10:45:26 2024, MaxMem= 13421772800 cpu:              38.6 elap:               1.2
 (Enter /tmpu/scunam/7/gaussian-2016.03/g1/g16/l502.exe)
 Integral symmetry usage will be decided dynamically.
 Closed shell SCF:
 Using DIIS extrapolation, IDIIS=  1040.
 NGot= 13421772800 LenX= 13421243903 LenY= 13420989383
 Requested convergence on RMS density matrix=1.00D-08 within 128 cycles.
 Requested convergence on MAX density matrix=1.00D-06.
 Requested convergence on             energy=1.00D-06.
 No special actions if energy rises.
 Fock matrices will be formed incrementally for  20 cycles.
 Integral accuracy reduced to 1.0D-05 until final iterations.

 Cycle   1  Pass 0  IDiag  1:
 FoFJK:  IHMeth= 1 ICntrl=       0 DoSepK=F KAlg= 0 I1Cent=           0 FoldK=F
 IRaf= 880000000 NMat=       1 IRICut=       1 DoRegI=T DoRafI=F ISym2E= 0 IDoP0=0 IntGTp=1.
 FoFCou: FMM=F IPFlag=           0 FMFlag=      100000 FMFlg1=           0
         NFxFlg=           0 DoJE=F BraDBF=F KetDBF=F FulRan=T
         wScrn=  0.000000 ICntrl=         0 IOpCl=  0 I1Cent=           0 NGrid=           0
         NMat0=    1 NMatS0=      1 NMatT0=    0 NMatD0=    1 NMtDS0=    0 NMtDT0=    0
 Symmetry not used in FoFCou.
 E= -467.273702141731    
 DIIS: error= 2.51D-04 at cycle   1 NSaved=   1.
 NSaved= 1 IEnMin= 1 EnMin= -467.273702141731     IErMin= 1 ErrMin= 2.51D-04
 ErrMax= 2.51D-04  0.00D+00 EMaxC= 1.00D-01 BMatC= 3.76D-05 BMatP= 3.76D-05
 IDIUse=3 WtCom= 9.97D-01 WtEn= 2.51D-03
 Coeff-Com:  0.100D+01
 Coeff-En:   0.100D+01
 Coeff:      0.100D+01
 Gap=     0.629 Goal=   None    Shift=    0.000
 RMSDP=1.22D-04 MaxDP=4.73D-03              OVMax= 1.60D-03

 Cycle   2  Pass 0  IDiag  1:
 RMSU=  1.22D-04    CP:  1.00D+00
 E= -467.273748347684     Delta-E=       -0.000046205953 Rises=F Damp=F
 DIIS: error= 2.58D-05 at cycle   2 NSaved=   2.
 NSaved= 2 IEnMin= 2 EnMin= -467.273748347684     IErMin= 2 ErrMin= 2.58D-05
 ErrMax= 2.58D-05  0.00D+00 EMaxC= 1.00D-01 BMatC= 2.87D-07 BMatP= 3.76D-05
 IDIUse=1 WtCom= 1.00D+00 WtEn= 0.00D+00
 Coeff-Com: -0.491D-01 0.105D+01
 Coeff:     -0.491D-01 0.105D+01
 Gap=     0.234 Goal=   None    Shift=    0.000
 RMSDP=7.69D-06 MaxDP=3.04D-04 DE=-4.62D-05 OVMax= 2.32D-04

 Initial convergence to 1.0D-05 achieved.  Increase integral accuracy.
 Cycle   3  Pass 1  IDiag  1:
 E= -467.273760669692     Delta-E=       -0.000012322008 Rises=F Damp=F
 DIIS: error= 1.91D-04 at cycle   1 NSaved=   1.
 NSaved= 1 IEnMin= 1 EnMin= -467.273760669692     IErMin= 1 ErrMin= 1.91D-04
 ErrMax= 1.91D-04  0.00D+00 EMaxC= 1.00D-01 BMatC= 5.99D-06 BMatP= 5.99D-06
 IDIUse=3 WtCom= 9.98D-01 WtEn= 1.91D-03
 Coeff-Com:  0.100D+01
 Coeff-En:   0.100D+01
 Coeff:      0.100D+01
 Gap=     0.234 Goal=   None    Shift=    0.000
 RMSDP=7.69D-06 MaxDP=3.04D-04 DE=-1.23D-05 OVMax= 4.72D-04

 Cycle   4  Pass 1  IDiag  1:
 RMSU=  1.23D-04    CP:  1.00D+00
 E= -467.273763726431     Delta-E=       -0.000003056739 Rises=F Damp=F
 DIIS: error= 3.25D-05 at cycle   2 NSaved=   2.
 NSaved= 2 IEnMin= 2 EnMin= -467.273763726431     IErMin= 2 ErrMin= 3.25D-05
 ErrMax= 3.25D-05  0.00D+00 EMaxC= 1.00D-01 BMatC= 7.47D-07 BMatP= 5.99D-06
 IDIUse=1 WtCom= 1.00D+00 WtEn= 0.00D+00
 Coeff-Com:  0.150D+00 0.850D+00
 Coeff:      0.150D+00 0.850D+00
 Gap=     0.234 Goal=   None    Shift=    0.000
 RMSDP=4.22D-06 MaxDP=1.82D-04 DE=-3.06D-06 OVMax= 4.38D-04

 Cycle   5  Pass 1  IDiag  1:
 RMSU=  3.93D-06    CP:  1.00D+00  1.01D+00
 E= -467.273763168219     Delta-E=        0.000000558212 Rises=F Damp=F
 DIIS: error= 4.74D-05 at cycle   3 NSaved=   3.
 NSaved= 3 IEnMin= 2 EnMin= -467.273763726431     IErMin= 2 ErrMin= 3.25D-05
 ErrMax= 4.74D-05  0.00D+00 EMaxC= 1.00D-01 BMatC= 1.46D-06 BMatP= 7.47D-07
 IDIUse=1 WtCom= 1.00D+00 WtEn= 0.00D+00
 Coeff-Com: -0.320D-02 0.584D+00 0.419D+00
 Coeff:     -0.320D-02 0.584D+00 0.419D+00
 Gap=     0.234 Goal=   None    Shift=    0.000
 RMSDP=2.25D-06 MaxDP=1.04D-04 DE= 5.58D-07 OVMax= 2.85D-04

 Cycle   6  Pass 1  IDiag  1:
 RMSU=  5.50D-07    CP:  1.00D+00  1.01D+00  4.53D-01
 E= -467.273764304734     Delta-E=       -0.000001136515 Rises=F Damp=F
 DIIS: error= 2.25D-06 at cycle   4 NSaved=   4.
 NSaved= 4 IEnMin= 4 EnMin= -467.273764304734     IErMin= 4 ErrMin= 2.25D-06
 ErrMax= 2.25D-06  0.00D+00 EMaxC= 1.00D-01 BMatC= 4.54D-09 BMatP= 7.47D-07
 IDIUse=1 WtCom= 1.00D+00 WtEn= 0.00D+00
 Coeff-Com: -0.249D-02 0.335D+00 0.242D+00 0.426D+00
 Coeff:     -0.249D-02 0.335D+00 0.242D+00 0.426D+00
 Gap=     0.234 Goal=   None    Shift=    0.000
 RMSDP=1.27D-07 MaxDP=8.69D-06 DE=-1.14D-06 OVMax= 3.13D-05

 Cycle   7  Pass 1  IDiag  1:
 RMSU=  1.21D-07    CP:  1.00D+00  1.01D+00  4.48D-01  9.45D-01
 E= -467.273764309031     Delta-E=       -0.000000004297 Rises=F Damp=F
 DIIS: error= 4.19D-07 at cycle   5 NSaved=   5.
 NSaved= 5 IEnMin= 5 EnMin= -467.273764309031     IErMin= 5 ErrMin= 4.19D-07
 ErrMax= 4.19D-07  0.00D+00 EMaxC= 1.00D-01 BMatC= 1.76D-10 BMatP= 4.54D-09
 IDIUse=1 WtCom= 1.00D+00 WtEn= 0.00D+00
 Coeff-Com: -0.120D-02 0.154D+00 0.111D+00 0.236D+00 0.500D+00
 Coeff:     -0.120D-02 0.154D+00 0.111D+00 0.236D+00 0.500D+00
 Gap=     0.234 Goal=   None    Shift=    0.000
 RMSDP=3.91D-08 MaxDP=2.62D-06 DE=-4.30D-09 OVMax= 6.36D-06

 Cycle   8  Pass 1  IDiag  1:
 RMSU=  3.33D-08    CP:  1.00D+00  1.01D+00  4.49D-01  9.60D-01  8.58D-01
 E= -467.273764309190     Delta-E=       -0.000000000159 Rises=F Damp=F
 DIIS: error= 1.04D-07 at cycle   6 NSaved=   6.
 NSaved= 6 IEnMin= 6 EnMin= -467.273764309190     IErMin= 6 ErrMin= 1.04D-07
 ErrMax= 1.04D-07  0.00D+00 EMaxC= 1.00D-01 BMatC= 1.17D-11 BMatP= 1.76D-10
 IDIUse=1 WtCom= 1.00D+00 WtEn= 0.00D+00
 Coeff-Com: -0.250D-03 0.299D-01 0.215D-01 0.579D-01 0.240D+00 0.651D+00
 Coeff:     -0.250D-03 0.299D-01 0.215D-01 0.579D-01 0.240D+00 0.651D+00
 Gap=     0.234 Goal=   None    Shift=    0.000
 RMSDP=1.05D-08 MaxDP=4.18D-07 DE=-1.59D-10 OVMax= 1.06D-06

 Cycle   9  Pass 1  IDiag  1:
 RMSU=  7.68D-09    CP:  1.00D+00  1.01D+00  4.48D-01  9.68D-01  8.87D-01
                    CP:  9.25D-01
 E= -467.273764309201     Delta-E=       -0.000000000011 Rises=F Damp=F
 DIIS: error= 3.68D-08 at cycle   7 NSaved=   7.
 NSaved= 7 IEnMin= 7 EnMin= -467.273764309201     IErMin= 7 ErrMin= 3.68D-08
 ErrMax= 3.68D-08  0.00D+00 EMaxC= 1.00D-01 BMatC= 5.74D-13 BMatP= 1.17D-11
 IDIUse=1 WtCom= 1.00D+00 WtEn= 0.00D+00
 Coeff-Com:  0.111D-04-0.218D-02-0.160D-02 0.115D-02 0.466D-01 0.243D+00
 Coeff-Com:  0.714D+00
 Coeff:      0.111D-04-0.218D-02-0.160D-02 0.115D-02 0.466D-01 0.243D+00
 Coeff:      0.714D+00
 Gap=     0.234 Goal=   None    Shift=    0.000
 RMSDP=3.53D-09 MaxDP=1.93D-07 DE=-1.14D-11 OVMax= 4.41D-07

 SCF Done:  E(RB3LYP) =  -467.273764309     A.U. after    9 cycles
            NFock=  9  Conv=0.35D-08     -V/T= 2.0054
 KE= 4.647651383744D+02 PE=-2.320144508230D+03 EE= 7.706710586266D+02
 Leave Link  502 at Sat May  4 10:46:09 2024, MaxMem= 13421772800 cpu:            1369.3 elap:              42.9
 (Enter /tmpu/scunam/7/gaussian-2016.03/g1/g16/l508.exe)
 QCSCF skips out because SCF is already converged.
 Leave Link  508 at Sat May  4 10:46:09 2024, MaxMem= 13421772800 cpu:               0.2 elap:               0.0
 (Enter /tmpu/scunam/7/gaussian-2016.03/g1/g16/l701.exe)
 ... and contract with generalized density number  0.
 Compute integral first derivatives.
   1 Symmetry operations used in ECPInt.
 ECPInt:  NShTT=   18721 NPrTT=   54252 LenC2=   17413 LenP2D=   38537.
 LDataN:  DoStor=T MaxTD1= 7 Len=  274
 Leave Link  701 at Sat May  4 10:46:10 2024, MaxMem= 13421772800 cpu:              10.6 elap:               0.4
 (Enter /tmpu/scunam/7/gaussian-2016.03/g1/g16/l702.exe)
 L702 exits ... SP integral derivatives will be done elsewhere.
 Leave Link  702 at Sat May  4 10:46:10 2024, MaxMem= 13421772800 cpu:               0.6 elap:               0.0
 (Enter /tmpu/scunam/7/gaussian-2016.03/g1/g16/l703.exe)
 Integral derivatives from FoFJK, PRISM(SPDF).
 Compute integral first derivatives, UseDBF=F ICtDFT=           0.
 Calling FoFJK, ICntrl=      2127 FMM=F ISym2X=0 I1Cent= 0 IOpClX= 0 NMat=1 NMatS=1 NMatT=0.
 FoFJK:  IHMeth= 1 ICntrl=    2127 DoSepK=F KAlg= 0 I1Cent=           0 FoldK=F
 IRaf=         0 NMat=       1 IRICut=       1 DoRegI=T DoRafI=F ISym2E= 0 IDoP0=0 IntGTp=1.
 FoFCou: FMM=F IPFlag=           0 FMFlag=      100000 FMFlg1=         800
         NFxFlg=           0 DoJE=F BraDBF=F KetDBF=F FulRan=T
         wScrn=  0.000000 ICntrl=      2127 IOpCl=  0 I1Cent=           0 NGrid=           0
         NMat0=    1 NMatS0=      1 NMatT0=    0 NMatD0=    1 NMtDS0=    0 NMtDT0=    0
 Symmetry not used in FoFCou.
 Leave Link  703 at Sat May  4 10:46:31 2024, MaxMem= 13421772800 cpu:             664.1 elap:              20.8
 (Enter /tmpu/scunam/7/gaussian-2016.03/g1/g16/l716.exe)
 Dipole        = 5.59211696D-01 3.80645915D-01 1.12417813D-01
 ***** Axes restored to original set *****
 -------------------------------------------------------------------
 Center     Atomic                   Forces (Hartrees/Bohr)
 Number     Number              X              Y              Z
 -------------------------------------------------------------------
      1        8          -0.000010823   -0.000008835   -0.000019422
      2        6          -0.000007301    0.000004057   -0.000019469
      3        6           0.000000960    0.000007695    0.000008368
      4        6          -0.000006315    0.000017991    0.000022498
      5        6           0.000011141    0.000025781   -0.000004425
      6        6          -0.000010211   -0.000036389    0.000001200
      7        6          -0.000002707    0.000005592   -0.000010737
      8        6           0.000006270   -0.000029589   -0.000000959
      9        6          -0.000021285    0.000017316   -0.000006166
     10        6          -0.000012122   -0.000011414    0.000002051
     11        6          -0.000026436    0.000010689    0.000027753
     12        1          -0.000001361   -0.000001282   -0.000003751
     13        1           0.000012270    0.000000784    0.000000122
     14        1          -0.000012303    0.000014985   -0.000003921
     15        1          -0.000002802   -0.000005595   -0.000014907
     16        1          -0.000006460    0.000004872   -0.000000821
     17        1           0.000002426    0.000006759    0.000000334
     18        1           0.000006008   -0.000005207    0.000010557
     19        1           0.000017331   -0.000007557   -0.000002501
     20        1          -0.000007328    0.000004434    0.000009172
     21        1           0.000011890    0.000002911    0.000004007
     22        1           0.000010478   -0.000010231    0.000000158
     23        1           0.000006825   -0.000003992   -0.000011067
     24        1           0.000000005   -0.000004597    0.000005913
     25        1           0.000009934    0.000003535    0.000008051
     26        1           0.000019873    0.000001229   -0.000004140
     27        1          -0.000000935    0.000001316    0.000010523
     28        1           0.000000721   -0.000001507   -0.000005708
     29        1           0.000012256   -0.000003753   -0.000002713
 -------------------------------------------------------------------
 Cartesian Forces:  Max     0.000036389 RMS     0.000011321
 Leave Link  716 at Sat May  4 10:46:31 2024, MaxMem= 13421772800 cpu:               0.7 elap:               0.0
 (Enter /tmpu/scunam/7/gaussian-2016.03/g1/g16/l103.exe)

 GradGradGradGradGradGradGradGradGradGradGradGradGradGradGradGradGradGrad
 Berny optimization.
 Using GEDIIS/GDIIS optimizer.
 FormGI is forming the generalized inverse of G from B-inverse, IUseBI=4.
 Internal  Forces:  Max     0.000062939 RMS     0.000012260
 Search for a local minimum.
 Step number  10 out of a maximum of  174
 All quantities printed in internal units (Hartrees-Bohrs-Radians)
 RMS Force = .12260D-04 SwitMx=.10000D-02 MixMth= 2
 Mixed Optimization -- En-DIIS/RFO-DIIS
 Swapping is turned off.
 Update second derivatives using D2CorX and points    5    6    7    8    9
                                                     10
 DE= -1.41D-06 DEPred=-7.53D-07 R= 1.87D+00
 TightC=F SS=  1.41D+00  RLast= 3.07D-02 DXNew= 1.6575D+00 9.2060D-02
 Trust test= 1.87D+00 RLast= 3.07D-02 DXMaxT set to 9.86D-01
 ITU=  1  1  1  1  1  1  1  1  1  0
     Eigenvalues ---    0.00120   0.00185   0.00248   0.00325   0.00341
     Eigenvalues ---    0.00571   0.00729   0.01173   0.01343   0.01560
     Eigenvalues ---    0.01575   0.02847   0.02937   0.02950   0.03153
     Eigenvalues ---    0.04252   0.04585   0.04676   0.05458   0.05471
     Eigenvalues ---    0.05711   0.06633   0.06931   0.07070   0.07246
     Eigenvalues ---    0.07339   0.08360   0.08931   0.09299   0.12641
     Eigenvalues ---    0.12849   0.14776   0.15979   0.15996   0.16000
     Eigenvalues ---    0.16000   0.16000   0.16000   0.16001   0.16025
     Eigenvalues ---    0.16043   0.16065   0.16211   0.16334   0.16430
     Eigenvalues ---    0.16904   0.17560   0.21759   0.22143   0.22161
     Eigenvalues ---    0.22669   0.24665   0.27728   0.28771   0.29030
     Eigenvalues ---    0.29738   0.31432   0.31990   0.32364   0.33010
     Eigenvalues ---    0.33735   0.33807   0.34060   0.34086   0.34127
     Eigenvalues ---    0.34183   0.34206   0.34247   0.34298   0.34313
     Eigenvalues ---    0.34432   0.34508   0.34897   0.34929   0.35402
     Eigenvalues ---    0.35645   0.36350   0.40274   0.52971   0.57412
     Eigenvalues ---    0.59801
 En-DIIS/RFO-DIIS/Sim-DIIS IScMMF=       -3 using points:    10    9    8    7    6    5    4    3    2
 RFO step:  Lambda=-3.25040759D-07.
 NNeg= 0 NGDIIS= 9 SimSw=  2.50D-01 Rises=F DC= -1.41D-06 SmlDif=  1.00D-05
 NRisDI= 0 DoIntr=F SqrtH=F CThrHd= 10.0 CDAdj=  3.0
 RMS Error=  0.7445037502D-03 NUsed= 9 OKEnD=F EnDIS=F
 InvSVX:  RCond= 1.54D-07 Info=           0 Equed=N FErr=  6.61D-12 BErr=  1.05D-16
 DidBck=F Rises=F RFO-DIIS coefs:    1.33581   -0.20651   -0.29083    0.03406    0.22219
                  RFO-DIIS coefs:   -0.14641    0.04635   -0.01222    0.01757
 Iteration  1 RMS(Cart)=  0.00234908 RMS(Int)=  0.00000222
 Iteration  2 RMS(Cart)=  0.00000277 RMS(Int)=  0.00000058
 Iteration  3 RMS(Cart)=  0.00000000 RMS(Int)=  0.00000058
 ITry= 1 IFail=0 DXMaxC= 1.01D-02 DCOld= 1.00D+10 DXMaxT= 9.86D-01 DXLimC= 3.00D+00 Rises=F
 Variable       Old X    -DE/DX   Delta X   Delta X   Delta X     New X
                                 (Linear)    (Quad)   (Total)
    R1        2.73208   0.00001   0.00019  -0.00011   0.00008   2.73216
    R2        1.82291  -0.00001   0.00005  -0.00005  -0.00001   1.82291
    R3        2.91821  -0.00000  -0.00007  -0.00001  -0.00008   2.91813
    R4        2.87769  -0.00000  -0.00000   0.00002   0.00001   2.87770
    R5        2.86010  -0.00004   0.00026  -0.00032  -0.00006   2.86003
    R6        2.90421   0.00002   0.00027  -0.00014   0.00013   2.90435
    R7        2.07199   0.00000  -0.00007   0.00007  -0.00001   2.07199
    R8        2.06683  -0.00000  -0.00001  -0.00000  -0.00001   2.06682
    R9        2.83716  -0.00001  -0.00004   0.00008   0.00003   2.83719
   R10        2.05963   0.00001   0.00005  -0.00000   0.00005   2.05968
   R11        2.06996  -0.00001  -0.00001  -0.00005  -0.00006   2.06990
   R12        2.06061  -0.00000   0.00001  -0.00002  -0.00000   2.06060
   R13        2.05929   0.00000  -0.00001   0.00002   0.00000   2.05930
   R14        2.05828   0.00000   0.00002  -0.00002   0.00001   2.05829
   R15        2.50562   0.00001  -0.00008   0.00007  -0.00000   2.50562
   R16        2.05873  -0.00000  -0.00000  -0.00001  -0.00001   2.05872
   R17        2.52435  -0.00003   0.00008  -0.00012  -0.00003   2.52432
   R18        2.05684  -0.00000  -0.00008   0.00004  -0.00004   2.05680
   R19        2.84575   0.00000   0.00019  -0.00016   0.00003   2.84579
   R20        2.84307  -0.00000  -0.00031   0.00025  -0.00005   2.84301
   R21        2.06930  -0.00001   0.00007  -0.00008  -0.00001   2.06928
   R22        2.06940  -0.00001   0.00007  -0.00009  -0.00003   2.06937
   R23        2.06001   0.00000  -0.00006   0.00006   0.00000   2.06001
   R24        2.06902   0.00000   0.00007  -0.00004   0.00003   2.06905
   R25        2.05567   0.00002   0.00001   0.00004   0.00005   2.05573
   R26        2.06888  -0.00001   0.00001  -0.00005  -0.00004   2.06884
   R27        2.04617  -0.00000   0.00002  -0.00002   0.00000   2.04618
   R28        2.04582   0.00000   0.00006  -0.00005   0.00001   2.04583
    A1        1.89546   0.00001  -0.00009   0.00011   0.00002   1.89548
    A2        1.88358  -0.00000   0.00012  -0.00010   0.00002   1.88360
    A3        1.82196   0.00000  -0.00007   0.00011   0.00004   1.82200
    A4        1.88380   0.00001  -0.00012   0.00012   0.00000   1.88381
    A5        1.95847   0.00002   0.00009   0.00001   0.00010   1.95857
    A6        1.92306  -0.00000   0.00003  -0.00005  -0.00001   1.92305
    A7        1.98604  -0.00002  -0.00006  -0.00008  -0.00014   1.98590
    A8        2.03263   0.00001  -0.00025   0.00023  -0.00002   2.03260
    A9        1.88435  -0.00000   0.00023  -0.00020   0.00004   1.88439
   A10        1.87011  -0.00001   0.00010  -0.00012  -0.00003   1.87008
   A11        1.89386  -0.00001  -0.00002   0.00002  -0.00000   1.89386
   A12        1.91809   0.00000  -0.00012   0.00013   0.00002   1.91811
   A13        1.85696   0.00000   0.00009  -0.00009   0.00000   1.85696
   A14        1.95397   0.00000   0.00015  -0.00009   0.00006   1.95403
   A15        1.91328   0.00001  -0.00008   0.00010   0.00002   1.91330
   A16        1.89971  -0.00000  -0.00015   0.00011  -0.00004   1.89967
   A17        1.94458  -0.00001   0.00002  -0.00019  -0.00017   1.94441
   A18        1.89393   0.00000   0.00002   0.00004   0.00006   1.89399
   A19        1.85511   0.00000   0.00003   0.00004   0.00007   1.85519
   A20        1.90956  -0.00001   0.00008  -0.00010  -0.00002   1.90954
   A21        1.92077  -0.00000  -0.00010   0.00005  -0.00004   1.92072
   A22        1.95209   0.00002  -0.00014   0.00024   0.00011   1.95220
   A23        1.88788   0.00001   0.00006  -0.00003   0.00004   1.88792
   A24        1.89465  -0.00001   0.00001  -0.00007  -0.00006   1.89458
   A25        1.89760  -0.00001   0.00009  -0.00011  -0.00002   1.89759
   A26        2.23365  -0.00001  -0.00007   0.00000  -0.00006   2.23359
   A27        1.98170   0.00000  -0.00017   0.00016  -0.00002   1.98168
   A28        2.06782   0.00001   0.00024  -0.00016   0.00008   2.06790
   A29        2.24586  -0.00005  -0.00042  -0.00001  -0.00044   2.24543
   A30        1.99576   0.00003   0.00034  -0.00002   0.00032   1.99608
   A31        2.04153   0.00002   0.00009   0.00003   0.00012   2.04164
   A32        2.10785   0.00004  -0.00023   0.00035   0.00012   2.10798
   A33        2.18084  -0.00006   0.00008  -0.00035  -0.00027   2.18057
   A34        1.99448   0.00002   0.00014   0.00001   0.00015   1.99463
   A35        1.93750  -0.00001   0.00002  -0.00009  -0.00007   1.93744
   A36        1.93682   0.00000  -0.00002   0.00007   0.00005   1.93687
   A37        1.95195  -0.00000  -0.00003  -0.00001  -0.00004   1.95190
   A38        1.85782   0.00000  -0.00015   0.00018   0.00003   1.85785
   A39        1.88847   0.00000   0.00009  -0.00009   0.00000   1.88847
   A40        1.88779  -0.00000   0.00008  -0.00006   0.00003   1.88782
   A41        1.92842   0.00001  -0.00002   0.00009   0.00006   1.92848
   A42        1.97949  -0.00001   0.00013  -0.00020  -0.00008   1.97941
   A43        1.92740   0.00001  -0.00005   0.00014   0.00010   1.92750
   A44        1.88323  -0.00000  -0.00001  -0.00006  -0.00006   1.88316
   A45        1.85598  -0.00000  -0.00007   0.00008   0.00001   1.85599
   A46        1.88441  -0.00000   0.00001  -0.00004  -0.00003   1.88438
   A47        2.11318  -0.00001   0.00033  -0.00029   0.00004   2.11322
   A48        2.13740   0.00000  -0.00005   0.00005   0.00000   2.13740
   A49        2.03260   0.00000  -0.00028   0.00023  -0.00004   2.03256
    D1        1.00144  -0.00000   0.00087   0.00002   0.00089   1.00233
    D2        3.08796   0.00002   0.00099   0.00004   0.00103   3.08899
    D3       -1.07664  -0.00000   0.00083   0.00006   0.00089  -1.07576
    D4        3.09217   0.00000  -0.00035   0.00029  -0.00006   3.09211
    D5       -1.05667   0.00000  -0.00036   0.00031  -0.00005  -1.05672
    D6        0.93725  -0.00000  -0.00010   0.00005  -0.00004   0.93721
    D7        1.09430  -0.00001  -0.00038   0.00021  -0.00017   1.09414
    D8       -3.05453  -0.00001  -0.00039   0.00023  -0.00016  -3.05469
    D9       -1.06061  -0.00001  -0.00013  -0.00002  -0.00015  -1.06076
   D10       -1.13808   0.00001  -0.00040   0.00035  -0.00005  -1.13813
   D11        0.99627   0.00001  -0.00041   0.00037  -0.00004   0.99623
   D12        2.99019   0.00000  -0.00015   0.00011  -0.00003   2.99016
   D13       -1.07312  -0.00000  -0.00046   0.00033  -0.00013  -1.07325
   D14        0.99893  -0.00000  -0.00040   0.00027  -0.00013   0.99880
   D15        3.11016  -0.00000  -0.00044   0.00033  -0.00011   3.11005
   D16        0.96211   0.00000  -0.00032   0.00028  -0.00003   0.96207
   D17        3.03416   0.00000  -0.00025   0.00022  -0.00003   3.03413
   D18       -1.13780   0.00000  -0.00029   0.00028  -0.00001  -1.13780
   D19       -3.12253  -0.00000  -0.00024   0.00016  -0.00008  -3.12261
   D20       -1.05048  -0.00000  -0.00018   0.00010  -0.00008  -1.05055
   D21        1.06075  -0.00000  -0.00022   0.00016  -0.00006   1.06070
   D22       -2.12973  -0.00001  -0.00059  -0.00052  -0.00112  -2.13085
   D23        1.00560  -0.00001  -0.00056  -0.00061  -0.00118   1.00443
   D24        2.10066  -0.00001  -0.00069  -0.00045  -0.00114   2.09952
   D25       -1.04720  -0.00001  -0.00066  -0.00054  -0.00120  -1.04840
   D26       -0.11646  -0.00001  -0.00079  -0.00036  -0.00115  -0.11761
   D27        3.01888  -0.00001  -0.00076  -0.00045  -0.00121   3.01766
   D28       -3.13926  -0.00000  -0.00109   0.00020  -0.00089  -3.14015
   D29        0.97672   0.00001  -0.00117   0.00044  -0.00073   0.97599
   D30       -1.04562  -0.00000  -0.00107   0.00027  -0.00081  -1.04643
   D31        1.01456  -0.00001  -0.00121   0.00029  -0.00092   1.01364
   D32       -1.15264   0.00000  -0.00129   0.00052  -0.00076  -1.15341
   D33        3.10820  -0.00000  -0.00119   0.00035  -0.00084   3.10736
   D34       -1.00934  -0.00001  -0.00124   0.00031  -0.00093  -1.01027
   D35        3.10664   0.00000  -0.00132   0.00054  -0.00077   3.10587
   D36        1.08430  -0.00000  -0.00122   0.00037  -0.00085   1.08345
   D37       -2.06012   0.00000   0.00300  -0.00006   0.00294  -2.05718
   D38        1.07200   0.00000   0.00289   0.00009   0.00298   1.07499
   D39        0.08950   0.00000   0.00302  -0.00013   0.00289   0.09239
   D40       -3.06156   0.00000   0.00291   0.00002   0.00293  -3.05863
   D41        2.12605   0.00000   0.00308  -0.00016   0.00292   2.12897
   D42       -1.02501   0.00000   0.00297  -0.00001   0.00296  -1.02205
   D43        3.12792  -0.00000  -0.00001  -0.00010  -0.00011   3.12781
   D44       -0.00974   0.00001   0.00002   0.00027   0.00028  -0.00946
   D45       -0.00714  -0.00000  -0.00004  -0.00001  -0.00005  -0.00719
   D46        3.13838   0.00001  -0.00002   0.00036   0.00035   3.13872
   D47        3.13920  -0.00000  -0.00030   0.00014  -0.00017   3.13903
   D48       -0.00684  -0.00000  -0.00074   0.00037  -0.00037  -0.00721
   D49        0.00729  -0.00001  -0.00019  -0.00002  -0.00021   0.00708
   D50       -3.13875  -0.00000  -0.00063   0.00021  -0.00041  -3.13917
   D51       -2.11642   0.00001   0.00077   0.00072   0.00149  -2.11493
   D52        2.10442   0.00001   0.00095   0.00051   0.00146   2.10588
   D53       -0.00533   0.00000   0.00088   0.00054   0.00142  -0.00391
   D54        1.02917   0.00001   0.00116   0.00052   0.00167   1.03084
   D55       -1.03317   0.00001   0.00135   0.00030   0.00164  -1.03153
   D56        3.14026   0.00000   0.00127   0.00033   0.00160  -3.14132
   D57       -2.09325   0.00001   0.00312   0.00036   0.00347  -2.08978
   D58        0.02371   0.00001   0.00318   0.00020   0.00338   0.02710
   D59        2.14147   0.00000   0.00324   0.00012   0.00336   2.14483
   D60        1.04415   0.00001   0.00271   0.00057   0.00328   1.04743
   D61       -3.12207   0.00001   0.00277   0.00042   0.00319  -3.11888
   D62       -1.00431   0.00000   0.00284   0.00033   0.00317  -1.00114
         Item               Value     Threshold  Converged?
 Maximum Force            0.000063     0.000450     YES
 RMS     Force            0.000012     0.000300     YES
 Maximum Displacement     0.010125     0.001800     NO 
 RMS     Displacement     0.002349     0.001200     NO 
 Predicted change in Energy=-1.222505D-07
 Lowest energy point so far.  Saving SCF results.
 GradGradGradGradGradGradGradGradGradGradGradGradGradGradGradGradGradGrad

 Leave Link  103 at Sat May  4 10:46:31 2024, MaxMem= 13421772800 cpu:               2.2 elap:               0.1
 (Enter /tmpu/scunam/7/gaussian-2016.03/g1/g16/l202.exe)
                          Input orientation:                          
 ---------------------------------------------------------------------
 Center     Atomic      Atomic             Coordinates (Angstroms)
 Number     Number       Type             X           Y           Z
 ---------------------------------------------------------------------
      1          8           0        2.728438   -1.312785   -1.178866
      2          6           0        1.988144   -0.545958   -0.201995
      3          6           0        0.488701   -0.868192   -0.382041
      4          6           0       -0.478542   -0.203496    0.610292
      5          6           0        2.523125   -1.026031    1.140498
      6          6           0        2.242869    0.921445   -0.471107
      7          6           0       -1.905816   -0.586570    0.345185
      8          6           0       -2.930857    0.198906    0.003555
      9          6           0       -4.302369   -0.379628   -0.224617
     10          6           0       -2.849544    1.689710   -0.181611
     11          6           0        2.748624    1.826668    0.355233
     12          1           0        0.199653   -0.576077   -1.398565
     13          1           0        0.384301   -1.955756   -0.331880
     14          1           0       -0.345223    0.877905    0.582820
     15          1           0       -0.216311   -0.519778    1.625661
     16          1           0        2.319132   -2.091402    1.251839
     17          1           0        3.602046   -0.880000    1.186541
     18          1           0        2.062721   -0.496148    1.973330
     19          1           0        1.969852    1.232841   -1.478752
     20          1           0       -2.110328   -1.651245    0.441518
     21          1           0        2.401136   -1.088771   -2.058198
     22          1           0       -4.654756   -0.165915   -1.239119
     23          1           0       -5.034018    0.065359    0.457910
     24          1           0       -4.315903   -1.460015   -0.079982
     25          1           0       -3.520882    2.199915    0.516812
     26          1           0       -1.848429    2.089465   -0.035424
     27          1           0       -3.181110    1.968710   -1.186983
     28          1           0        2.895484    2.851841    0.039183
     29          1           0        3.039264    1.588607    1.370563
 ---------------------------------------------------------------------
                    Distance matrix (angstroms):
                    1          2          3          4          5
     1  O    0.000000
     2  C    1.445799   0.000000
     3  C    2.418474   1.544210   0.000000
     4  C    3.836187   2.619472   1.536914   0.000000
     5  C    2.346024   1.522814   2.545962   3.157164   0.000000
     6  C    2.393425   1.513465   2.507557   3.137036   2.543320
     7  C    4.932183   3.932427   2.518308   1.501378   4.521190
     8  C    5.975864   4.979322   3.602882   2.558106   5.704299
     9  C    7.156369   6.292753   4.818488   3.917876   6.990618
    10  C    6.412751   5.329339   4.210334   3.135760   6.163505
    11  C    3.494286   2.553074   3.593480   3.821154   2.967387
    12  H    2.643059   2.152066   1.096448   2.152735   3.470997
    13  H    2.574058   2.139326   1.093715   2.168549   2.758053
    14  H    4.165339   2.843927   2.162230   1.089934   3.487606
    15  H    4.143160   2.863675   2.156224   1.095342   2.827752
    16  H    2.584976   2.147460   2.741585   3.435514   1.090425
    17  H    2.558445   2.155062   3.486188   4.176233   1.089732
    18  H    3.323614   2.177172   2.857224   2.898540   1.089199
    19  H    2.673125   2.189650   2.794803   3.524457   3.502725
    20  H    5.114083   4.293395   2.836612   2.187964   4.727404
    21  H    0.964642   1.977548   2.552560   4.024561   3.201636
    22  H    7.471981   6.734106   5.261456   4.567548   7.610805
    23  H    8.051959   7.079545   5.663697   4.565946   7.665994
    24  H    7.131057   6.371139   4.850331   4.096420   6.960619
    25  H    7.366708   6.197247   5.128154   3.878267   6.879369
    26  H    5.816397   4.657520   3.785506   2.747946   5.495415
    27  H    6.759514   5.832233   4.707808   3.905451   6.850105
    28  H    4.342310   3.525119   4.450694   4.587515   4.048387
    29  H    3.874826   2.852044   3.951311   4.020523   2.675007
                    6          7          8          9         10
     6  C    0.000000
     7  C    4.489101   0.000000
     8  C    5.245456   1.335812   0.000000
     9  C    6.677851   2.472038   1.505925   0.000000
    10  C    5.158169   2.519839   1.504459   2.528777   0.000000
    11  C    1.325916   5.242864   5.918597   7.410835   5.625517
    12  H    2.697681   2.733820   3.516622   4.656711   3.989032
    13  H    3.428111   2.752767   3.968042   4.945762   4.875424
    14  H    2.794795   2.153278   2.735341   4.229935   2.741351
    15  H    3.538520   2.120968   3.242915   4.487655   3.883554
    16  H    3.471543   4.575666   5.862262   6.996740   6.562530
    17  H    2.800065   5.579473   6.726241   8.044969   7.078012
    18  H    2.831483   4.290491   5.412849   6.734903   5.792417
    19  H    1.089428   4.653794   5.223332   6.596489   5.011774
    20  H    5.138282   1.088411   2.070782   2.620266   3.478033
    21  H    2.566101   4.957649   5.859956   6.985834   6.229861
    22  H    7.024915   3.200570   2.156191   1.095018   2.796508
    23  H    7.385732   3.197401   2.155820   1.095065   2.796325
    24  H    6.988693   2.598499   2.162719   1.090109   3.475818
    25  H    5.985924   3.225274   2.148395   2.795440   1.094896
    26  H    4.277009   2.703575   2.178849   3.486264   1.087844
    27  H    5.570349   3.240890   2.147606   2.774538   1.094783
    28  H    2.100650   5.913441   6.401998   7.894370   5.865547
    29  H    2.114497   5.498782   6.280313   7.766475   6.090774
                   11         12         13         14         15
    11  C    0.000000
    12  H    3.917428   0.000000
    13  H    4.513190   1.753689   0.000000
    14  H    3.244046   2.517308   3.065700   0.000000
    15  H    3.988814   3.053217   2.500947   1.748615   0.000000
    16  H    4.042232   3.716590   2.504024   4.045140   3.006362
    17  H    2.957271   4.283855   3.717087   4.362985   3.860367
    18  H    2.912761   3.853191   3.203364   3.101570   2.305519
    19  H    2.079090   2.532236   3.741181   3.120197   4.181909
    20  H    5.976013   3.142913   2.629457   3.087420   2.503940
    21  H    3.800681   2.354675   2.792751   4.287805   4.554733
    22  H    7.830861   4.874315   5.423902   4.793860   5.294524
    23  H    7.980117   5.590103   5.836682   4.760319   4.991627
    24  H    7.803797   4.786466   4.732984   4.655264   4.538714
    25  H    6.282684   5.021671   5.765443   3.440476   4.421138
    26  H    4.621101   3.627383   4.629987   2.027247   3.497308
    27  H    6.128650   4.236776   5.370735   3.516292   4.784723
    28  H    1.082790   4.591867   5.436609   3.833294   4.854688
    29  H    1.082608   4.518552   4.744434   3.546884   3.887046
                   16         17         18         19         20
    16  H    0.000000
    17  H    1.765680   0.000000
    18  H    1.769500   1.770847   0.000000
    19  H    4.316100   3.772524   3.861980   0.000000
    20  H    4.524431   5.812150   4.592933   5.352873   0.000000
    21  H    3.459528   3.466136   4.088880   2.431388   5.188281
    22  H    7.651633   8.635307   7.453414   6.774908   3.391882
    23  H    7.703945   8.718154   7.278427   7.359882   3.390423
    24  H    6.796771   8.039553   6.769932   6.979882   2.274444
    25  H    7.284327   7.789127   6.369208   5.921627   4.102044
    26  H    6.041958   6.326025   5.100743   4.170883   3.780076
    27  H    7.258445   7.730457   6.600066   5.211434   4.111285
    28  H    5.122340   3.967656   3.955180   2.404596   6.745206
    29  H    3.751687   2.538623   2.379741   3.064116   6.154515
                   21         22         23         24         25
    21  H    0.000000
    22  H    7.162972   0.000000
    23  H    7.933746   1.754204   0.000000
    24  H    7.012116   1.770061   1.769684   0.000000
    25  H    7.246822   3.156915   2.617133   3.792534   0.000000
    26  H    5.679049   3.796194   3.806358   4.323103   1.764727
    27  H    6.424070   2.594412   3.124370   3.777481   1.752661
    28  H    4.491304   8.230858   8.415273   8.403000   6.467061
    29  H    4.396812   8.311843   8.266263   8.093001   6.643651
                   26         27         28         29
    26  H    0.000000
    27  H    1.765420   0.000000
    28  H    4.805361   6.261661   0.000000
    29  H    5.110499   6.736362   1.840925   0.000000
 Stoichiometry    C10H18O
 Framework group  C1[X(C10H18O)]
 Deg. of freedom    81
 Full point group                 C1      NOp   1
 RotChk:  IX=2 Diff= 5.79D-04
 Largest Abelian subgroup         C1      NOp   1
 Largest concise Abelian subgroup C1      NOp   1
                         Standard orientation:                         
 ---------------------------------------------------------------------
 Center     Atomic      Atomic             Coordinates (Angstroms)
 Number     Number       Type             X           Y           Z
 ---------------------------------------------------------------------
      1          8           0       -2.795463   -1.169397    1.102383
      2          6           0       -2.010067   -0.397350    0.165670
      3          6           0       -0.534406   -0.827005    0.315361
      4          6           0        0.470662   -0.170666   -0.644411
      5          6           0       -2.580667   -0.762690   -1.198113
      6          6           0       -2.166593    1.065505    0.520818
      7          6           0        1.870632   -0.661132   -0.412757
      8          6           0        2.946471    0.034380   -0.034305
      9          6           0        4.277791   -0.645003    0.149644
     10          6           0        2.964195    1.514057    0.237058
     11          6           0       -2.614841    2.048305   -0.248099
     12          1           0       -0.222835   -0.613891    1.344780
     13          1           0       -0.502026   -1.914329    0.201828
     14          1           0        0.408932    0.913728   -0.553663
     15          1           0        0.184261   -0.409678   -1.674277
     16          1           0       -2.447686   -1.830881   -1.372205
     17          1           0       -3.647804   -0.543878   -1.227399
     18          1           0       -2.089595   -0.216699   -2.002536
     19          1           0       -1.869782    1.299391    1.542608
     20          1           0        2.004235   -1.729535   -0.571831
     21          1           0       -2.450733   -1.018673    1.990627
     22          1           0        4.647395   -0.514021    1.172043
     23          1           0        5.034509   -0.210065   -0.511699
     24          1           0        4.219611   -1.713747   -0.057093
     25          1           0        3.664966    2.018834   -0.435935
     26          1           0        1.991013    1.986330    0.121819
     27          1           0        3.317287    1.711967    1.254264
     28          1           0       -2.692670    3.060839    0.127603
     29          1           0       -2.924438    1.889073   -1.273201
 ---------------------------------------------------------------------
 Rotational constants (GHZ):           1.9649066           0.4632559           0.4212627
 Leave Link  202 at Sat May  4 10:46:31 2024, MaxMem= 13421772800 cpu:               2.8 elap:               0.1
 (Enter /tmpu/scunam/7/gaussian-2016.03/g1/g16/l301.exe)
 Standard basis: def2TZVP (5D, 7F)
 Ernie: Thresh=  0.10000D-02 Tol=  0.10000D-05 Strict=F.
 There are   504 symmetry adapted cartesian basis functions of A   symmetry.
 There are   449 symmetry adapted basis functions of A   symmetry.
   449 basis functions,   705 primitive gaussians,   504 cartesian basis functions
    43 alpha electrons       43 beta electrons
       nuclear repulsion energy       617.4789709513 Hartrees.
 IExCor=  402 DFT=T Ex+Corr=B3LYP ExCW=0 ScaHFX=  0.200000
 ScaDFX=  0.800000  0.720000  1.000000  0.810000 ScalE2=  1.000000  1.000000
 IRadAn=      5 IRanWt=     -1 IRanGd=            0 ICorTp=0 IEmpDi=  4
 NAtoms=   29 NActive=   29 NUniq=   29 SFac= 1.00D+00 NAtFMM=   60 NAOKFM=F Big=F
 Integral buffers will be    131072 words long.
 Raffenetti 2 integral format.
 Two-electron integral symmetry is turned on.
 Leave Link  301 at Sat May  4 10:46:31 2024, MaxMem= 13421772800 cpu:               2.7 elap:               0.1
 (Enter /tmpu/scunam/7/gaussian-2016.03/g1/g16/l302.exe)
 NPDir=0 NMtPBC=     1 NCelOv=     1 NCel=       1 NClECP=     1 NCelD=      1
         NCelK=      1 NCelE2=     1 NClLst=     1 CellRange=     0.0.
 One-electron integrals computed using PRISM.
 One-electron integral symmetry used in STVInt
   1 Symmetry operations used in ECPInt.
 ECPInt:  NShTT=   18721 NPrTT=   54252 LenC2=   17415 LenP2D=   38538.
 LDataN:  DoStor=T MaxTD1= 6 Len=  172
 NBasis=   449 RedAO= T EigKep=  6.64D-05  NBF=   449
 NBsUse=   449 1.00D-06 EigRej= -1.00D+00 NBFU=   449
 Precomputing XC quadrature grid using
 IXCGrd= 4 IRadAn=           5 IRanWt=          -1 IRanGd=           0 AccXCQ= 0.00D+00.
 Generated NRdTot=       0 NPtTot=           0 NUsed=           0 NTot=          32
 NSgBfM=   501   501   501   501   501 MxSgAt=    29 MxSgA2=    29.
 Leave Link  302 at Sat May  4 10:46:32 2024, MaxMem= 13421772800 cpu:              17.0 elap:               0.6
 (Enter /tmpu/scunam/7/gaussian-2016.03/g1/g16/l303.exe)
 DipDrv:  MaxL=1.
 Leave Link  303 at Sat May  4 10:46:32 2024, MaxMem= 13421772800 cpu:               3.1 elap:               0.1
 (Enter /tmpu/scunam/7/gaussian-2016.03/g1/g16/l401.exe)
 Initial guess from the checkpoint file:  "linalool.chk"
 B after Tr=    -0.000000   -0.000000   -0.000000
         Rot=    1.000000    0.000263   -0.000026   -0.000013 Ang=   0.03 deg.
 Guess basis will be translated and rotated to current coordinates.
 JPrj=2 DoOrth=T DoCkMO=T.
 Leave Link  401 at Sat May  4 10:46:32 2024, MaxMem= 13421772800 cpu:              11.4 elap:               0.4
 (Enter /tmpu/scunam/7/gaussian-2016.03/g1/g16/l502.exe)
 Integral symmetry usage will be decided dynamically.
 Closed shell SCF:
 Using DIIS extrapolation, IDIIS=  1040.
 NGot= 13421772800 LenX= 13421243903 LenY= 13420989383
 Requested convergence on RMS density matrix=1.00D-08 within 128 cycles.
 Requested convergence on MAX density matrix=1.00D-06.
 Requested convergence on             energy=1.00D-06.
 No special actions if energy rises.
 Fock matrices will be formed incrementally for  20 cycles.

 Cycle   1  Pass 1  IDiag  1:
 FoFJK:  IHMeth= 1 ICntrl=       0 DoSepK=F KAlg= 0 I1Cent=           0 FoldK=F
 IRaf= 880000000 NMat=       1 IRICut=       1 DoRegI=T DoRafI=F ISym2E= 0 IDoP0=0 IntGTp=1.
 FoFCou: FMM=F IPFlag=           0 FMFlag=      100000 FMFlg1=           0
         NFxFlg=           0 DoJE=F BraDBF=F KetDBF=F FulRan=T
         wScrn=  0.000000 ICntrl=         0 IOpCl=  0 I1Cent=           0 NGrid=           0
         NMat0=    1 NMatS0=      1 NMatT0=    0 NMatD0=    1 NMtDS0=    0 NMtDT0=    0
 Symmetry not used in FoFCou.
 E= -467.273756038195    
 DIIS: error= 9.29D-05 at cycle   1 NSaved=   1.
 NSaved= 1 IEnMin= 1 EnMin= -467.273756038195     IErMin= 1 ErrMin= 9.29D-05
 ErrMax= 9.29D-05  0.00D+00 EMaxC= 1.00D-01 BMatC= 6.35D-06 BMatP= 6.35D-06
 IDIUse=1 WtCom= 1.00D+00 WtEn= 0.00D+00
 Coeff-Com:  0.100D+01
 Coeff:      0.100D+01
 Gap=     0.629 Goal=   None    Shift=    0.000
 RMSDP=8.06D-06 MaxDP=3.33D-04              OVMax= 6.39D-04

 Cycle   2  Pass 1  IDiag  1:
 RMSU=  8.06D-06    CP:  1.00D+00
 E= -467.273764449180     Delta-E=       -0.000008410985 Rises=F Damp=F
 DIIS: error= 1.32D-05 at cycle   2 NSaved=   2.
 NSaved= 2 IEnMin= 2 EnMin= -467.273764449180     IErMin= 2 ErrMin= 1.32D-05
 ErrMax= 1.32D-05  0.00D+00 EMaxC= 1.00D-01 BMatC= 4.90D-08 BMatP= 6.35D-06
 IDIUse=1 WtCom= 1.00D+00 WtEn= 0.00D+00
 Coeff-Com: -0.560D-01 0.106D+01
 Coeff:     -0.560D-01 0.106D+01
 Gap=     0.234 Goal=   None    Shift=    0.000
 RMSDP=1.16D-06 MaxDP=5.76D-05 DE=-8.41D-06 OVMax= 8.25D-05

 Cycle   3  Pass 1  IDiag  1:
 RMSU=  1.03D-06    CP:  1.00D+00  1.07D+00
 E= -467.273764533898     Delta-E=       -0.000000084719 Rises=F Damp=F
 DIIS: error= 4.45D-06 at cycle   3 NSaved=   3.
 NSaved= 3 IEnMin= 3 EnMin= -467.273764533898     IErMin= 3 ErrMin= 4.45D-06
 ErrMax= 4.45D-06  0.00D+00 EMaxC= 1.00D-01 BMatC= 2.00D-08 BMatP= 4.90D-08
 IDIUse=1 WtCom= 1.00D+00 WtEn= 0.00D+00
 Coeff-Com: -0.275D-01 0.454D+00 0.574D+00
 Coeff:     -0.275D-01 0.454D+00 0.574D+00
 Gap=     0.234 Goal=   None    Shift=    0.000
 RMSDP=4.88D-07 MaxDP=1.79D-05 DE=-8.47D-08 OVMax= 4.55D-05

 Cycle   4  Pass 1  IDiag  1:
 RMSU=  3.45D-07    CP:  1.00D+00  1.07D+00  6.68D-01
 E= -467.273764546714     Delta-E=       -0.000000012815 Rises=F Damp=F
 DIIS: error= 2.60D-06 at cycle   4 NSaved=   4.
 NSaved= 4 IEnMin= 4 EnMin= -467.273764546714     IErMin= 4 ErrMin= 2.60D-06
 ErrMax= 2.60D-06  0.00D+00 EMaxC= 1.00D-01 BMatC= 5.99D-09 BMatP= 2.00D-08
 IDIUse=1 WtCom= 1.00D+00 WtEn= 0.00D+00
 Coeff-Com: -0.560D-02 0.659D-01 0.352D+00 0.588D+00
 Coeff:     -0.560D-02 0.659D-01 0.352D+00 0.588D+00
 Gap=     0.234 Goal=   None    Shift=    0.000
 RMSDP=1.70D-07 MaxDP=7.62D-06 DE=-1.28D-08 OVMax= 1.85D-05

 Cycle   5  Pass 1  IDiag  1:
 RMSU=  1.21D-07    CP:  1.00D+00  1.07D+00  7.28D-01  7.11D-01
 E= -467.273764551183     Delta-E=       -0.000000004469 Rises=F Damp=F
 DIIS: error= 6.76D-07 at cycle   5 NSaved=   5.
 NSaved= 5 IEnMin= 5 EnMin= -467.273764551183     IErMin= 5 ErrMin= 6.76D-07
 ErrMax= 6.76D-07  0.00D+00 EMaxC= 1.00D-01 BMatC= 2.72D-10 BMatP= 5.99D-09
 IDIUse=1 WtCom= 1.00D+00 WtEn= 0.00D+00
 Coeff-Com: -0.703D-04-0.119D-01 0.110D+00 0.261D+00 0.641D+00
 Coeff:     -0.703D-04-0.119D-01 0.110D+00 0.261D+00 0.641D+00
 Gap=     0.234 Goal=   None    Shift=    0.000
 RMSDP=5.50D-08 MaxDP=2.56D-06 DE=-4.47D-09 OVMax= 6.07D-06

 Cycle   6  Pass 1  IDiag  1:
 RMSU=  2.92D-08    CP:  1.00D+00  1.07D+00  7.60D-01  7.39D-01  7.35D-01
 E= -467.273764551403     Delta-E=       -0.000000000220 Rises=F Damp=F
 DIIS: error= 2.74D-07 at cycle   6 NSaved=   6.
 NSaved= 6 IEnMin= 6 EnMin= -467.273764551403     IErMin= 6 ErrMin= 2.74D-07
 ErrMax= 2.74D-07  0.00D+00 EMaxC= 1.00D-01 BMatC= 5.50D-11 BMatP= 2.72D-10
 IDIUse=1 WtCom= 1.00D+00 WtEn= 0.00D+00
 Coeff-Com:  0.460D-03-0.133D-01 0.340D-01 0.100D+00 0.375D+00 0.504D+00
 Coeff:      0.460D-03-0.133D-01 0.340D-01 0.100D+00 0.375D+00 0.504D+00
 Gap=     0.234 Goal=   None    Shift=    0.000
 RMSDP=1.61D-08 MaxDP=8.17D-07 DE=-2.20D-10 OVMax= 3.14D-06

 Cycle   7  Pass 1  IDiag  1:
 RMSU=  9.85D-09    CP:  1.00D+00  1.07D+00  7.63D-01  7.48D-01  7.40D-01
                    CP:  5.94D-01
 E= -467.273764551455     Delta-E=       -0.000000000053 Rises=F Damp=F
 DIIS: error= 4.98D-08 at cycle   7 NSaved=   7.
 NSaved= 7 IEnMin= 7 EnMin= -467.273764551455     IErMin= 7 ErrMin= 4.98D-08
 ErrMax= 4.98D-08  0.00D+00 EMaxC= 1.00D-01 BMatC= 2.49D-12 BMatP= 5.50D-11
 IDIUse=1 WtCom= 1.00D+00 WtEn= 0.00D+00
 Coeff-Com:  0.233D-03-0.598D-02 0.110D-01 0.354D-01 0.151D+00 0.256D+00
 Coeff-Com:  0.552D+00
 Coeff:      0.233D-03-0.598D-02 0.110D-01 0.354D-01 0.151D+00 0.256D+00
 Coeff:      0.552D+00
 Gap=     0.234 Goal=   None    Shift=    0.000
 RMSDP=4.87D-09 MaxDP=2.75D-07 DE=-5.28D-11 OVMax= 8.58D-07

 SCF Done:  E(RB3LYP) =  -467.273764551     A.U. after    7 cycles
            NFock=  7  Conv=0.49D-08     -V/T= 2.0054
 KE= 4.647652233484D+02 PE=-2.320233639155D+03 EE= 7.707156803042D+02
 Leave Link  502 at Sat May  4 10:47:09 2024, MaxMem= 13421772800 cpu:            1177.6 elap:              36.9
 (Enter /tmpu/scunam/7/gaussian-2016.03/g1/g16/l508.exe)
 QCSCF skips out because SCF is already converged.
 Leave Link  508 at Sat May  4 10:47:09 2024, MaxMem= 13421772800 cpu:               0.1 elap:               0.0
 (Enter /tmpu/scunam/7/gaussian-2016.03/g1/g16/l701.exe)
 ... and contract with generalized density number  0.
 Compute integral first derivatives.
   1 Symmetry operations used in ECPInt.
 ECPInt:  NShTT=   18721 NPrTT=   54252 LenC2=   17415 LenP2D=   38538.
 LDataN:  DoStor=T MaxTD1= 7 Len=  274
 Leave Link  701 at Sat May  4 10:47:09 2024, MaxMem= 13421772800 cpu:              12.3 elap:               0.4
 (Enter /tmpu/scunam/7/gaussian-2016.03/g1/g16/l702.exe)
 L702 exits ... SP integral derivatives will be done elsewhere.
 Leave Link  702 at Sat May  4 10:47:10 2024, MaxMem= 13421772800 cpu:               1.7 elap:               0.1
 (Enter /tmpu/scunam/7/gaussian-2016.03/g1/g16/l703.exe)
 Integral derivatives from FoFJK, PRISM(SPDF).
 Compute integral first derivatives, UseDBF=F ICtDFT=           0.
 Calling FoFJK, ICntrl=      2127 FMM=F ISym2X=0 I1Cent= 0 IOpClX= 0 NMat=1 NMatS=1 NMatT=0.
 FoFJK:  IHMeth= 1 ICntrl=    2127 DoSepK=F KAlg= 0 I1Cent=           0 FoldK=F
 IRaf=         0 NMat=       1 IRICut=       1 DoRegI=T DoRafI=F ISym2E= 0 IDoP0=0 IntGTp=1.
 FoFCou: FMM=F IPFlag=           0 FMFlag=      100000 FMFlg1=         800
         NFxFlg=           0 DoJE=F BraDBF=F KetDBF=F FulRan=T
         wScrn=  0.000000 ICntrl=      2127 IOpCl=  0 I1Cent=           0 NGrid=           0
         NMat0=    1 NMatS0=      1 NMatT0=    0 NMatD0=    1 NMtDS0=    0 NMtDT0=    0
 Symmetry not used in FoFCou.
 Leave Link  703 at Sat May  4 10:47:30 2024, MaxMem= 13421772800 cpu:             658.2 elap:              20.6
 (Enter /tmpu/scunam/7/gaussian-2016.03/g1/g16/l716.exe)
 Dipole        = 5.58901561D-01 3.80880240D-01 1.11915400D-01
 ***** Axes restored to original set *****
 -------------------------------------------------------------------
 Center     Atomic                   Forces (Hartrees/Bohr)
 Number     Number              X              Y              Z
 -------------------------------------------------------------------
      1        8          -0.000015652    0.000000582    0.000009903
      2        6           0.000019728    0.000011841   -0.000022976
      3        6          -0.000025846    0.000006137    0.000020927
      4        6           0.000008079   -0.000001562   -0.000007558
      5        6           0.000006752    0.000002654   -0.000008970
      6        6           0.000005248   -0.000032583   -0.000000676
      7        6           0.000015148    0.000021260    0.000003771
      8        6          -0.000016655   -0.000029973    0.000008084
      9        6           0.000002033    0.000020720   -0.000001159
     10        6          -0.000010893    0.000019940   -0.000001852
     11        6          -0.000001055    0.000016673    0.000019796
     12        1           0.000001026    0.000000707   -0.000001362
     13        1           0.000004912   -0.000002565   -0.000002045
     14        1           0.000000126   -0.000014297    0.000000693
     15        1          -0.000003494   -0.000001521   -0.000000695
     16        1          -0.000002903    0.000000252    0.000000862
     17        1           0.000000505    0.000004661    0.000000528
     18        1          -0.000000070   -0.000002353    0.000001085
     19        1           0.000007454    0.000003890   -0.000001148
     20        1           0.000004393   -0.000006540   -0.000003754
     21        1           0.000004702    0.000002031    0.000005020
     22        1           0.000005157   -0.000007993   -0.000001748
     23        1           0.000003823   -0.000002475   -0.000005253
     24        1          -0.000001454   -0.000005290    0.000003432
     25        1           0.000003104   -0.000001371    0.000001610
     26        1          -0.000005825    0.000000471   -0.000007346
     27        1          -0.000001205   -0.000001165    0.000003193
     28        1          -0.000008050   -0.000000689   -0.000006882
     29        1           0.000000912   -0.000001443   -0.000005479
 -------------------------------------------------------------------
 Cartesian Forces:  Max     0.000032583 RMS     0.000009823
 Leave Link  716 at Sat May  4 10:47:30 2024, MaxMem= 13421772800 cpu:               0.7 elap:               0.0
 (Enter /tmpu/scunam/7/gaussian-2016.03/g1/g16/l103.exe)

 GradGradGradGradGradGradGradGradGradGradGradGradGradGradGradGradGradGrad
 Berny optimization.
 Using GEDIIS/GDIIS optimizer.
 FormGI is forming the generalized inverse of G from B-inverse, IUseBI=4.
 Internal  Forces:  Max     0.000042087 RMS     0.000007358
 Search for a local minimum.
 Step number  11 out of a maximum of  174
 All quantities printed in internal units (Hartrees-Bohrs-Radians)
 RMS Force = .73578D-05 SwitMx=.10000D-02 MixMth= 2
 Mixed Optimization -- En-DIIS/RFO-DIIS
 Swapping is turned off.
 Update second derivatives using D2CorX and points    5    6    7    8    9
                                                     10   11
 DE= -2.42D-07 DEPred=-1.22D-07 R= 1.98D+00
 Trust test= 1.98D+00 RLast= 1.23D-02 DXMaxT set to 9.86D-01
 ITU=  0  1  1  1  1  1  1  1  1  1  0
     Eigenvalues ---    0.00124   0.00152   0.00241   0.00307   0.00345
     Eigenvalues ---    0.00404   0.00710   0.01166   0.01344   0.01563
     Eigenvalues ---    0.01585   0.02841   0.02922   0.02970   0.03156
     Eigenvalues ---    0.04283   0.04583   0.04687   0.05458   0.05466
     Eigenvalues ---    0.05714   0.06726   0.06944   0.07068   0.07233
     Eigenvalues ---    0.07330   0.08322   0.08930   0.09316   0.12662
     Eigenvalues ---    0.12857   0.15100   0.15955   0.15988   0.15998
     Eigenvalues ---    0.16000   0.16000   0.16000   0.16000   0.16016
     Eigenvalues ---    0.16042   0.16071   0.16225   0.16344   0.16382
     Eigenvalues ---    0.16794   0.17593   0.21903   0.22167   0.22655
     Eigenvalues ---    0.22699   0.24553   0.27677   0.28969   0.29510
     Eigenvalues ---    0.29747   0.31322   0.32011   0.32390   0.33444
     Eigenvalues ---    0.33745   0.33808   0.34063   0.34087   0.34138
     Eigenvalues ---    0.34193   0.34203   0.34261   0.34285   0.34331
     Eigenvalues ---    0.34468   0.34500   0.34900   0.34914   0.35408
     Eigenvalues ---    0.35650   0.39119   0.40758   0.52981   0.57402
     Eigenvalues ---    0.61258
 En-DIIS/RFO-DIIS/Sim-DIIS IScMMF=       -3 using points:    11   10    9    8    7    6    5    4    3    2
 RFO step:  Lambda=-1.28612248D-07.
 NNeg= 0 NGDIIS=10 SimSw=  2.50D-01 Rises=F DC= -2.42D-07 SmlDif=  1.00D-05
 NRisDI= 0 DoIntr=F SqrtH=F CThrHd= 10.0 CDAdj=  3.0
 RMS Error=  0.5881967465D-03 NUsed=10 OKEnD=F EnDIS=F
 InvSVX:  RCond= 3.56D-08 Info=           0 Equed=N FErr=  1.39D-11 BErr=  1.07D-16
 DIIS inversion failure, remove point  10.
 InvSVX:  RCond= 3.97D-08 Info=           0 Equed=N FErr=  1.28D-11 BErr=  4.84D-17
 DIIS inversion failure, remove point   9.
 InvSVX:  RCond= 4.46D-08 Info=           0 Equed=N FErr=  1.17D-11 BErr=  1.07D-16
 DIIS inversion failure, remove point   8.
 InvSVX:  RCond= 3.79D-07 Info=           0 Equed=N FErr=  6.66D-13 BErr=  7.10D-17
 RFO-DIIS uses    7 points instead of   10
 DidBck=F Rises=F RFO-DIIS coefs:    1.32873   -0.25622    0.13029   -0.32782    0.10932
                  RFO-DIIS coefs:    0.04758   -0.03188    0.00000    0.00000    0.00000
 Iteration  1 RMS(Cart)=  0.00088951 RMS(Int)=  0.00000058
 Iteration  2 RMS(Cart)=  0.00000064 RMS(Int)=  0.00000011
 ITry= 1 IFail=0 DXMaxC= 4.75D-03 DCOld= 1.00D+10 DXMaxT= 9.86D-01 DXLimC= 3.00D+00 Rises=F
 Variable       Old X    -DE/DX   Delta X   Delta X   Delta X     New X
                                 (Linear)    (Quad)   (Total)
    R1        2.73216  -0.00002   0.00010  -0.00010   0.00001   2.73217
    R2        1.82291  -0.00001   0.00002  -0.00003  -0.00001   1.82290
    R3        2.91813   0.00002  -0.00006   0.00006  -0.00000   2.91813
    R4        2.87770  -0.00001   0.00000  -0.00001  -0.00000   2.87770
    R5        2.86003  -0.00002   0.00008  -0.00011  -0.00002   2.86001
    R6        2.90435  -0.00001   0.00011  -0.00009   0.00002   2.90436
    R7        2.07199   0.00000  -0.00002   0.00002  -0.00000   2.07198
    R8        2.06682   0.00000  -0.00001   0.00001  -0.00000   2.06682
    R9        2.83719  -0.00000  -0.00007   0.00005  -0.00002   2.83717
   R10        2.05968  -0.00001   0.00006  -0.00008  -0.00002   2.05966
   R11        2.06990  -0.00000   0.00001  -0.00001  -0.00000   2.06989
   R12        2.06060   0.00000   0.00000  -0.00000  -0.00000   2.06060
   R13        2.05930   0.00000  -0.00001   0.00000  -0.00001   2.05929
   R14        2.05829  -0.00000   0.00002  -0.00002   0.00000   2.05829
   R15        2.50562   0.00001  -0.00003   0.00003   0.00000   2.50562
   R16        2.05872  -0.00000  -0.00000   0.00001   0.00000   2.05872
   R17        2.52432   0.00002  -0.00005   0.00006   0.00002   2.52433
   R18        2.05680   0.00000  -0.00003   0.00003  -0.00001   2.05679
   R19        2.84579  -0.00001   0.00013  -0.00011   0.00002   2.84581
   R20        2.84301   0.00002  -0.00019   0.00018  -0.00001   2.84301
   R21        2.06928  -0.00000   0.00002  -0.00002   0.00000   2.06928
   R22        2.06937  -0.00001   0.00002  -0.00003  -0.00001   2.06936
   R23        2.06001   0.00000  -0.00003   0.00003  -0.00000   2.06001
   R24        2.06905  -0.00000   0.00003  -0.00002   0.00001   2.06906
   R25        2.05573  -0.00001   0.00006  -0.00005   0.00000   2.05573
   R26        2.06884  -0.00000  -0.00000  -0.00002  -0.00002   2.06882
   R27        2.04618  -0.00000   0.00001  -0.00001   0.00000   2.04618
   R28        2.04583  -0.00000   0.00003  -0.00003  -0.00000   2.04583
    A1        1.89548  -0.00000  -0.00002   0.00002   0.00000   1.89548
    A2        1.88360  -0.00000   0.00005  -0.00007  -0.00002   1.88359
    A3        1.82200  -0.00000   0.00001  -0.00003  -0.00003   1.82197
    A4        1.88381   0.00000  -0.00001   0.00002   0.00001   1.88382
    A5        1.95857   0.00000   0.00003   0.00001   0.00004   1.95861
    A6        1.92305   0.00000   0.00001   0.00000   0.00001   1.92307
    A7        1.98590  -0.00000  -0.00008   0.00005  -0.00003   1.98588
    A8        2.03260   0.00001  -0.00012   0.00014   0.00002   2.03262
    A9        1.88439  -0.00000   0.00009  -0.00009   0.00000   1.88439
   A10        1.87008  -0.00001   0.00003  -0.00007  -0.00004   1.87004
   A11        1.89386  -0.00000   0.00003  -0.00003  -0.00000   1.89385
   A12        1.91811  -0.00000  -0.00006   0.00006   0.00001   1.91811
   A13        1.85696   0.00000   0.00005  -0.00003   0.00002   1.85699
   A14        1.95403  -0.00001   0.00003  -0.00005  -0.00002   1.95401
   A15        1.91330   0.00000  -0.00006   0.00006  -0.00000   1.91330
   A16        1.89967   0.00000  -0.00002  -0.00001  -0.00003   1.89963
   A17        1.94441   0.00001  -0.00009   0.00009   0.00000   1.94441
   A18        1.89399  -0.00000   0.00008  -0.00007   0.00001   1.89401
   A19        1.85519  -0.00000   0.00006  -0.00002   0.00004   1.85522
   A20        1.90954  -0.00000   0.00002  -0.00004  -0.00001   1.90953
   A21        1.92072  -0.00000  -0.00006   0.00003  -0.00003   1.92069
   A22        1.95220   0.00000  -0.00001   0.00003   0.00002   1.95222
   A23        1.88792   0.00000   0.00004   0.00001   0.00005   1.88797
   A24        1.89458  -0.00000  -0.00002  -0.00002  -0.00003   1.89455
   A25        1.89759  -0.00000   0.00003  -0.00003   0.00000   1.89759
   A26        2.23359   0.00001  -0.00005   0.00007   0.00003   2.23361
   A27        1.98168   0.00000  -0.00008   0.00004  -0.00004   1.98164
   A28        2.06790  -0.00001   0.00012  -0.00011   0.00001   2.06791
   A29        2.24543   0.00004  -0.00038   0.00040   0.00002   2.24545
   A30        1.99608  -0.00003   0.00026  -0.00026  -0.00000   1.99608
   A31        2.04164  -0.00002   0.00012  -0.00014  -0.00002   2.04162
   A32        2.10798  -0.00000   0.00002  -0.00006  -0.00004   2.10794
   A33        2.18057   0.00003  -0.00019   0.00024   0.00005   2.18062
   A34        1.99463  -0.00002   0.00016  -0.00018  -0.00002   1.99462
   A35        1.93744  -0.00000  -0.00000  -0.00002  -0.00002   1.93742
   A36        1.93687   0.00000   0.00001   0.00003   0.00004   1.93691
   A37        1.95190   0.00000  -0.00000  -0.00001  -0.00001   1.95189
   A38        1.85785   0.00000  -0.00007   0.00006  -0.00002   1.85783
   A39        1.88847  -0.00000   0.00003  -0.00004  -0.00001   1.88846
   A40        1.88782  -0.00000   0.00003  -0.00002   0.00001   1.88783
   A41        1.92848  -0.00000  -0.00002  -0.00000  -0.00002   1.92846
   A42        1.97941   0.00001  -0.00003   0.00004   0.00000   1.97941
   A43        1.92750  -0.00000   0.00001   0.00002   0.00004   1.92754
   A44        1.88316  -0.00000  -0.00001  -0.00001  -0.00003   1.88313
   A45        1.85599   0.00000   0.00002  -0.00002  -0.00001   1.85598
   A46        1.88438  -0.00000   0.00004  -0.00003   0.00001   1.88440
   A47        2.11322  -0.00001   0.00014  -0.00014   0.00000   2.11322
   A48        2.13740   0.00000  -0.00002   0.00003   0.00001   2.13741
   A49        2.03256   0.00001  -0.00012   0.00011  -0.00001   2.03255
    D1        1.00233   0.00000   0.00049  -0.00001   0.00048   1.00281
    D2        3.08899   0.00000   0.00054  -0.00004   0.00050   3.08950
    D3       -1.07576   0.00000   0.00045   0.00001   0.00047  -1.07529
    D4        3.09211  -0.00000  -0.00043   0.00010  -0.00033   3.09178
    D5       -1.05672  -0.00000  -0.00041   0.00009  -0.00032  -1.05704
    D6        0.93721  -0.00001  -0.00029  -0.00002  -0.00031   0.93690
    D7        1.09414   0.00000  -0.00048   0.00017  -0.00031   1.09383
    D8       -3.05469   0.00000  -0.00046   0.00016  -0.00030  -3.05499
    D9       -1.06076  -0.00000  -0.00034   0.00005  -0.00029  -1.06106
   D10       -1.13813   0.00000  -0.00041   0.00009  -0.00031  -1.13844
   D11        0.99623   0.00000  -0.00038   0.00008  -0.00031   0.99592
   D12        2.99016  -0.00000  -0.00027  -0.00003  -0.00030   2.98986
   D13       -1.07325   0.00000  -0.00009   0.00021   0.00012  -1.07313
   D14        0.99880   0.00000  -0.00006   0.00022   0.00016   0.99897
   D15        3.11005   0.00000  -0.00007   0.00023   0.00016   3.11021
   D16        0.96207  -0.00000  -0.00002   0.00012   0.00010   0.96218
   D17        3.03413   0.00000   0.00001   0.00013   0.00014   3.03427
   D18       -1.13780   0.00000  -0.00000   0.00014   0.00014  -1.13766
   D19       -3.12261  -0.00000  -0.00004   0.00017   0.00013  -3.12247
   D20       -1.05055   0.00000  -0.00001   0.00019   0.00018  -1.05038
   D21        1.06070   0.00000  -0.00003   0.00020   0.00017   1.06087
   D22       -2.13085  -0.00000  -0.00051  -0.00041  -0.00091  -2.13176
   D23        1.00443  -0.00000  -0.00064  -0.00012  -0.00077   1.00366
   D24        2.09952  -0.00001  -0.00056  -0.00034  -0.00091   2.09861
   D25       -1.04840  -0.00000  -0.00070  -0.00006  -0.00076  -1.04916
   D26       -0.11761  -0.00001  -0.00055  -0.00040  -0.00095  -0.11856
   D27        3.01766  -0.00000  -0.00069  -0.00012  -0.00080   3.01686
   D28       -3.14015   0.00000  -0.00075   0.00053  -0.00022  -3.14037
   D29        0.97599   0.00000  -0.00061   0.00040  -0.00021   0.97578
   D30       -1.04643  -0.00000  -0.00064   0.00040  -0.00023  -1.04666
   D31        1.01364   0.00000  -0.00080   0.00057  -0.00023   1.01341
   D32       -1.15341  -0.00000  -0.00066   0.00044  -0.00022  -1.15363
   D33        3.10736  -0.00000  -0.00069   0.00045  -0.00024   3.10712
   D34       -1.01027   0.00000  -0.00085   0.00059  -0.00026  -1.01053
   D35        3.10587  -0.00000  -0.00071   0.00046  -0.00025   3.10562
   D36        1.08345  -0.00000  -0.00074   0.00046  -0.00027   1.08318
   D37       -2.05718  -0.00000  -0.00042  -0.00005  -0.00047  -2.05765
   D38        1.07499  -0.00000  -0.00029  -0.00027  -0.00056   1.07443
   D39        0.09239   0.00000  -0.00054   0.00005  -0.00049   0.09190
   D40       -3.05863  -0.00000  -0.00041  -0.00016  -0.00057  -3.05920
   D41        2.12897   0.00000  -0.00047   0.00004  -0.00043   2.12854
   D42       -1.02205  -0.00000  -0.00034  -0.00018  -0.00052  -1.02257
   D43        3.12781   0.00001  -0.00019   0.00035   0.00016   3.12797
   D44       -0.00946   0.00000   0.00009   0.00013   0.00022  -0.00925
   D45       -0.00719   0.00000  -0.00005   0.00006   0.00001  -0.00718
   D46        3.13872   0.00000   0.00023  -0.00017   0.00006   3.13879
   D47        3.13903  -0.00000  -0.00005  -0.00005  -0.00010   3.13893
   D48       -0.00721   0.00000  -0.00028   0.00023  -0.00005  -0.00726
   D49        0.00708   0.00000  -0.00018   0.00017  -0.00001   0.00707
   D50       -3.13917   0.00000  -0.00041   0.00045   0.00004  -3.13913
   D51       -2.11493   0.00001   0.00053   0.00045   0.00098  -2.11396
   D52        2.10588   0.00000   0.00061   0.00037   0.00098   2.10686
   D53       -0.00391   0.00000   0.00057   0.00038   0.00094  -0.00297
   D54        1.03084   0.00001   0.00074   0.00019   0.00093   1.03177
   D55       -1.03153   0.00000   0.00082   0.00012   0.00093  -1.03059
   D56       -3.14132   0.00000   0.00077   0.00013   0.00090  -3.14043
   D57       -2.08978   0.00000   0.00198  -0.00002   0.00195  -2.08782
   D58        0.02710   0.00000   0.00192  -0.00001   0.00191   0.02900
   D59        2.14483   0.00000   0.00196  -0.00001   0.00195   2.14679
   D60        1.04743   0.00000   0.00176   0.00024   0.00200   1.04943
   D61       -3.11888   0.00001   0.00171   0.00025   0.00196  -3.11692
   D62       -1.00114   0.00000   0.00175   0.00025   0.00200  -0.99914
         Item               Value     Threshold  Converged?
 Maximum Force            0.000042     0.000450     YES
 RMS     Force            0.000007     0.000300     YES
 Maximum Displacement     0.004754     0.001800     NO 
 RMS     Displacement     0.000890     0.001200     YES
 Predicted change in Energy=-6.129222D-08
 Lowest energy point so far.  Saving SCF results.
 GradGradGradGradGradGradGradGradGradGradGradGradGradGradGradGradGradGrad

 Leave Link  103 at Sat May  4 10:47:31 2024, MaxMem= 13421772800 cpu:               5.9 elap:               0.2
 (Enter /tmpu/scunam/7/gaussian-2016.03/g1/g16/l202.exe)
                          Input orientation:                          
 ---------------------------------------------------------------------
 Center     Atomic      Atomic             Coordinates (Angstroms)
 Number     Number       Type             X           Y           Z
 ---------------------------------------------------------------------
      1          8           0        2.728617   -1.313366   -1.178492
      2          6           0        1.988253   -0.546164   -0.201963
      3          6           0        0.488824   -0.868434   -0.382058
      4          6           0       -0.478496   -0.203725    0.610205
      5          6           0        2.523140   -1.025774    1.140732
      6          6           0        2.243051    0.921127   -0.471543
      7          6           0       -1.905756   -0.586622    0.344832
      8          6           0       -2.930795    0.199042    0.003592
      9          6           0       -4.302259   -0.379445   -0.225061
     10          6           0       -2.849573    1.689953   -0.180713
     11          6           0        2.747869    1.826847    0.354827
     12          1           0        0.199814   -0.576371   -1.398605
     13          1           0        0.384487   -1.956001   -0.331839
     14          1           0       -0.345056    0.877654    0.582854
     15          1           0       -0.216434   -0.520171    1.625565
     16          1           0        2.319226   -2.091130    1.252367
     17          1           0        3.602033   -0.879582    1.186826
     18          1           0        2.062587   -0.495715    1.973369
     19          1           0        1.970842    1.231987   -1.479573
     20          1           0       -2.110269   -1.651355    0.440485
     21          1           0        2.401705   -1.089335   -2.057959
     22          1           0       -4.654138   -0.165968   -1.239790
     23          1           0       -5.034221    0.065762    0.456979
     24          1           0       -4.315928   -1.459795   -0.080167
     25          1           0       -3.519519    2.199780    0.519328
     26          1           0       -1.848124    2.089446   -0.036090
     27          1           0       -3.182967    1.969728   -1.185252
     28          1           0        2.894759    2.851912    0.038442
     29          1           0        3.037728    1.589315    1.370504
 ---------------------------------------------------------------------
                    Distance matrix (angstroms):
                    1          2          3          4          5
     1  O    0.000000
     2  C    1.445802   0.000000
     3  C    2.418459   1.544208   0.000000
     4  C    3.836185   2.619491   1.536923   0.000000
     5  C    2.346002   1.522813   2.545994   3.157062   0.000000
     6  C    2.393430   1.513452   2.507558   3.137242   2.543286
     7  C    4.932148   3.932420   2.518293   1.501367   4.521220
     8  C    5.976089   4.979419   3.603057   2.558118   5.704267
     9  C    7.156427   6.292763   4.818530   3.917870   6.990651
    10  C    6.413398   5.329655   4.210792   3.135852   6.163394
    11  C    3.494620   2.553079   3.593163   3.820716   2.967422
    12  H    2.643190   2.152064   1.096447   2.152740   3.471028
    13  H    2.573857   2.139292   1.093714   2.168562   2.758191
    14  H    4.165378   2.843858   2.162229   1.089924   3.487237
    15  H    4.143092   2.863770   2.156206   1.095340   2.827713
    16  H    2.584877   2.147449   2.741661   3.435392   1.090424
    17  H    2.558466   2.155038   3.486200   4.176122   1.089728
    18  H    3.323609   2.177186   2.857216   2.898375   1.089200
    19  H    2.672768   2.189614   2.795118   3.525294   3.502643
    20  H    5.113720   4.293258   2.836340   2.187949   4.727597
    21  H    0.964637   1.977549   2.552755   4.024794   3.201626
    22  H    7.471636   6.733721   5.261104   4.567263   7.610484
    23  H    8.052229   7.079816   5.663985   4.566260   7.666333
    24  H    7.131155   6.371205   4.850411   4.096365   6.960734
    25  H    7.366409   6.196452   5.127694   3.877230   6.877795
    26  H    5.816422   4.657440   3.785508   2.748128   5.495221
    27  H    6.762068   5.834217   4.709812   3.906626   6.851488
    28  H    4.342587   3.525120   4.450429   4.587230   4.048406
    29  H    3.875369   2.852073   3.950812   4.019562   2.675124
                    6          7          8          9         10
     6  C    0.000000
     7  C    4.489139   0.000000
     8  C    5.245554   1.335820   0.000000
     9  C    6.677823   2.472029   1.505936   0.000000
    10  C    5.158536   2.519876   1.504454   2.528768   0.000000
    11  C    1.325917   5.242247   5.917798   7.410013   5.624668
    12  H    2.697548   2.733697   3.516835   4.656677   3.989767
    13  H    3.428066   2.752871   3.968352   4.945960   4.875957
    14  H    2.794985   2.153263   2.735343   4.229950   2.741434
    15  H    3.538964   2.120967   3.242810   4.487604   3.883388
    16  H    3.471506   4.575766   5.862341   6.996908   6.562528
    17  H    2.799923   5.579473   6.726166   8.044960   7.077844
    18  H    2.831538   4.290471   5.412630   6.734825   5.791936
    19  H    1.089428   4.654439   5.224251   6.597144   5.013299
    20  H    5.138176   1.088408   2.070774   2.620215   3.478045
    21  H    2.565900   4.957857   5.860500   6.986171   6.230923
    22  H    7.024471   3.200247   2.156187   1.095018   2.796881
    23  H    7.385965   3.197729   2.155858   1.095060   2.795949
    24  H    6.988717   2.598458   2.162718   1.090109   3.475805
    25  H    5.985314   3.224704   2.148380   2.796283   1.094901
    26  H    4.276950   2.703657   2.178848   3.486245   1.087846
    27  H    5.572308   3.241504   2.147620   2.773697   1.094772
    28  H    2.100652   5.912895   6.401251   7.893552   5.864769
    29  H    2.114504   5.497703   6.278899   7.765130   6.089065
                   11         12         13         14         15
    11  C    0.000000
    12  H    3.916959   0.000000
    13  H    4.512983   1.753702   0.000000
    14  H    3.243323   2.517390   3.065697   0.000000
    15  H    3.988779   3.053199   2.500829   1.748630   0.000000
    16  H    4.042258   3.716726   2.504233   4.044790   3.006120
    17  H    2.957460   4.283863   3.717206   4.362588   3.860357
    18  H    2.912659   3.853134   3.203504   3.101036   2.305537
    19  H    2.079098   2.532441   3.741267   3.121304   4.182835
    20  H    5.975510   3.142344   2.629278   3.087415   2.504117
    21  H    3.800721   2.355038   2.792806   4.288081   4.554882
    22  H    7.829675   4.873859   5.423683   4.793679   5.294236
    23  H    7.979522   5.590227   5.837136   4.760596   4.991992
    24  H    7.803105   4.786506   4.733230   4.655221   4.538531
    25  H    6.280627   5.021844   5.765090   3.439369   4.419532
    26  H    4.620057   3.627269   4.630082   2.027497   3.497658
    27  H    6.129198   4.239262   5.372745   3.517465   4.785458
    28  H    1.082791   4.591400   5.436414   3.832816   4.854835
    29  H    1.082608   4.517955   4.744146   3.545432   3.886458
                   16         17         18         19         20
    16  H    0.000000
    17  H    1.765711   0.000000
    18  H    1.769479   1.770847   0.000000
    19  H    4.316013   3.772159   3.862147   0.000000
    20  H    4.524708   5.812319   4.593252   5.353107   0.000000
    21  H    3.459574   3.466037   4.088886   2.430783   5.188063
    22  H    7.651464   8.634933   7.453021   6.775112   3.391308
    23  H    7.704415   8.718442   7.278693   7.360789   3.390908
    24  H    6.797021   8.039653   6.769927   6.980509   2.274358
    25  H    7.282870   7.787459   6.367090   5.922524   4.101640
    26  H    6.041866   6.325730   5.100455   4.171736   3.780137
    27  H    7.259937   7.731852   6.600843   5.214656   4.111684
    28  H    5.122354   3.967753   3.955131   2.404609   6.744728
    29  H    3.751782   2.539218   2.379432   3.064126   6.153759
                   21         22         23         24         25
    21  H    0.000000
    22  H    7.162885   0.000000
    23  H    7.934239   1.754191   0.000000
    24  H    7.012524   1.770056   1.769688   0.000000
    25  H    7.247177   3.158896   2.617679   3.792908   0.000000
    26  H    5.679229   3.795985   3.806524   4.323090   1.764716
    27  H    6.427133   2.593939   3.122363   3.777094   1.752651
    28  H    4.491261   8.229661   8.414661   8.402314   6.465252
    29  H    4.397050   8.310202   8.265113   8.091834   6.640380
                   26         27         28         29
    26  H    0.000000
    27  H    1.765421   0.000000
    28  H    4.804357   6.262142   0.000000
    29  H    5.108835   6.735997   1.840919   0.000000
 Stoichiometry    C10H18O
 Framework group  C1[X(C10H18O)]
 Deg. of freedom    81
 Full point group                 C1      NOp   1
 RotChk:  IX=2 Diff= 3.35D-04
 Largest Abelian subgroup         C1      NOp   1
 Largest concise Abelian subgroup C1      NOp   1
                         Standard orientation:                         
 ---------------------------------------------------------------------
 Center     Atomic      Atomic             Coordinates (Angstroms)
 Number     Number       Type             X           Y           Z
 ---------------------------------------------------------------------
      1          8           0       -2.795800   -1.169862    1.101677
      2          6           0       -2.010216   -0.397340    0.165507
      3          6           0       -0.534617   -0.827205    0.315178
      4          6           0        0.470610   -0.170753   -0.644364
      5          6           0       -2.580704   -0.761864   -1.198540
      6          6           0       -2.166688    1.065320    0.521429
      7          6           0        1.870528   -0.661241   -0.412514
      8          6           0        2.946435    0.034296   -0.034271
      9          6           0        4.277643   -0.645232    0.150039
     10          6           0        2.964391    1.514063    0.236557
     11          6           0       -2.613859    2.048763   -0.247293
     12          1           0       -0.223084   -0.614395    1.344670
     13          1           0       -0.502403   -1.914503    0.201355
     14          1           0        0.408860    0.913621   -0.553504
     15          1           0        0.184363   -0.409690   -1.674288
     16          1           0       -2.447901   -1.829993   -1.373153
     17          1           0       -3.647781   -0.542782   -1.227840
     18          1           0       -2.089404   -0.215593   -2.002634
     19          1           0       -1.870714    1.298453    1.543634
     20          1           0        2.004031   -1.729720   -0.571141
     21          1           0       -2.451459   -1.019328    1.990099
     22          1           0        4.646720   -0.514723    1.172690
     23          1           0        5.034744   -0.210054   -0.510700
     24          1           0        4.219501   -1.713883   -0.057187
     25          1           0        3.663802    2.018728   -0.437940
     26          1           0        1.990912    1.986124    0.122951
     27          1           0        3.319354    1.712421    1.253012
     28          1           0       -2.691635    3.061099    0.128955
     29          1           0       -2.922641    1.890278   -1.272757
 ---------------------------------------------------------------------
 Rotational constants (GHZ):           1.9647603           0.4632757           0.4212627
 Leave Link  202 at Sat May  4 10:47:31 2024, MaxMem= 13421772800 cpu:               0.4 elap:               0.0
 (Enter /tmpu/scunam/7/gaussian-2016.03/g1/g16/l301.exe)
 Standard basis: def2TZVP (5D, 7F)
 Ernie: Thresh=  0.10000D-02 Tol=  0.10000D-05 Strict=F.
 There are   504 symmetry adapted cartesian basis functions of A   symmetry.
 There are   449 symmetry adapted basis functions of A   symmetry.
   449 basis functions,   705 primitive gaussians,   504 cartesian basis functions
    43 alpha electrons       43 beta electrons
       nuclear repulsion energy       617.4787753617 Hartrees.
 IExCor=  402 DFT=T Ex+Corr=B3LYP ExCW=0 ScaHFX=  0.200000
 ScaDFX=  0.800000  0.720000  1.000000  0.810000 ScalE2=  1.000000  1.000000
 IRadAn=      5 IRanWt=     -1 IRanGd=            0 ICorTp=0 IEmpDi=  4
 NAtoms=   29 NActive=   29 NUniq=   29 SFac= 1.00D+00 NAtFMM=   60 NAOKFM=F Big=F
 Integral buffers will be    131072 words long.
 Raffenetti 2 integral format.
 Two-electron integral symmetry is turned on.
 Leave Link  301 at Sat May  4 10:47:31 2024, MaxMem= 13421772800 cpu:               1.7 elap:               0.1
 (Enter /tmpu/scunam/7/gaussian-2016.03/g1/g16/l302.exe)
 NPDir=0 NMtPBC=     1 NCelOv=     1 NCel=       1 NClECP=     1 NCelD=      1
         NCelK=      1 NCelE2=     1 NClLst=     1 CellRange=     0.0.
 One-electron integrals computed using PRISM.
 One-electron integral symmetry used in STVInt
   1 Symmetry operations used in ECPInt.
 ECPInt:  NShTT=   18721 NPrTT=   54252 LenC2=   17415 LenP2D=   38538.
 LDataN:  DoStor=T MaxTD1= 6 Len=  172
 NBasis=   449 RedAO= T EigKep=  6.65D-05  NBF=   449
 NBsUse=   449 1.00D-06 EigRej= -1.00D+00 NBFU=   449
 Precomputing XC quadrature grid using
 IXCGrd= 4 IRadAn=           5 IRanWt=          -1 IRanGd=           0 AccXCQ= 0.00D+00.
 Generated NRdTot=       0 NPtTot=           0 NUsed=           0 NTot=          32
 NSgBfM=   501   501   501   501   501 MxSgAt=    29 MxSgA2=    29.
 Leave Link  302 at Sat May  4 10:47:31 2024, MaxMem= 13421772800 cpu:              17.5 elap:               0.6
 (Enter /tmpu/scunam/7/gaussian-2016.03/g1/g16/l303.exe)
 DipDrv:  MaxL=1.
 Leave Link  303 at Sat May  4 10:47:31 2024, MaxMem= 13421772800 cpu:               3.4 elap:               0.1
 (Enter /tmpu/scunam/7/gaussian-2016.03/g1/g16/l401.exe)
 Initial guess from the checkpoint file:  "linalool.chk"
 B after Tr=     0.000000   -0.000000    0.000000
         Rot=    1.000000   -0.000130    0.000012    0.000040 Ang=  -0.02 deg.
 Guess basis will be translated and rotated to current coordinates.
 JPrj=2 DoOrth=T DoCkMO=T.
 Leave Link  401 at Sat May  4 10:47:32 2024, MaxMem= 13421772800 cpu:              12.7 elap:               0.4
 (Enter /tmpu/scunam/7/gaussian-2016.03/g1/g16/l502.exe)
 Integral symmetry usage will be decided dynamically.
 Closed shell SCF:
 Using DIIS extrapolation, IDIIS=  1040.
 NGot= 13421772800 LenX= 13421243903 LenY= 13420989383
 Requested convergence on RMS density matrix=1.00D-08 within 128 cycles.
 Requested convergence on MAX density matrix=1.00D-06.
 Requested convergence on             energy=1.00D-06.
 No special actions if energy rises.
 Fock matrices will be formed incrementally for  20 cycles.

 Cycle   1  Pass 1  IDiag  1:
 FoFJK:  IHMeth= 1 ICntrl=       0 DoSepK=F KAlg= 0 I1Cent=           0 FoldK=F
 IRaf= 880000000 NMat=       1 IRICut=       1 DoRegI=T DoRafI=F ISym2E= 0 IDoP0=0 IntGTp=1.
 FoFCou: FMM=F IPFlag=           0 FMFlag=      100000 FMFlg1=           0
         NFxFlg=           0 DoJE=F BraDBF=F KetDBF=F FulRan=T
         wScrn=  0.000000 ICntrl=         0 IOpCl=  0 I1Cent=           0 NGrid=           0
         NMat0=    1 NMatS0=      1 NMatT0=    0 NMatD0=    1 NMtDS0=    0 NMtDT0=    0
 Symmetry not used in FoFCou.
 E= -467.273762963959    
 DIIS: error= 5.59D-05 at cycle   1 NSaved=   1.
 NSaved= 1 IEnMin= 1 EnMin= -467.273762963959     IErMin= 1 ErrMin= 5.59D-05
 ErrMax= 5.59D-05  0.00D+00 EMaxC= 1.00D-01 BMatC= 1.17D-06 BMatP= 1.17D-06
 IDIUse=1 WtCom= 1.00D+00 WtEn= 0.00D+00
 Coeff-Com:  0.100D+01
 Coeff:      0.100D+01
 Gap=     0.629 Goal=   None    Shift=    0.000
 RMSDP=3.57D-06 MaxDP=2.11D-04              OVMax= 3.09D-04

 Cycle   2  Pass 1  IDiag  1:
 RMSU=  3.57D-06    CP:  1.00D+00
 E= -467.273764621941     Delta-E=       -0.000001657982 Rises=F Damp=F
 DIIS: error= 5.23D-06 at cycle   2 NSaved=   2.
 NSaved= 2 IEnMin= 2 EnMin= -467.273764621941     IErMin= 2 ErrMin= 5.23D-06
 ErrMax= 5.23D-06  0.00D+00 EMaxC= 1.00D-01 BMatC= 9.21D-09 BMatP= 1.17D-06
 IDIUse=1 WtCom= 1.00D+00 WtEn= 0.00D+00
 Coeff-Com: -0.605D-01 0.106D+01
 Coeff:     -0.605D-01 0.106D+01
 Gap=     0.234 Goal=   None    Shift=    0.000
 RMSDP=4.41D-07 MaxDP=1.90D-05 DE=-1.66D-06 OVMax= 4.92D-05

 Cycle   3  Pass 1  IDiag  1:
 RMSU=  3.84D-07    CP:  1.00D+00  1.06D+00
 E= -467.273764642512     Delta-E=       -0.000000020570 Rises=F Damp=F
 DIIS: error= 1.58D-06 at cycle   3 NSaved=   3.
 NSaved= 3 IEnMin= 3 EnMin= -467.273764642512     IErMin= 3 ErrMin= 1.58D-06
 ErrMax= 1.58D-06  0.00D+00 EMaxC= 1.00D-01 BMatC= 1.92D-09 BMatP= 9.21D-09
 IDIUse=1 WtCom= 1.00D+00 WtEn= 0.00D+00
 Coeff-Com: -0.232D-01 0.346D+00 0.677D+00
 Coeff:     -0.232D-01 0.346D+00 0.677D+00
 Gap=     0.234 Goal=   None    Shift=    0.000
 RMSDP=1.54D-07 MaxDP=6.72D-06 DE=-2.06D-08 OVMax= 1.50D-05

 Cycle   4  Pass 1  IDiag  1:
 RMSU=  1.34D-07    CP:  1.00D+00  1.06D+00  8.13D-01
 E= -467.273764643443     Delta-E=       -0.000000000931 Rises=F Damp=F
 DIIS: error= 1.09D-06 at cycle   4 NSaved=   4.
 NSaved= 4 IEnMin= 4 EnMin= -467.273764643443     IErMin= 4 ErrMin= 1.09D-06
 ErrMax= 1.09D-06  0.00D+00 EMaxC= 1.00D-01 BMatC= 1.04D-09 BMatP= 1.92D-09
 IDIUse=1 WtCom= 1.00D+00 WtEn= 0.00D+00
 Coeff-Com: -0.427D-02 0.379D-01 0.420D+00 0.546D+00
 Coeff:     -0.427D-02 0.379D-01 0.420D+00 0.546D+00
 Gap=     0.234 Goal=   None    Shift=    0.000
 RMSDP=6.84D-08 MaxDP=3.26D-06 DE=-9.31D-10 OVMax= 8.81D-06

 Cycle   5  Pass 1  IDiag  1:
 RMSU=  4.25D-08    CP:  1.00D+00  1.07D+00  8.73D-01  6.45D-01
 E= -467.273764644199     Delta-E=       -0.000000000756 Rises=F Damp=F
 DIIS: error= 3.02D-07 at cycle   5 NSaved=   5.
 NSaved= 5 IEnMin= 5 EnMin= -467.273764644199     IErMin= 5 ErrMin= 3.02D-07
 ErrMax= 3.02D-07  0.00D+00 EMaxC= 1.00D-01 BMatC= 5.16D-11 BMatP= 1.04D-09
 IDIUse=1 WtCom= 1.00D+00 WtEn= 0.00D+00
 Coeff-Com:  0.336D-03-0.183D-01 0.128D+00 0.256D+00 0.634D+00
 Coeff:      0.336D-03-0.183D-01 0.128D+00 0.256D+00 0.634D+00
 Gap=     0.234 Goal=   None    Shift=    0.000
 RMSDP=2.09D-08 MaxDP=8.60D-07 DE=-7.56D-10 OVMax= 2.79D-06

 Cycle   6  Pass 1  IDiag  1:
 RMSU=  1.38D-08    CP:  1.00D+00  1.07D+00  8.98D-01  6.78D-01  7.30D-01
 E= -467.273764644239     Delta-E=       -0.000000000040 Rises=F Damp=F
 DIIS: error= 1.10D-07 at cycle   6 NSaved=   6.
 NSaved= 6 IEnMin= 6 EnMin= -467.273764644239     IErMin= 6 ErrMin= 1.10D-07
 ErrMax= 1.10D-07  0.00D+00 EMaxC= 1.00D-01 BMatC= 7.67D-12 BMatP= 5.16D-11
 IDIUse=1 WtCom= 1.00D+00 WtEn= 0.00D+00
 Coeff-Com:  0.520D-03-0.135D-01 0.392D-01 0.101D+00 0.358D+00 0.515D+00
 Coeff:      0.520D-03-0.135D-01 0.392D-01 0.101D+00 0.358D+00 0.515D+00
 Gap=     0.234 Goal=   None    Shift=    0.000
 RMSDP=7.86D-09 MaxDP=4.94D-07 DE=-4.05D-11 OVMax= 1.13D-06

 SCF Done:  E(RB3LYP) =  -467.273764644     A.U. after    6 cycles
            NFock=  6  Conv=0.79D-08     -V/T= 2.0054
 KE= 4.647652500144D+02 PE=-2.320233304956D+03 EE= 7.707155149358D+02
 Leave Link  502 at Sat May  4 10:48:04 2024, MaxMem= 13421772800 cpu:            1023.6 elap:              32.1
 (Enter /tmpu/scunam/7/gaussian-2016.03/g1/g16/l508.exe)
 QCSCF skips out because SCF is already converged.
 Leave Link  508 at Sat May  4 10:48:04 2024, MaxMem= 13421772800 cpu:               1.1 elap:               0.1
 (Enter /tmpu/scunam/7/gaussian-2016.03/g1/g16/l701.exe)
 ... and contract with generalized density number  0.
 Compute integral first derivatives.
   1 Symmetry operations used in ECPInt.
 ECPInt:  NShTT=   18721 NPrTT=   54252 LenC2=   17415 LenP2D=   38538.
 LDataN:  DoStor=T MaxTD1= 7 Len=  274
 Leave Link  701 at Sat May  4 10:48:04 2024, MaxMem= 13421772800 cpu:              10.6 elap:               0.4
 (Enter /tmpu/scunam/7/gaussian-2016.03/g1/g16/l702.exe)
 L702 exits ... SP integral derivatives will be done elsewhere.
 Leave Link  702 at Sat May  4 10:48:04 2024, MaxMem= 13421772800 cpu:               1.7 elap:               0.1
 (Enter /tmpu/scunam/7/gaussian-2016.03/g1/g16/l703.exe)
 Integral derivatives from FoFJK, PRISM(SPDF).
 Compute integral first derivatives, UseDBF=F ICtDFT=           0.
 Calling FoFJK, ICntrl=      2127 FMM=F ISym2X=0 I1Cent= 0 IOpClX= 0 NMat=1 NMatS=1 NMatT=0.
 FoFJK:  IHMeth= 1 ICntrl=    2127 DoSepK=F KAlg= 0 I1Cent=           0 FoldK=F
 IRaf=         0 NMat=       1 IRICut=       1 DoRegI=T DoRafI=F ISym2E= 0 IDoP0=0 IntGTp=1.
 FoFCou: FMM=F IPFlag=           0 FMFlag=      100000 FMFlg1=         800
         NFxFlg=           0 DoJE=F BraDBF=F KetDBF=F FulRan=T
         wScrn=  0.000000 ICntrl=      2127 IOpCl=  0 I1Cent=           0 NGrid=           0
         NMat0=    1 NMatS0=      1 NMatT0=    0 NMatD0=    1 NMtDS0=    0 NMtDT0=    0
 Symmetry not used in FoFCou.
 Leave Link  703 at Sat May  4 10:48:25 2024, MaxMem= 13421772800 cpu:             658.5 elap:              20.6
 (Enter /tmpu/scunam/7/gaussian-2016.03/g1/g16/l716.exe)
 Dipole        = 5.58718507D-01 3.81015345D-01 1.12139807D-01
 ***** Axes restored to original set *****
 -------------------------------------------------------------------
 Center     Atomic                   Forces (Hartrees/Bohr)
 Number     Number              X              Y              Z
 -------------------------------------------------------------------
      1        8          -0.000012009    0.000004391    0.000014626
      2        6           0.000031095    0.000007632   -0.000022562
      3        6          -0.000030610    0.000010397    0.000023434
      4        6           0.000014799   -0.000008912   -0.000015101
      5        6          -0.000001839    0.000001494   -0.000006714
      6        6          -0.000001216   -0.000029123   -0.000002205
      7        6           0.000006781    0.000027225   -0.000005318
      8        6          -0.000018311   -0.000042486   -0.000001813
      9        6           0.000004778    0.000020877    0.000001317
     10        6          -0.000005346    0.000022758    0.000008175
     11        6           0.000004266    0.000016102    0.000016979
     12        1           0.000001846   -0.000001740   -0.000002149
     13        1           0.000002474   -0.000002566   -0.000002401
     14        1          -0.000000043   -0.000006695    0.000003398
     15        1          -0.000004625    0.000001680    0.000002632
     16        1           0.000000122   -0.000001090    0.000001390
     17        1           0.000002186    0.000001655    0.000001640
     18        1           0.000000301   -0.000000608   -0.000000259
     19        1           0.000005127    0.000008059    0.000000418
     20        1           0.000003165   -0.000007760    0.000002191
     21        1           0.000001525    0.000001372    0.000000426
     22        1           0.000005409   -0.000006202   -0.000002094
     23        1           0.000004311   -0.000002764   -0.000000996
     24        1          -0.000002534   -0.000005611    0.000002616
     25        1           0.000000922    0.000000312    0.000000350
     26        1          -0.000004844    0.000000029   -0.000004824
     27        1           0.000001176   -0.000004606   -0.000000765
     28        1          -0.000007422   -0.000001519   -0.000007827
     29        1          -0.000001484   -0.000002299   -0.000004563
 -------------------------------------------------------------------
 Cartesian Forces:  Max     0.000042486 RMS     0.000010828
 Leave Link  716 at Sat May  4 10:48:25 2024, MaxMem= 13421772800 cpu:               0.7 elap:               0.0
 (Enter /tmpu/scunam/7/gaussian-2016.03/g1/g16/l103.exe)

 GradGradGradGradGradGradGradGradGradGradGradGradGradGradGradGradGradGrad
 Berny optimization.
 Using GEDIIS/GDIIS optimizer.
 FormGI is forming the generalized inverse of G from B-inverse, IUseBI=4.
 Internal  Forces:  Max     0.000031405 RMS     0.000005987
 Search for a local minimum.
 Step number  12 out of a maximum of  174
 All quantities printed in internal units (Hartrees-Bohrs-Radians)
 RMS Force = .59869D-05 SwitMx=.10000D-02 MixMth= 2
 Mixed Optimization -- En-DIIS/RFO-DIIS
 Swapping is turned off.
 Update second derivatives using D2CorX and points    5    6    7    8    9
                                                     10   11   12
 DE= -9.28D-08 DEPred=-6.13D-08 R= 1.51D+00
 Trust test= 1.51D+00 RLast= 6.06D-03 DXMaxT set to 9.86D-01
 ITU=  0  0  1  1  1  1  1  1  1  1  1  0
     Eigenvalues ---    0.00115   0.00153   0.00237   0.00277   0.00342
     Eigenvalues ---    0.00351   0.00703   0.01165   0.01352   0.01560
     Eigenvalues ---    0.01602   0.02837   0.02921   0.02968   0.03154
     Eigenvalues ---    0.04280   0.04582   0.04666   0.05457   0.05475
     Eigenvalues ---    0.05710   0.06685   0.06952   0.07070   0.07194
     Eigenvalues ---    0.07331   0.08279   0.08916   0.09357   0.12665
     Eigenvalues ---    0.12874   0.14718   0.15921   0.15949   0.15993
     Eigenvalues ---    0.15999   0.16000   0.16000   0.16004   0.16010
     Eigenvalues ---    0.16037   0.16093   0.16219   0.16250   0.16458
     Eigenvalues ---    0.16875   0.17569   0.21737   0.22086   0.22302
     Eigenvalues ---    0.22674   0.24494   0.27803   0.29012   0.29450
     Eigenvalues ---    0.29766   0.31242   0.32005   0.32421   0.33329
     Eigenvalues ---    0.33743   0.33809   0.34033   0.34073   0.34139
     Eigenvalues ---    0.34170   0.34202   0.34258   0.34294   0.34346
     Eigenvalues ---    0.34465   0.34502   0.34893   0.34928   0.35408
     Eigenvalues ---    0.35646   0.38081   0.40581   0.52980   0.57410
     Eigenvalues ---    0.60535
 En-DIIS/RFO-DIIS/Sim-DIIS IScMMF=       -3 using points:    12   11   10    9    8    7    6    5    4    3
 RFO step:  Lambda=-7.05571099D-08.
 NNeg= 0 NGDIIS=10 SimSw=  2.50D-01 Rises=F DC= -9.28D-08 SmlDif=  1.00D-05
 NRisDI= 0 DoIntr=F SqrtH=F CThrHd= 10.0 CDAdj=  3.0
 RMS Error=  0.4170473281D-03 NUsed=10 OKEnD=F EnDIS=F
 InvSVX:  RCond= 1.11D-08 Info=           0 Equed=N FErr=  1.58D-11 BErr=  7.73D-17
 DIIS inversion failure, remove point  10.
 InvSVX:  RCond= 1.48D-08 Info=           0 Equed=N FErr=  1.20D-11 BErr=  6.62D-17
 DIIS inversion failure, remove point   9.
 InvSVX:  RCond= 5.91D-08 Info=           0 Equed=N FErr=  9.26D-13 BErr=  9.18D-17
 DIIS inversion failure, remove point   8.
 InvSVX:  RCond= 1.07D-07 Info=           0 Equed=N FErr=  3.22D-13 BErr=  1.06D-16
 RFO-DIIS uses    7 points instead of   10
 DidBck=F Rises=F RFO-DIIS coefs:    2.15312   -1.08267   -0.25606    0.25814   -0.06675
                  RFO-DIIS coefs:    0.00436   -0.01013    0.00000    0.00000    0.00000
 Iteration  1 RMS(Cart)=  0.00079046 RMS(Int)=  0.00000034
 Iteration  2 RMS(Cart)=  0.00000047 RMS(Int)=  0.00000003
 ITry= 1 IFail=0 DXMaxC= 3.64D-03 DCOld= 1.00D+10 DXMaxT= 9.86D-01 DXLimC= 3.00D+00 Rises=F
 Variable       Old X    -DE/DX   Delta X   Delta X   Delta X     New X
                                 (Linear)    (Quad)   (Total)
    R1        2.73217  -0.00002  -0.00003  -0.00004  -0.00007   2.73210
    R2        1.82290  -0.00000  -0.00001   0.00001  -0.00000   1.82290
    R3        2.91813   0.00002   0.00007   0.00003   0.00009   2.91822
    R4        2.87770  -0.00000  -0.00003   0.00002  -0.00001   2.87769
    R5        2.86001  -0.00001  -0.00013   0.00006  -0.00007   2.85994
    R6        2.90436  -0.00001  -0.00003  -0.00004  -0.00007   2.90429
    R7        2.07198   0.00000   0.00001  -0.00001   0.00001   2.07199
    R8        2.06682   0.00000   0.00001   0.00000   0.00001   2.06683
    R9        2.83717   0.00000  -0.00003   0.00003   0.00000   2.83718
   R10        2.05966  -0.00001  -0.00002  -0.00000  -0.00002   2.05964
   R11        2.06989   0.00000  -0.00001   0.00002   0.00001   2.06990
   R12        2.06060   0.00000   0.00001   0.00000   0.00001   2.06061
   R13        2.05929   0.00000   0.00002  -0.00002   0.00001   2.05929
   R14        2.05829  -0.00000  -0.00000  -0.00000  -0.00000   2.05829
   R15        2.50562   0.00001   0.00004  -0.00002   0.00003   2.50565
   R16        2.05872   0.00000  -0.00001   0.00001   0.00000   2.05872
   R17        2.52433   0.00000  -0.00003   0.00002  -0.00001   2.52433
   R18        2.05679   0.00001   0.00003   0.00000   0.00003   2.05682
   R19        2.84581  -0.00001  -0.00005  -0.00000  -0.00005   2.84575
   R20        2.84301   0.00002   0.00008  -0.00000   0.00008   2.84309
   R21        2.06928  -0.00000  -0.00002   0.00002  -0.00000   2.06928
   R22        2.06936  -0.00000  -0.00005   0.00003  -0.00002   2.06934
   R23        2.06001   0.00000   0.00003  -0.00001   0.00002   2.06003
   R24        2.06906   0.00000  -0.00000   0.00000  -0.00000   2.06906
   R25        2.05573  -0.00000   0.00002  -0.00002  -0.00000   2.05573
   R26        2.06882  -0.00000  -0.00001   0.00000  -0.00001   2.06881
   R27        2.04618  -0.00000  -0.00000  -0.00000  -0.00000   2.04617
   R28        2.04583  -0.00000  -0.00001   0.00000  -0.00001   2.04582
    A1        1.89548   0.00000   0.00001  -0.00000   0.00001   1.89549
    A2        1.88359   0.00000   0.00006  -0.00007  -0.00001   1.88358
    A3        1.82197  -0.00000  -0.00001  -0.00001  -0.00003   1.82194
    A4        1.88382   0.00000   0.00009  -0.00001   0.00009   1.88391
    A5        1.95861  -0.00000  -0.00003  -0.00001  -0.00004   1.95857
    A6        1.92307   0.00000   0.00002  -0.00001   0.00001   1.92308
    A7        1.98588   0.00000  -0.00011   0.00010  -0.00001   1.98587
    A8        2.03262   0.00001   0.00011  -0.00000   0.00010   2.03272
    A9        1.88439  -0.00000   0.00000  -0.00003  -0.00002   1.88437
   A10        1.87004  -0.00001  -0.00010   0.00002  -0.00009   1.86995
   A11        1.89385  -0.00000   0.00003  -0.00000   0.00003   1.89388
   A12        1.91811  -0.00000   0.00001  -0.00001   0.00000   1.91812
   A13        1.85699   0.00000  -0.00006   0.00003  -0.00004   1.85695
   A14        1.95401  -0.00001  -0.00005  -0.00000  -0.00005   1.95396
   A15        1.91330   0.00000   0.00010  -0.00005   0.00005   1.91335
   A16        1.89963   0.00000  -0.00001   0.00004   0.00002   1.89966
   A17        1.94441   0.00000   0.00000   0.00004   0.00005   1.94446
   A18        1.89401  -0.00000  -0.00008   0.00003  -0.00006   1.89395
   A19        1.85522  -0.00000   0.00004  -0.00005  -0.00001   1.85522
   A20        1.90953   0.00000  -0.00002   0.00003   0.00001   1.90954
   A21        1.92069   0.00000   0.00002  -0.00002  -0.00000   1.92069
   A22        1.95222   0.00000   0.00008  -0.00006   0.00002   1.95224
   A23        1.88797  -0.00000  -0.00001   0.00002   0.00002   1.88799
   A24        1.89455  -0.00000  -0.00005   0.00001  -0.00004   1.89451
   A25        1.89759  -0.00000  -0.00003   0.00002  -0.00001   1.89758
   A26        2.23361   0.00001  -0.00001   0.00006   0.00005   2.23366
   A27        1.98164   0.00001   0.00010  -0.00003   0.00006   1.98171
   A28        2.06791  -0.00001  -0.00009  -0.00002  -0.00011   2.06780
   A29        2.24545   0.00003   0.00010   0.00004   0.00014   2.24559
   A30        1.99608  -0.00002  -0.00007  -0.00003  -0.00010   1.99597
   A31        2.04162  -0.00001  -0.00003  -0.00001  -0.00004   2.04158
   A32        2.10794   0.00001   0.00016  -0.00008   0.00007   2.10801
   A33        2.18062   0.00001  -0.00011   0.00009  -0.00002   2.18060
   A34        1.99462  -0.00001  -0.00005  -0.00001  -0.00005   1.99456
   A35        1.93742  -0.00000  -0.00005  -0.00000  -0.00005   1.93737
   A36        1.93691  -0.00000  -0.00001   0.00002   0.00002   1.93693
   A37        1.95189   0.00000   0.00000   0.00002   0.00002   1.95191
   A38        1.85783   0.00001   0.00013  -0.00006   0.00007   1.85790
   A39        1.88846  -0.00000  -0.00004   0.00001  -0.00003   1.88843
   A40        1.88783  -0.00000  -0.00002   0.00001  -0.00001   1.88782
   A41        1.92846   0.00000   0.00005  -0.00002   0.00003   1.92849
   A42        1.97941   0.00000   0.00002  -0.00001   0.00001   1.97942
   A43        1.92754  -0.00001  -0.00000  -0.00003  -0.00004   1.92750
   A44        1.88313  -0.00000  -0.00003   0.00003  -0.00001   1.88313
   A45        1.85598   0.00000   0.00006  -0.00002   0.00004   1.85602
   A46        1.88440  -0.00000  -0.00009   0.00006  -0.00003   1.88437
   A47        2.11322  -0.00001  -0.00012   0.00002  -0.00010   2.11312
   A48        2.13741   0.00000   0.00002  -0.00000   0.00001   2.13742
   A49        2.03255   0.00001   0.00011  -0.00002   0.00009   2.03264
    D1        1.00281   0.00000   0.00040  -0.00001   0.00039   1.00320
    D2        3.08950  -0.00000   0.00038  -0.00006   0.00032   3.08982
    D3       -1.07529   0.00000   0.00029   0.00005   0.00034  -1.07495
    D4        3.09178  -0.00000  -0.00007   0.00008   0.00001   3.09179
    D5       -1.05704   0.00000   0.00005   0.00005   0.00009  -1.05694
    D6        0.93690  -0.00000  -0.00008   0.00007  -0.00000   0.93689
    D7        1.09383   0.00000  -0.00007   0.00014   0.00007   1.09390
    D8       -3.05499   0.00000   0.00005   0.00011   0.00016  -3.05483
    D9       -1.06106  -0.00000  -0.00008   0.00013   0.00006  -1.06100
   D10       -1.13844   0.00000   0.00009   0.00002   0.00011  -1.13833
   D11        0.99592   0.00000   0.00021  -0.00001   0.00020   0.99612
   D12        2.98986  -0.00000   0.00008   0.00002   0.00010   2.98996
   D13       -1.07313   0.00000   0.00005   0.00017   0.00022  -1.07291
   D14        0.99897   0.00000   0.00004   0.00020   0.00025   0.99921
   D15        3.11021   0.00000   0.00007   0.00018   0.00025   3.11046
   D16        0.96218  -0.00000   0.00009   0.00007   0.00017   0.96235
   D17        3.03427   0.00000   0.00009   0.00011   0.00020   3.03447
   D18       -1.13766   0.00000   0.00012   0.00008   0.00020  -1.13747
   D19       -3.12247  -0.00000   0.00001   0.00013   0.00014  -3.12234
   D20       -1.05038  -0.00000   0.00000   0.00016   0.00017  -1.05021
   D21        1.06087  -0.00000   0.00003   0.00014   0.00017   1.06104
   D22       -2.13176  -0.00000  -0.00126  -0.00011  -0.00137  -2.13313
   D23        1.00366  -0.00000  -0.00112   0.00004  -0.00108   1.00258
   D24        2.09861  -0.00001  -0.00139  -0.00002  -0.00141   2.09719
   D25       -1.04916  -0.00000  -0.00126   0.00014  -0.00112  -1.05028
   D26       -0.11856  -0.00000  -0.00128  -0.00007  -0.00135  -0.11991
   D27        3.01686  -0.00000  -0.00114   0.00008  -0.00106   3.01580
   D28       -3.14037   0.00000   0.00019   0.00014   0.00033  -3.14004
   D29        0.97578   0.00000   0.00015   0.00012   0.00027   0.97605
   D30       -1.04666  -0.00000   0.00004   0.00019   0.00024  -1.04643
   D31        1.01341   0.00000   0.00008   0.00018   0.00026   1.01367
   D32       -1.15363  -0.00000   0.00004   0.00016   0.00020  -1.15342
   D33        3.10712  -0.00000  -0.00006   0.00023   0.00017   3.10729
   D34       -1.01053   0.00000   0.00014   0.00015   0.00029  -1.01024
   D35        3.10562   0.00000   0.00010   0.00014   0.00023   3.10585
   D36        1.08318  -0.00000  -0.00001   0.00021   0.00020   1.08338
   D37       -2.05765  -0.00000  -0.00087   0.00002  -0.00086  -2.05851
   D38        1.07443  -0.00000  -0.00079   0.00008  -0.00071   1.07371
   D39        0.09190   0.00000  -0.00077  -0.00002  -0.00080   0.09111
   D40       -3.05920   0.00000  -0.00069   0.00004  -0.00065  -3.05986
   D41        2.12854  -0.00000  -0.00077  -0.00005  -0.00082   2.12772
   D42       -1.02257  -0.00000  -0.00069   0.00001  -0.00067  -1.02324
   D43        3.12797   0.00000   0.00013   0.00021   0.00034   3.12831
   D44       -0.00925   0.00000   0.00034  -0.00004   0.00030  -0.00894
   D45       -0.00718   0.00000  -0.00001   0.00004   0.00003  -0.00715
   D46        3.13879  -0.00000   0.00020  -0.00021  -0.00000   3.13878
   D47        3.13893   0.00000  -0.00011   0.00017   0.00006   3.13899
   D48       -0.00726  -0.00000  -0.00001   0.00001   0.00000  -0.00726
   D49        0.00707  -0.00000  -0.00020   0.00011  -0.00009   0.00698
   D50       -3.13913  -0.00000  -0.00010  -0.00005  -0.00015  -3.13927
   D51       -2.11396   0.00000   0.00102   0.00001   0.00103  -2.11293
   D52        2.10686   0.00000   0.00089   0.00007   0.00096   2.10782
   D53       -0.00297   0.00000   0.00093   0.00003   0.00096  -0.00201
   D54        1.03177   0.00000   0.00093   0.00015   0.00108   1.03285
   D55       -1.03059   0.00000   0.00080   0.00022   0.00101  -1.02958
   D56       -3.14043   0.00000   0.00083   0.00018   0.00101  -3.13942
   D57       -2.08782   0.00000   0.00106   0.00004   0.00111  -2.08672
   D58        0.02900   0.00000   0.00107   0.00005   0.00112   0.03013
   D59        2.14679  -0.00000   0.00097   0.00010   0.00106   2.14785
   D60        1.04943  -0.00000   0.00116  -0.00011   0.00105   1.05048
   D61       -3.11692   0.00000   0.00117  -0.00010   0.00107  -3.11586
   D62       -0.99914  -0.00000   0.00107  -0.00006   0.00101  -0.99813
         Item               Value     Threshold  Converged?
 Maximum Force            0.000031     0.000450     YES
 RMS     Force            0.000006     0.000300     YES
 Maximum Displacement     0.003644     0.001800     NO 
 RMS     Displacement     0.000790     0.001200     YES
 Predicted change in Energy=-3.355200D-08
 Lowest energy point so far.  Saving SCF results.
 GradGradGradGradGradGradGradGradGradGradGradGradGradGradGradGradGradGrad

 Leave Link  103 at Sat May  4 10:48:25 2024, MaxMem= 13421772800 cpu:               5.5 elap:               0.2
 (Enter /tmpu/scunam/7/gaussian-2016.03/g1/g16/l202.exe)
                          Input orientation:                          
 ---------------------------------------------------------------------
 Center     Atomic      Atomic             Coordinates (Angstroms)
 Number     Number       Type             X           Y           Z
 ---------------------------------------------------------------------
      1          8           0        2.728777   -1.314012   -1.178312
      2          6           0        1.988558   -0.546412   -0.202042
      3          6           0        0.489011   -0.868328   -0.382216
      4          6           0       -0.478327   -0.203224    0.609709
      5          6           0        2.523145   -1.025974    1.140786
      6          6           0        2.243764    0.920743   -0.471766
      7          6           0       -1.905553   -0.586286    0.344379
      8          6           0       -2.930900    0.199164    0.003594
      9          6           0       -4.302241   -0.379567   -0.225001
     10          6           0       -2.850165    1.690211   -0.180168
     11          6           0        2.747400    1.826803    0.354975
     12          1           0        0.200224   -0.576491   -1.398895
     13          1           0        0.384470   -1.955870   -0.331762
     14          1           0       -0.344891    0.878135    0.581990
     15          1           0       -0.216378   -0.519304    1.625217
     16          1           0        2.319076   -2.091297    1.252489
     17          1           0        3.602048   -0.879892    1.187067
     18          1           0        2.062510   -0.495816    1.973313
     19          1           0        1.972771    1.231376   -1.480193
     20          1           0       -2.109776   -1.651112    0.439797
     21          1           0        2.402254   -1.089825   -2.057884
     22          1           0       -4.653874   -0.166695   -1.239939
     23          1           0       -5.034377    0.065919    0.456652
     24          1           0       -4.315850   -1.459853   -0.079540
     25          1           0       -3.519314    2.199644    0.520921
     26          1           0       -1.848607    2.089822   -0.036646
     27          1           0       -3.184831    1.970321   -1.184187
     28          1           0        2.894418    2.851787    0.038390
     29          1           0        3.036057    1.589632    1.371071
 ---------------------------------------------------------------------
                    Distance matrix (angstroms):
                    1          2          3          4          5
     1  O    0.000000
     2  C    1.445765   0.000000
     3  C    2.418460   1.544258   0.000000
     4  C    3.836193   2.619587   1.536887   0.000000
     5  C    2.345947   1.522809   2.545994   3.157181   0.000000
     6  C    2.393444   1.513415   2.507578   3.137302   2.543243
     7  C    4.932056   3.932463   2.518219   1.501369   4.521167
     8  C    5.976499   4.979883   3.603357   2.558204   5.704452
     9  C    7.156619   6.293053   4.818683   3.917927   6.990644
    10  C    6.414533   5.330685   4.211537   3.136020   6.164012
    11  C    3.495145   2.553088   3.592701   3.819845   2.967512
    12  H    2.643136   2.152092   1.096450   2.152730   3.471019
    13  H    2.573791   2.139275   1.093719   2.168536   2.758085
    14  H    4.165526   2.844121   2.162226   1.089914   3.487623
    15  H    4.143099   2.863800   2.156196   1.095345   2.827786
    16  H    2.584729   2.147457   2.741725   3.435615   1.090429
    17  H    2.558532   2.155037   3.486228   4.176204   1.089731
    18  H    3.323567   2.177199   2.857128   2.898427   1.089198
    19  H    2.672392   2.189624   2.795684   3.526137   3.502581
    20  H    5.113072   4.292862   2.835870   2.187893   4.727171
    21  H    0.964636   1.977522   2.552924   4.024904   3.201590
    22  H    7.471524   6.733745   5.260917   4.567026   7.610244
    23  H    8.052569   7.080285   5.664303   4.566558   7.666577
    24  H    7.131293   6.371416   4.850589   4.096433   6.960553
    25  H    7.366940   6.196786   5.127844   3.876760   6.877511
    26  H    5.817381   4.658425   3.786096   2.748364   5.496066
    27  H    6.764439   5.836310   4.711497   3.907368   6.853049
    28  H    4.343003   3.525074   4.449959   4.586382   4.048475
    29  H    3.876199   2.852126   3.950066   4.018072   2.675351
                    6          7          8          9         10
     6  C    0.000000
     7  C    4.489327   0.000000
     8  C    5.246312   1.335815   0.000000
     9  C    6.678463   2.472052   1.505908   0.000000
    10  C    5.159963   2.519897   1.504496   2.528738   0.000000
    11  C    1.325932   5.241477   5.917413   7.409580   5.624747
    12  H    2.697653   2.733751   3.517464   4.657145   3.991003
    13  H    3.428043   2.752659   3.968414   4.945845   4.876448
    14  H    2.795237   2.153289   2.735505   4.230091   2.741670
    15  H    3.538837   2.120931   3.242605   4.487439   3.883067
    16  H    3.471472   4.575720   5.862440   6.996773   6.563030
    17  H    2.799813   5.579426   6.726395   8.045002   7.078547
    18  H    2.831590   4.290353   5.412664   6.734697   5.792285
    19  H    1.089429   4.655572   5.226191   6.598971   5.016105
    20  H    5.137966   1.088424   2.070758   2.620245   3.478070
    21  H    2.565789   4.957985   5.861205   6.986714   6.232361
    22  H    7.024957   3.199905   2.156123   1.095016   2.797245
    23  H    7.386746   3.198049   2.155836   1.095048   2.795468
    24  H    6.989250   2.598531   2.162714   1.090120   3.475811
    25  H    5.986158   3.224407   2.148437   2.796731   1.094901
    26  H    4.278268   2.703696   2.178891   3.486212   1.087845
    27  H    5.574836   3.241806   2.147627   2.773196   1.094768
    28  H    2.100604   5.912164   6.400933   7.893219   5.864917
    29  H    2.114518   5.496201   6.277577   7.763749   6.088027
                   11         12         13         14         15
    11  C    0.000000
    12  H    3.916629   0.000000
    13  H    4.512611   1.753683   0.000000
    14  H    3.242494   2.517338   3.065696   0.000000
    15  H    3.987695   3.053208   2.500901   1.748621   0.000000
    16  H    4.042339   3.716720   2.504175   4.045222   3.006429
    17  H    2.957871   4.283884   3.717174   4.362924   3.860360
    18  H    2.912499   3.853102   3.203271   3.101467   2.305439
    19  H    2.079044   2.533163   3.741675   3.122328   4.183398
    20  H    5.974551   3.141927   2.628582   3.087415   2.504230
    21  H    3.801018   2.355146   2.793024   4.288194   4.554993
    22  H    7.829218   4.873959   5.423177   4.793583   5.293848
    23  H    7.979167   5.590777   5.837219   4.760954   4.992108
    24  H    7.802591   4.787061   4.733145   4.655355   4.538337
    25  H    6.279989   5.022707   5.764971   3.439052   4.418318
    26  H    4.620155   3.628037   4.630480   2.027821   3.497642
    27  H    6.130333   4.241574   5.374152   3.518169   4.785677
    28  H    1.082788   4.591029   5.436029   3.831960   4.853794
    29  H    1.082601   4.517382   4.743536   3.543965   3.884653
                   16         17         18         19         20
    16  H    0.000000
    17  H    1.765729   0.000000
    18  H    1.769456   1.770840   0.000000
    19  H    4.315975   3.771774   3.862375   0.000000
    20  H    4.524264   5.811896   4.592859   5.353718   0.000000
    21  H    3.459543   3.466019   4.088865   2.430259   5.187665
    22  H    7.651035   8.634771   7.452726   6.776780   3.390788
    23  H    7.704558   8.718710   7.278846   7.362728   3.391425
    24  H    6.796710   8.039513   6.769568   6.982213   2.274435
    25  H    7.282456   7.787240   6.366451   5.924947   4.101427
    26  H    6.042616   6.326636   5.101205   4.174169   3.780184
    27  H    7.261345   7.733583   6.601986   5.218670   4.111915
    28  H    5.122415   3.968076   3.955052   2.404424   6.743825
    29  H    3.751981   2.540227   2.378987   3.064087   6.152178
                   21         22         23         24         25
    21  H    0.000000
    22  H    7.163111   0.000000
    23  H    7.934867   1.754227   0.000000
    24  H    7.013109   1.770041   1.769678   0.000000
    25  H    7.248159   3.160287   2.617695   3.793012   0.000000
    26  H    5.680262   3.795959   3.806396   4.323114   1.764711
    27  H    6.429881   2.593845   3.120884   3.776975   1.752673
    28  H    4.491424   8.229342   8.414379   8.401911   6.464834
    29  H    4.397604   8.308857   8.263762   8.090375   6.638355
                   26         27         28         29
    26  H    0.000000
    27  H    1.765397   0.000000
    28  H    4.804425   6.263301   0.000000
    29  H    5.108013   6.736002   1.840960   0.000000
 Stoichiometry    C10H18O
 Framework group  C1[X(C10H18O)]
 Deg. of freedom    81
 Full point group                 C1      NOp   1
 RotChk:  IX=2 Diff= 4.86D-04
 Largest Abelian subgroup         C1      NOp   1
 Largest concise Abelian subgroup C1      NOp   1
                         Standard orientation:                         
 ---------------------------------------------------------------------
 Center     Atomic      Atomic             Coordinates (Angstroms)
 Number     Number       Type             X           Y           Z
 ---------------------------------------------------------------------
      1          8           0       -2.796128   -1.170477    1.100996
      2          6           0       -2.010547   -0.397356    0.165377
      3          6           0       -0.534861   -0.827103    0.315045
      4          6           0        0.470512   -0.170088   -0.643900
      5          6           0       -2.580742   -0.761337   -1.198934
      6          6           0       -2.167271    1.065091    0.521904
      7          6           0        1.870322   -0.660976   -0.412225
      8          6           0        2.946594    0.034106   -0.034201
      9          6           0        4.277577   -0.645869    0.149852
     10          6           0        2.965210    1.513920    0.236567
     11          6           0       -2.613107    2.049118   -0.246871
     12          1           0       -0.223567   -0.614878    1.344733
     13          1           0       -0.502567   -1.914343    0.200638
     14          1           0        0.408892    0.914223   -0.552327
     15          1           0        0.184400   -0.408293   -1.674035
     16          1           0       -2.447904   -1.829400   -1.373955
     17          1           0       -3.647810   -0.542219   -1.228384
     18          1           0       -2.089268   -0.214778   -2.002725
     19          1           0       -1.872521    1.297692    1.544584
     20          1           0        2.003409   -1.729506   -0.570962
     21          1           0       -2.452170   -1.020096    1.989591
     22          1           0        4.646359   -0.516330    1.172731
     23          1           0        5.034939   -0.210324   -0.510325
     24          1           0        4.219257   -1.714345   -0.058281
     25          1           0        3.663872    2.018440   -0.438813
     26          1           0        1.991692    1.986192    0.124194
     27          1           0        3.321461    1.712189    1.252584
     28          1           0       -2.690904    3.061256    0.129896
     29          1           0       -2.920660    1.891304   -1.272800
 ---------------------------------------------------------------------
 Rotational constants (GHZ):           1.9647286           0.4632442           0.4212222
 Leave Link  202 at Sat May  4 10:48:25 2024, MaxMem= 13421772800 cpu:               2.7 elap:               0.1
 (Enter /tmpu/scunam/7/gaussian-2016.03/g1/g16/l301.exe)
 Standard basis: def2TZVP (5D, 7F)
 Ernie: Thresh=  0.10000D-02 Tol=  0.10000D-05 Strict=F.
 There are   504 symmetry adapted cartesian basis functions of A   symmetry.
 There are   449 symmetry adapted basis functions of A   symmetry.
   449 basis functions,   705 primitive gaussians,   504 cartesian basis functions
    43 alpha electrons       43 beta electrons
       nuclear repulsion energy       617.4707297453 Hartrees.
 IExCor=  402 DFT=T Ex+Corr=B3LYP ExCW=0 ScaHFX=  0.200000
 ScaDFX=  0.800000  0.720000  1.000000  0.810000 ScalE2=  1.000000  1.000000
 IRadAn=      5 IRanWt=     -1 IRanGd=            0 ICorTp=0 IEmpDi=  4
 NAtoms=   29 NActive=   29 NUniq=   29 SFac= 1.00D+00 NAtFMM=   60 NAOKFM=F Big=F
 Integral buffers will be    131072 words long.
 Raffenetti 2 integral format.
 Two-electron integral symmetry is turned on.
 Leave Link  301 at Sat May  4 10:48:26 2024, MaxMem= 13421772800 cpu:               2.6 elap:               0.1
 (Enter /tmpu/scunam/7/gaussian-2016.03/g1/g16/l302.exe)
 NPDir=0 NMtPBC=     1 NCelOv=     1 NCel=       1 NClECP=     1 NCelD=      1
         NCelK=      1 NCelE2=     1 NClLst=     1 CellRange=     0.0.
 One-electron integrals computed using PRISM.
 One-electron integral symmetry used in STVInt
   1 Symmetry operations used in ECPInt.
 ECPInt:  NShTT=   18721 NPrTT=   54252 LenC2=   17415 LenP2D=   38538.
 LDataN:  DoStor=T MaxTD1= 6 Len=  172
 NBasis=   449 RedAO= T EigKep=  6.64D-05  NBF=   449
 NBsUse=   449 1.00D-06 EigRej= -1.00D+00 NBFU=   449
 Precomputing XC quadrature grid using
 IXCGrd= 4 IRadAn=           5 IRanWt=          -1 IRanGd=           0 AccXCQ= 0.00D+00.
 Generated NRdTot=       0 NPtTot=           0 NUsed=           0 NTot=          32
 NSgBfM=   501   501   501   501   501 MxSgAt=    29 MxSgA2=    29.
 Leave Link  302 at Sat May  4 10:48:26 2024, MaxMem= 13421772800 cpu:              16.4 elap:               0.5
 (Enter /tmpu/scunam/7/gaussian-2016.03/g1/g16/l303.exe)
 DipDrv:  MaxL=1.
 Leave Link  303 at Sat May  4 10:48:26 2024, MaxMem= 13421772800 cpu:               3.4 elap:               0.1
 (Enter /tmpu/scunam/7/gaussian-2016.03/g1/g16/l401.exe)
 Initial guess from the checkpoint file:  "linalool.chk"
 B after Tr=     0.000000    0.000000   -0.000000
         Rot=    1.000000   -0.000165    0.000015    0.000045 Ang=  -0.02 deg.
 Guess basis will be translated and rotated to current coordinates.
 JPrj=2 DoOrth=T DoCkMO=T.
 Leave Link  401 at Sat May  4 10:48:27 2024, MaxMem= 13421772800 cpu:              13.4 elap:               0.4
 (Enter /tmpu/scunam/7/gaussian-2016.03/g1/g16/l502.exe)
 Integral symmetry usage will be decided dynamically.
 Closed shell SCF:
 Using DIIS extrapolation, IDIIS=  1040.
 NGot= 13421772800 LenX= 13421243903 LenY= 13420989383
 Requested convergence on RMS density matrix=1.00D-08 within 128 cycles.
 Requested convergence on MAX density matrix=1.00D-06.
 Requested convergence on             energy=1.00D-06.
 No special actions if energy rises.
 Fock matrices will be formed incrementally for  20 cycles.

 Cycle   1  Pass 1  IDiag  1:
 FoFJK:  IHMeth= 1 ICntrl=       0 DoSepK=F KAlg= 0 I1Cent=           0 FoldK=F
 IRaf= 880000000 NMat=       1 IRICut=       1 DoRegI=T DoRafI=F ISym2E= 0 IDoP0=0 IntGTp=1.
 FoFCou: FMM=F IPFlag=           0 FMFlag=      100000 FMFlg1=           0
         NFxFlg=           0 DoJE=F BraDBF=F KetDBF=F FulRan=T
         wScrn=  0.000000 ICntrl=         0 IOpCl=  0 I1Cent=           0 NGrid=           0
         NMat0=    1 NMatS0=      1 NMatT0=    0 NMatD0=    1 NMtDS0=    0 NMtDT0=    0
 Symmetry not used in FoFCou.
 E= -467.273763129087    
 DIIS: error= 4.29D-05 at cycle   1 NSaved=   1.
 NSaved= 1 IEnMin= 1 EnMin= -467.273763129087     IErMin= 1 ErrMin= 4.29D-05
 ErrMax= 4.29D-05  0.00D+00 EMaxC= 1.00D-01 BMatC= 1.10D-06 BMatP= 1.10D-06
 IDIUse=1 WtCom= 1.00D+00 WtEn= 0.00D+00
 Coeff-Com:  0.100D+01
 Coeff:      0.100D+01
 Gap=     0.629 Goal=   None    Shift=    0.000
 RMSDP=3.86D-06 MaxDP=2.56D-04              OVMax= 3.55D-04

 Cycle   2  Pass 1  IDiag  1:
 RMSU=  3.86D-06    CP:  1.00D+00
 E= -467.273764686950     Delta-E=       -0.000001557863 Rises=F Damp=F
 DIIS: error= 7.05D-06 at cycle   2 NSaved=   2.
 NSaved= 2 IEnMin= 2 EnMin= -467.273764686950     IErMin= 2 ErrMin= 7.05D-06
 ErrMax= 7.05D-06  0.00D+00 EMaxC= 1.00D-01 BMatC= 9.16D-09 BMatP= 1.10D-06
 IDIUse=1 WtCom= 1.00D+00 WtEn= 0.00D+00
 Coeff-Com: -0.581D-01 0.106D+01
 Coeff:     -0.581D-01 0.106D+01
 Gap=     0.234 Goal=   None    Shift=    0.000
 RMSDP=4.42D-07 MaxDP=1.62D-05 DE=-1.56D-06 OVMax= 4.86D-05

 Cycle   3  Pass 1  IDiag  1:
 RMSU=  3.82D-07    CP:  1.00D+00  1.06D+00
 E= -467.273764708990     Delta-E=       -0.000000022040 Rises=F Damp=F
 DIIS: error= 1.74D-06 at cycle   3 NSaved=   3.
 NSaved= 3 IEnMin= 3 EnMin= -467.273764708990     IErMin= 3 ErrMin= 1.74D-06
 ErrMax= 1.74D-06  0.00D+00 EMaxC= 1.00D-01 BMatC= 1.56D-09 BMatP= 9.16D-09
 IDIUse=1 WtCom= 1.00D+00 WtEn= 0.00D+00
 Coeff-Com: -0.201D-01 0.298D+00 0.722D+00
 Coeff:     -0.201D-01 0.298D+00 0.722D+00
 Gap=     0.234 Goal=   None    Shift=    0.000
 RMSDP=1.40D-07 MaxDP=4.04D-06 DE=-2.20D-08 OVMax= 1.36D-05

 Cycle   4  Pass 1  IDiag  1:
 RMSU=  1.28D-07    CP:  1.00D+00  1.06D+00  8.58D-01
 E= -467.273764709965     Delta-E=       -0.000000000975 Rises=F Damp=F
 DIIS: error= 1.05D-06 at cycle   4 NSaved=   4.
 NSaved= 4 IEnMin= 4 EnMin= -467.273764709965     IErMin= 4 ErrMin= 1.05D-06
 ErrMax= 1.05D-06  0.00D+00 EMaxC= 1.00D-01 BMatC= 8.54D-10 BMatP= 1.56D-09
 IDIUse=1 WtCom= 1.00D+00 WtEn= 0.00D+00
 Coeff-Com: -0.364D-02 0.263D-01 0.422D+00 0.555D+00
 Coeff:     -0.364D-02 0.263D-01 0.422D+00 0.555D+00
 Gap=     0.234 Goal=   None    Shift=    0.000
 RMSDP=6.94D-08 MaxDP=2.60D-06 DE=-9.75D-10 OVMax= 8.99D-06

 Cycle   5  Pass 1  IDiag  1:
 RMSU=  4.44D-08    CP:  1.00D+00  1.06D+00  9.18D-01  6.27D-01
 E= -467.273764710671     Delta-E=       -0.000000000705 Rises=F Damp=F
 DIIS: error= 2.80D-07 at cycle   5 NSaved=   5.
 NSaved= 5 IEnMin= 5 EnMin= -467.273764710671     IErMin= 5 ErrMin= 2.80D-07
 ErrMax= 2.80D-07  0.00D+00 EMaxC= 1.00D-01 BMatC= 8.46D-11 BMatP= 8.54D-10
 IDIUse=1 WtCom= 1.00D+00 WtEn= 0.00D+00
 Coeff-Com:  0.255D-03-0.204D-01 0.154D+00 0.305D+00 0.561D+00
 Coeff:      0.255D-03-0.204D-01 0.154D+00 0.305D+00 0.561D+00
 Gap=     0.234 Goal=   None    Shift=    0.000
 RMSDP=2.36D-08 MaxDP=7.94D-07 DE=-7.05D-10 OVMax= 3.32D-06

 Cycle   6  Pass 1  IDiag  1:
 RMSU=  1.37D-08    CP:  1.00D+00  1.06D+00  9.39D-01  6.67D-01  6.29D-01
 E= -467.273764710737     Delta-E=       -0.000000000066 Rises=F Damp=F
 DIIS: error= 8.64D-08 at cycle   6 NSaved=   6.
 NSaved= 6 IEnMin= 6 EnMin= -467.273764710737     IErMin= 6 ErrMin= 8.64D-08
 ErrMax= 8.64D-08  0.00D+00 EMaxC= 1.00D-01 BMatC= 8.62D-12 BMatP= 8.46D-11
 IDIUse=1 WtCom= 1.00D+00 WtEn= 0.00D+00
 Coeff-Com:  0.533D-03-0.144D-01 0.362D-01 0.103D+00 0.304D+00 0.571D+00
 Coeff:      0.533D-03-0.144D-01 0.362D-01 0.103D+00 0.304D+00 0.571D+00
 Gap=     0.234 Goal=   None    Shift=    0.000
 RMSDP=7.16D-09 MaxDP=3.21D-07 DE=-6.64D-11 OVMax= 1.18D-06

 SCF Done:  E(RB3LYP) =  -467.273764711     A.U. after    6 cycles
            NFock=  6  Conv=0.72D-08     -V/T= 2.0054
 KE= 4.647652639588D+02 PE=-2.320217183146D+03 EE= 7.707074247309D+02
 Leave Link  502 at Sat May  4 10:48:59 2024, MaxMem= 13421772800 cpu:            1016.4 elap:              31.8
 (Enter /tmpu/scunam/7/gaussian-2016.03/g1/g16/l508.exe)
 QCSCF skips out because SCF is already converged.
 Leave Link  508 at Sat May  4 10:48:59 2024, MaxMem= 13421772800 cpu:               1.1 elap:               0.1
 (Enter /tmpu/scunam/7/gaussian-2016.03/g1/g16/l701.exe)
 ... and contract with generalized density number  0.
 Compute integral first derivatives.
   1 Symmetry operations used in ECPInt.
 ECPInt:  NShTT=   18721 NPrTT=   54252 LenC2=   17415 LenP2D=   38538.
 LDataN:  DoStor=T MaxTD1= 7 Len=  274
 Leave Link  701 at Sat May  4 10:48:59 2024, MaxMem= 13421772800 cpu:              10.6 elap:               0.4
 (Enter /tmpu/scunam/7/gaussian-2016.03/g1/g16/l702.exe)
 L702 exits ... SP integral derivatives will be done elsewhere.
 Leave Link  702 at Sat May  4 10:48:59 2024, MaxMem= 13421772800 cpu:               0.7 elap:               0.0
 (Enter /tmpu/scunam/7/gaussian-2016.03/g1/g16/l703.exe)
 Integral derivatives from FoFJK, PRISM(SPDF).
 Compute integral first derivatives, UseDBF=F ICtDFT=           0.
 Calling FoFJK, ICntrl=      2127 FMM=F ISym2X=0 I1Cent= 0 IOpClX= 0 NMat=1 NMatS=1 NMatT=0.
 FoFJK:  IHMeth= 1 ICntrl=    2127 DoSepK=F KAlg= 0 I1Cent=           0 FoldK=F
 IRaf=         0 NMat=       1 IRICut=       1 DoRegI=T DoRafI=F ISym2E= 0 IDoP0=0 IntGTp=1.
 FoFCou: FMM=F IPFlag=           0 FMFlag=      100000 FMFlg1=         800
         NFxFlg=           0 DoJE=F BraDBF=F KetDBF=F FulRan=T
         wScrn=  0.000000 ICntrl=      2127 IOpCl=  0 I1Cent=           0 NGrid=           0
         NMat0=    1 NMatS0=      1 NMatT0=    0 NMatD0=    1 NMtDS0=    0 NMtDT0=    0
 Symmetry not used in FoFCou.
 Leave Link  703 at Sat May  4 10:49:20 2024, MaxMem= 13421772800 cpu:             662.0 elap:              20.7
 (Enter /tmpu/scunam/7/gaussian-2016.03/g1/g16/l716.exe)
 Dipole        = 5.58607714D-01 3.81164836D-01 1.12357032D-01
 ***** Axes restored to original set *****
 -------------------------------------------------------------------
 Center     Atomic                   Forces (Hartrees/Bohr)
 Number     Number              X              Y              Z
 -------------------------------------------------------------------
      1        8          -0.000004461    0.000003892    0.000004389
      2        6           0.000012817   -0.000003659   -0.000007569
      3        6          -0.000010250    0.000003261    0.000005289
      4        6           0.000004574   -0.000005470   -0.000009611
      5        6           0.000000802   -0.000000433    0.000002630
      6        6          -0.000002436   -0.000001135    0.000002875
      7        6          -0.000002792    0.000002326    0.000002087
      8        6          -0.000000669   -0.000001334    0.000005776
      9        6           0.000005440   -0.000003221   -0.000000978
     10        6           0.000001431    0.000004412   -0.000000578
     11        6          -0.000001671    0.000001849   -0.000000412
     12        1           0.000001148    0.000000455   -0.000000242
     13        1           0.000001392   -0.000000153   -0.000001217
     14        1          -0.000000739    0.000000516    0.000001427
     15        1          -0.000002119    0.000002007    0.000002147
     16        1           0.000000589    0.000002017   -0.000001113
     17        1           0.000000334    0.000001417    0.000000830
     18        1          -0.000000361    0.000001790   -0.000000047
     19        1           0.000000215    0.000000327   -0.000001373
     20        1           0.000002169   -0.000000935   -0.000000100
     21        1           0.000000694   -0.000000086   -0.000000545
     22        1          -0.000002261   -0.000001449   -0.000001161
     23        1          -0.000000193    0.000000060   -0.000000343
     24        1          -0.000000328   -0.000000339    0.000000223
     25        1          -0.000001279   -0.000002188   -0.000000743
     26        1          -0.000001046   -0.000002217   -0.000000321
     27        1          -0.000001100   -0.000002024   -0.000000447
     28        1          -0.000000341    0.000000168   -0.000000828
     29        1           0.000000442    0.000000145   -0.000000046
 -------------------------------------------------------------------
 Cartesian Forces:  Max     0.000012817 RMS     0.000003016
 Leave Link  716 at Sat May  4 10:49:20 2024, MaxMem= 13421772800 cpu:               0.7 elap:               0.0
 (Enter /tmpu/scunam/7/gaussian-2016.03/g1/g16/l103.exe)

 GradGradGradGradGradGradGradGradGradGradGradGradGradGradGradGradGradGrad
 Berny optimization.
 Using GEDIIS/GDIIS optimizer.
 FormGI is forming the generalized inverse of G from B-inverse, IUseBI=4.
 Internal  Forces:  Max     0.000006187 RMS     0.000001300
 Search for a local minimum.
 Step number  13 out of a maximum of  174
 All quantities printed in internal units (Hartrees-Bohrs-Radians)
 RMS Force = .13001D-05 SwitMx=.10000D-02 MixMth= 2
 Mixed Optimization -- En-DIIS/RFO-DIIS
 Swapping is turned off.
 Update second derivatives using D2CorX and points    5    6    7    8    9
                                                     10   11   12   13
 DE= -6.65D-08 DEPred=-3.36D-08 R= 1.98D+00
 Trust test= 1.98D+00 RLast= 5.24D-03 DXMaxT set to 9.86D-01
 ITU=  0  0  0  1  1  1  1  1  1  1  1  1  0
     Eigenvalues ---    0.00115   0.00151   0.00244   0.00260   0.00327
     Eigenvalues ---    0.00352   0.00694   0.01165   0.01364   0.01560
     Eigenvalues ---    0.01610   0.02833   0.02935   0.02968   0.03154
     Eigenvalues ---    0.04257   0.04561   0.04643   0.05457   0.05489
     Eigenvalues ---    0.05709   0.06616   0.06954   0.07072   0.07216
     Eigenvalues ---    0.07332   0.08322   0.08884   0.09312   0.12667
     Eigenvalues ---    0.12858   0.14258   0.15859   0.15965   0.15997
     Eigenvalues ---    0.16000   0.16000   0.16001   0.16009   0.16020
     Eigenvalues ---    0.16052   0.16107   0.16217   0.16249   0.16460
     Eigenvalues ---    0.16904   0.17571   0.21081   0.22086   0.22142
     Eigenvalues ---    0.22699   0.24528   0.27584   0.28997   0.29164
     Eigenvalues ---    0.29783   0.31326   0.32005   0.32426   0.33082
     Eigenvalues ---    0.33737   0.33806   0.34040   0.34078   0.34139
     Eigenvalues ---    0.34172   0.34210   0.34262   0.34299   0.34380
     Eigenvalues ---    0.34475   0.34518   0.34893   0.34919   0.35408
     Eigenvalues ---    0.35645   0.37249   0.40268   0.52989   0.57435
     Eigenvalues ---    0.60519
 En-DIIS/RFO-DIIS/Sim-DIIS IScMMF=       -3 using points:    13   12   11   10    9    8    7    6    5    4
 RFO step:  Lambda=-1.15905156D-09.
 NNeg= 0 NGDIIS=10 SimSw=  2.50D-01 Rises=F DC= -6.65D-08 SmlDif=  1.00D-05
 NRisDI= 0 DoIntr=F SqrtH=F CThrHd= 10.0 CDAdj=  3.0
 RMS Error=  0.5961934192D-04 NUsed=10 OKEnD=F EnDIS=F
 InvSVX:  RCond= 4.01D-09 Info=           0 Equed=N FErr=  8.39D-12 BErr=  9.99D-17
 DIIS inversion failure, remove point  10.
 InvSVX:  RCond= 4.83D-09 Info=           0 Equed=N FErr=  5.07D-12 BErr=  7.51D-17
 DIIS inversion failure, remove point   9.
 InvSVX:  RCond= 9.61D-09 Info=           0 Equed=N FErr=  1.31D-12 BErr=  7.94D-17
 DIIS inversion failure, remove point   8.
 InvSVX:  RCond= 1.24D-08 Info=           0 Equed=N FErr=  1.10D-12 BErr=  7.83D-17
 DIIS inversion failure, remove point   7.
 InvSVX:  RCond= 1.66D-08 Info=           0 Equed=N FErr=  2.88D-13 BErr=  9.87D-17
 DIIS inversion failure, remove point   6.
 InvSVX:  RCond= 4.78D-08 Info=           0 Equed=N FErr=  5.26D-14 BErr=  9.74D-17
 DIIS inversion failure, remove point   5.
 InvSVX:  RCond= 2.10D-07 Info=           0 Equed=N FErr=  8.44D-15 BErr=  9.64D-17
 RFO-DIIS uses    4 points instead of   10
 DidBck=F Rises=F RFO-DIIS coefs:    1.11518   -0.15159    0.02066    0.01575    0.00000
                  RFO-DIIS coefs:    0.00000    0.00000    0.00000    0.00000    0.00000
 Iteration  1 RMS(Cart)=  0.00015946 RMS(Int)=  0.00000000
 Iteration  2 RMS(Cart)=  0.00000001 RMS(Int)=  0.00000000
 ITry= 1 IFail=0 DXMaxC= 6.02D-04 DCOld= 1.00D+10 DXMaxT= 9.86D-01 DXLimC= 3.00D+00 Rises=F
 Variable       Old X    -DE/DX   Delta X   Delta X   Delta X     New X
                                 (Linear)    (Quad)   (Total)
    R1        2.73210  -0.00001  -0.00001  -0.00001  -0.00002   2.73208
    R2        1.82290   0.00000   0.00000   0.00000   0.00000   1.82290
    R3        2.91822   0.00001   0.00001   0.00002   0.00003   2.91825
    R4        2.87769   0.00000  -0.00000   0.00001   0.00000   2.87770
    R5        2.85994  -0.00000  -0.00001  -0.00001  -0.00002   2.85993
    R6        2.90429  -0.00000  -0.00001  -0.00001  -0.00002   2.90428
    R7        2.07199   0.00000   0.00000   0.00000   0.00000   2.07199
    R8        2.06683   0.00000   0.00000  -0.00000   0.00000   2.06683
    R9        2.83718  -0.00000   0.00000  -0.00000  -0.00000   2.83717
   R10        2.05964   0.00000  -0.00000   0.00000   0.00000   2.05964
   R11        2.06990   0.00000   0.00000   0.00000   0.00000   2.06991
   R12        2.06061  -0.00000   0.00000  -0.00001  -0.00000   2.06061
   R13        2.05929   0.00000   0.00000   0.00000   0.00000   2.05930
   R14        2.05829   0.00000  -0.00000   0.00000   0.00000   2.05829
   R15        2.50565  -0.00000   0.00000  -0.00000   0.00000   2.50565
   R16        2.05872   0.00000   0.00000   0.00000   0.00000   2.05872
   R17        2.52433  -0.00000  -0.00000  -0.00000  -0.00000   2.52432
   R18        2.05682   0.00000   0.00000  -0.00000   0.00000   2.05683
   R19        2.84575  -0.00000  -0.00001  -0.00000  -0.00001   2.84575
   R20        2.84309   0.00000   0.00001  -0.00000   0.00001   2.84309
   R21        2.06928   0.00000  -0.00000   0.00001   0.00001   2.06929
   R22        2.06934   0.00000  -0.00000   0.00000  -0.00000   2.06934
   R23        2.06003  -0.00000   0.00000  -0.00000  -0.00000   2.06003
   R24        2.06906  -0.00000  -0.00000  -0.00000  -0.00000   2.06906
   R25        2.05573  -0.00000  -0.00000  -0.00000  -0.00000   2.05573
   R26        2.06881   0.00000   0.00000  -0.00000   0.00000   2.06881
   R27        2.04617  -0.00000  -0.00000  -0.00000  -0.00000   2.04617
   R28        2.04582   0.00000  -0.00000   0.00000   0.00000   2.04582
    A1        1.89549   0.00000   0.00000   0.00001   0.00001   1.89550
    A2        1.88358  -0.00000  -0.00000   0.00000   0.00000   1.88358
    A3        1.82194   0.00000  -0.00000   0.00002   0.00002   1.82196
    A4        1.88391   0.00000   0.00001   0.00001   0.00002   1.88392
    A5        1.95857  -0.00000  -0.00001   0.00000  -0.00001   1.95856
    A6        1.92308  -0.00000   0.00000  -0.00001  -0.00001   1.92307
    A7        1.98587  -0.00000   0.00000  -0.00001  -0.00001   1.98585
    A8        2.03272   0.00000   0.00001   0.00001   0.00002   2.03275
    A9        1.88437  -0.00000  -0.00000  -0.00001  -0.00001   1.88436
   A10        1.86995  -0.00000  -0.00001  -0.00001  -0.00002   1.86993
   A11        1.89388  -0.00000   0.00000   0.00000   0.00000   1.89388
   A12        1.91812   0.00000  -0.00000   0.00001   0.00001   1.91813
   A13        1.85695   0.00000  -0.00001  -0.00000  -0.00001   1.85694
   A14        1.95396   0.00000  -0.00001   0.00001   0.00000   1.95396
   A15        1.91335   0.00000   0.00001   0.00001   0.00002   1.91337
   A16        1.89966   0.00000   0.00000   0.00002   0.00002   1.89968
   A17        1.94446   0.00000   0.00001  -0.00000   0.00001   1.94446
   A18        1.89395  -0.00000  -0.00001  -0.00002  -0.00003   1.89392
   A19        1.85522  -0.00000  -0.00000  -0.00001  -0.00002   1.85520
   A20        1.90954  -0.00000   0.00000  -0.00001  -0.00001   1.90953
   A21        1.92069   0.00000   0.00000   0.00001   0.00001   1.92070
   A22        1.95224  -0.00000   0.00000  -0.00000  -0.00000   1.95223
   A23        1.88799   0.00000  -0.00000   0.00001   0.00000   1.88800
   A24        1.89451   0.00000  -0.00000   0.00001   0.00001   1.89452
   A25        1.89758  -0.00000  -0.00000  -0.00000  -0.00000   1.89758
   A26        2.23366  -0.00000   0.00001  -0.00000   0.00000   2.23366
   A27        1.98171   0.00000   0.00001  -0.00000   0.00000   1.98171
   A28        2.06780   0.00000  -0.00001   0.00001  -0.00001   2.06780
   A29        2.24559   0.00000   0.00002  -0.00000   0.00002   2.24561
   A30        1.99597  -0.00000  -0.00002  -0.00001  -0.00002   1.99595
   A31        2.04158   0.00000  -0.00001   0.00001   0.00000   2.04159
   A32        2.10801  -0.00000   0.00001  -0.00001   0.00000   2.10801
   A33        2.18060   0.00000  -0.00000   0.00000   0.00000   2.18060
   A34        1.99456  -0.00000  -0.00001   0.00001  -0.00000   1.99456
   A35        1.93737   0.00000  -0.00000   0.00002   0.00001   1.93738
   A36        1.93693  -0.00000  -0.00000  -0.00001  -0.00001   1.93692
   A37        1.95191   0.00000   0.00000   0.00001   0.00001   1.95192
   A38        1.85790  -0.00000   0.00001  -0.00002  -0.00001   1.85790
   A39        1.88843  -0.00000  -0.00000  -0.00000  -0.00001   1.88842
   A40        1.88782   0.00000  -0.00000   0.00000  -0.00000   1.88782
   A41        1.92849  -0.00000   0.00000  -0.00001  -0.00001   1.92848
   A42        1.97942  -0.00000   0.00000  -0.00001  -0.00001   1.97941
   A43        1.92750  -0.00000  -0.00001  -0.00000  -0.00001   1.92749
   A44        1.88313   0.00000   0.00000   0.00001   0.00001   1.88314
   A45        1.85602   0.00000   0.00000  -0.00000   0.00000   1.85602
   A46        1.88437   0.00000  -0.00000   0.00001   0.00001   1.88437
   A47        2.11312  -0.00000  -0.00001   0.00000  -0.00001   2.11311
   A48        2.13742  -0.00000   0.00000  -0.00000  -0.00000   2.13742
   A49        2.03264   0.00000   0.00001  -0.00000   0.00001   2.03265
    D1        1.00320  -0.00000   0.00001  -0.00000   0.00001   1.00321
    D2        3.08982   0.00000   0.00000   0.00001   0.00001   3.08983
    D3       -1.07495   0.00000   0.00001   0.00001   0.00002  -1.07494
    D4        3.09179   0.00000   0.00001  -0.00006  -0.00005   3.09174
    D5       -1.05694   0.00000   0.00002  -0.00006  -0.00003  -1.05698
    D6        0.93689  -0.00000   0.00001  -0.00007  -0.00006   0.93683
    D7        1.09390  -0.00000   0.00002  -0.00008  -0.00006   1.09384
    D8       -3.05483  -0.00000   0.00003  -0.00008  -0.00005  -3.05488
    D9       -1.06100  -0.00000   0.00002  -0.00009  -0.00007  -1.06107
   D10       -1.13833   0.00000   0.00002  -0.00005  -0.00003  -1.13836
   D11        0.99612   0.00000   0.00003  -0.00005  -0.00002   0.99610
   D12        2.98996  -0.00000   0.00002  -0.00007  -0.00004   2.98991
   D13       -1.07291   0.00000   0.00002   0.00003   0.00006  -1.07285
   D14        0.99921   0.00000   0.00002   0.00004   0.00006   0.99927
   D15        3.11046   0.00000   0.00002   0.00004   0.00006   3.11052
   D16        0.96235   0.00000   0.00002   0.00005   0.00006   0.96241
   D17        3.03447   0.00000   0.00002   0.00005   0.00007   3.03454
   D18       -1.13747   0.00000   0.00002   0.00005   0.00007  -1.13740
   D19       -3.12234  -0.00000   0.00001   0.00002   0.00003  -3.12230
   D20       -1.05021  -0.00000   0.00001   0.00002   0.00004  -1.05018
   D21        1.06104  -0.00000   0.00001   0.00002   0.00004   1.06107
   D22       -2.13313  -0.00000  -0.00011   0.00003  -0.00008  -2.13320
   D23        1.00258  -0.00000  -0.00008  -0.00002  -0.00010   1.00249
   D24        2.09719  -0.00000  -0.00011   0.00003  -0.00008   2.09711
   D25       -1.05028  -0.00000  -0.00008  -0.00002  -0.00010  -1.05038
   D26       -0.11991   0.00000  -0.00010   0.00005  -0.00005  -0.11997
   D27        3.01580   0.00000  -0.00007   0.00000  -0.00007   3.01572
   D28       -3.14004   0.00000   0.00006   0.00014   0.00020  -3.13984
   D29        0.97605   0.00000   0.00005   0.00013   0.00018   0.97623
   D30       -1.04643   0.00000   0.00005   0.00013   0.00018  -1.04625
   D31        1.01367   0.00000   0.00005   0.00014   0.00020   1.01387
   D32       -1.15342   0.00000   0.00004   0.00013   0.00018  -1.15325
   D33        3.10729  -0.00000   0.00004   0.00013   0.00017   3.10747
   D34       -1.01024   0.00000   0.00006   0.00014   0.00020  -1.01004
   D35        3.10585   0.00000   0.00005   0.00013   0.00018   3.10603
   D36        1.08338  -0.00000   0.00005   0.00013   0.00018   1.08356
   D37       -2.05851   0.00000  -0.00013   0.00008  -0.00005  -2.05856
   D38        1.07371  -0.00000  -0.00011   0.00001  -0.00010   1.07362
   D39        0.09111   0.00000  -0.00012   0.00010  -0.00002   0.09109
   D40       -3.05986   0.00000  -0.00010   0.00003  -0.00007  -3.05993
   D41        2.12772  -0.00000  -0.00012   0.00007  -0.00006   2.12767
   D42       -1.02324  -0.00000  -0.00011  -0.00000  -0.00011  -1.02335
   D43        3.12831  -0.00000   0.00003  -0.00005  -0.00002   3.12829
   D44       -0.00894   0.00000   0.00002   0.00001   0.00003  -0.00891
   D45       -0.00715  -0.00000   0.00000  -0.00000   0.00000  -0.00714
   D46        3.13878   0.00000  -0.00001   0.00006   0.00005   3.13883
   D47        3.13899  -0.00000   0.00001  -0.00010  -0.00009   3.13890
   D48       -0.00726  -0.00000   0.00001  -0.00000   0.00001  -0.00725
   D49        0.00698  -0.00000  -0.00001  -0.00003  -0.00004   0.00694
   D50       -3.13927   0.00000  -0.00001   0.00007   0.00006  -3.13922
   D51       -2.11293   0.00000   0.00006   0.00007   0.00013  -2.11280
   D52        2.10782   0.00000   0.00005   0.00008   0.00013   2.10796
   D53       -0.00201   0.00000   0.00005   0.00008   0.00013  -0.00188
   D54        1.03285  -0.00000   0.00006  -0.00003   0.00004   1.03289
   D55       -1.02958   0.00000   0.00006  -0.00001   0.00004  -1.02953
   D56       -3.13942   0.00000   0.00006  -0.00001   0.00005  -3.13937
   D57       -2.08672  -0.00000   0.00000  -0.00007  -0.00007  -2.08678
   D58        0.03013  -0.00000   0.00001  -0.00007  -0.00006   0.03007
   D59        2.14785  -0.00000  -0.00000  -0.00006  -0.00006   2.14779
   D60        1.05048  -0.00000  -0.00000   0.00003   0.00003   1.05051
   D61       -3.11586   0.00000   0.00000   0.00003   0.00003  -3.11582
   D62       -0.99813   0.00000  -0.00001   0.00004   0.00003  -0.99810
         Item               Value     Threshold  Converged?
 Maximum Force            0.000006     0.000450     YES
 RMS     Force            0.000001     0.000300     YES
 Maximum Displacement     0.000602     0.001800     YES
 RMS     Displacement     0.000159     0.001200     YES
 Predicted change in Energy=-1.631089D-09
 Optimization completed.
    -- Stationary point found.
                           ----------------------------
                           !   Optimized Parameters   !
                           ! (Angstroms and Degrees)  !
 --------------------------                            --------------------------
 ! Name  Definition              Value          Derivative Info.                !
 --------------------------------------------------------------------------------
 ! R1    R(1,2)                  1.4458         -DE/DX =    0.0                 !
 ! R2    R(1,21)                 0.9646         -DE/DX =    0.0                 !
 ! R3    R(2,3)                  1.5443         -DE/DX =    0.0                 !
 ! R4    R(2,5)                  1.5228         -DE/DX =    0.0                 !
 ! R5    R(2,6)                  1.5134         -DE/DX =    0.0                 !
 ! R6    R(3,4)                  1.5369         -DE/DX =    0.0                 !
 ! R7    R(3,12)                 1.0964         -DE/DX =    0.0                 !
 ! R8    R(3,13)                 1.0937         -DE/DX =    0.0                 !
 ! R9    R(4,7)                  1.5014         -DE/DX =    0.0                 !
 ! R10   R(4,14)                 1.0899         -DE/DX =    0.0                 !
 ! R11   R(4,15)                 1.0953         -DE/DX =    0.0                 !
 ! R12   R(5,16)                 1.0904         -DE/DX =    0.0                 !
 ! R13   R(5,17)                 1.0897         -DE/DX =    0.0                 !
 ! R14   R(5,18)                 1.0892         -DE/DX =    0.0                 !
 ! R15   R(6,11)                 1.3259         -DE/DX =    0.0                 !
 ! R16   R(6,19)                 1.0894         -DE/DX =    0.0                 !
 ! R17   R(7,8)                  1.3358         -DE/DX =    0.0                 !
 ! R18   R(7,20)                 1.0884         -DE/DX =    0.0                 !
 ! R19   R(8,9)                  1.5059         -DE/DX =    0.0                 !
 ! R20   R(8,10)                 1.5045         -DE/DX =    0.0                 !
 ! R21   R(9,22)                 1.095          -DE/DX =    0.0                 !
 ! R22   R(9,23)                 1.095          -DE/DX =    0.0                 !
 ! R23   R(9,24)                 1.0901         -DE/DX =    0.0                 !
 ! R24   R(10,25)                1.0949         -DE/DX =    0.0                 !
 ! R25   R(10,26)                1.0878         -DE/DX =    0.0                 !
 ! R26   R(10,27)                1.0948         -DE/DX =    0.0                 !
 ! R27   R(11,28)                1.0828         -DE/DX =    0.0                 !
 ! R28   R(11,29)                1.0826         -DE/DX =    0.0                 !
 ! A1    A(2,1,21)             108.6036         -DE/DX =    0.0                 !
 ! A2    A(1,2,3)              107.9209         -DE/DX =    0.0                 !
 ! A3    A(1,2,5)              104.3898         -DE/DX =    0.0                 !
 ! A4    A(1,2,6)              107.9398         -DE/DX =    0.0                 !
 ! A5    A(3,2,5)              112.2176         -DE/DX =    0.0                 !
 ! A6    A(3,2,6)              110.1843         -DE/DX =    0.0                 !
 ! A7    A(5,2,6)              113.7817         -DE/DX =    0.0                 !
 ! A8    A(2,3,4)              116.4665         -DE/DX =    0.0                 !
 ! A9    A(2,3,12)             107.9664         -DE/DX =    0.0                 !
 ! A10   A(2,3,13)             107.1405         -DE/DX =    0.0                 !
 ! A11   A(4,3,12)             108.5113         -DE/DX =    0.0                 !
 ! A12   A(4,3,13)             109.9001         -DE/DX =    0.0                 !
 ! A13   A(12,3,13)            106.3952         -DE/DX =    0.0                 !
 ! A14   A(3,4,7)              111.9536         -DE/DX =    0.0                 !
 ! A15   A(3,4,14)             109.6268         -DE/DX =    0.0                 !
 ! A16   A(3,4,15)             108.8424         -DE/DX =    0.0                 !
 ! A17   A(7,4,14)             111.4092         -DE/DX =    0.0                 !
 ! A18   A(7,4,15)             108.5152         -DE/DX =    0.0                 !
 ! A19   A(14,4,15)            106.2961         -DE/DX =    0.0                 !
 ! A20   A(2,5,16)             109.4086         -DE/DX =    0.0                 !
 ! A21   A(2,5,17)             110.0475         -DE/DX =    0.0                 !
 ! A22   A(2,5,18)             111.8551         -DE/DX =    0.0                 !
 ! A23   A(16,5,17)            108.1739         -DE/DX =    0.0                 !
 ! A24   A(16,5,18)            108.5474         -DE/DX =    0.0                 !
 ! A25   A(17,5,18)            108.7233         -DE/DX =    0.0                 !
 ! A26   A(2,6,11)             127.9794         -DE/DX =    0.0                 !
 ! A27   A(2,6,19)             113.5434         -DE/DX =    0.0                 !
 ! A28   A(11,6,19)            118.4764         -DE/DX =    0.0                 !
 ! A29   A(4,7,8)              128.6631         -DE/DX =    0.0                 !
 ! A30   A(4,7,20)             114.3609         -DE/DX =    0.0                 !
 ! A31   A(8,7,20)             116.974          -DE/DX =    0.0                 !
 ! A32   A(7,8,9)              120.7803         -DE/DX =    0.0                 !
 ! A33   A(7,8,10)             124.9391         -DE/DX =    0.0                 !
 ! A34   A(9,8,10)             114.2801         -DE/DX =    0.0                 !
 ! A35   A(8,9,22)             111.0029         -DE/DX =    0.0                 !
 ! A36   A(8,9,23)             110.9779         -DE/DX =    0.0                 !
 ! A37   A(8,9,24)             111.8361         -DE/DX =    0.0                 !
 ! A38   A(22,9,23)            106.4501         -DE/DX =    0.0                 !
 ! A39   A(22,9,24)            108.1989         -DE/DX =    0.0                 !
 ! A40   A(23,9,24)            108.1641         -DE/DX =    0.0                 !
 ! A41   A(8,10,25)            110.4942         -DE/DX =    0.0                 !
 ! A42   A(8,10,26)            113.4126         -DE/DX =    0.0                 !
 ! A43   A(8,10,27)            110.4377         -DE/DX =    0.0                 !
 ! A44   A(25,10,26)           107.8953         -DE/DX =    0.0                 !
 ! A45   A(25,10,27)           106.342          -DE/DX =    0.0                 !
 ! A46   A(26,10,27)           107.9662         -DE/DX =    0.0                 !
 ! A47   A(6,11,28)            121.0729         -DE/DX =    0.0                 !
 ! A48   A(6,11,29)            122.4652         -DE/DX =    0.0                 !
 ! A49   A(28,11,29)           116.4615         -DE/DX =    0.0                 !
 ! D1    D(21,1,2,3)            57.4792         -DE/DX =    0.0                 !
 ! D2    D(21,1,2,5)           177.0336         -DE/DX =    0.0                 !
 ! D3    D(21,1,2,6)           -61.5902         -DE/DX =    0.0                 !
 ! D4    D(1,2,3,4)            177.1464         -DE/DX =    0.0                 !
 ! D5    D(1,2,3,12)           -60.5584         -DE/DX =    0.0                 !
 ! D6    D(1,2,3,13)            53.6799         -DE/DX =    0.0                 !
 ! D7    D(5,2,3,4)             62.6757         -DE/DX =    0.0                 !
 ! D8    D(5,2,3,12)          -175.029          -DE/DX =    0.0                 !
 ! D9    D(5,2,3,13)           -60.7907         -DE/DX =    0.0                 !
 ! D10   D(6,2,3,4)            -65.2216         -DE/DX =    0.0                 !
 ! D11   D(6,2,3,12)            57.0736         -DE/DX =    0.0                 !
 ! D12   D(6,2,3,13)           171.3119         -DE/DX =    0.0                 !
 ! D13   D(1,2,5,16)           -61.4733         -DE/DX =    0.0                 !
 ! D14   D(1,2,5,17)            57.2507         -DE/DX =    0.0                 !
 ! D15   D(1,2,5,18)           178.2163         -DE/DX =    0.0                 !
 ! D16   D(3,2,5,16)            55.1384         -DE/DX =    0.0                 !
 ! D17   D(3,2,5,17)           173.8624         -DE/DX =    0.0                 !
 ! D18   D(3,2,5,18)           -65.172          -DE/DX =    0.0                 !
 ! D19   D(6,2,5,16)          -178.8967         -DE/DX =    0.0                 !
 ! D20   D(6,2,5,17)           -60.1727         -DE/DX =    0.0                 !
 ! D21   D(6,2,5,18)            60.7929         -DE/DX =    0.0                 !
 ! D22   D(1,2,6,11)          -122.2193         -DE/DX =    0.0                 !
 ! D23   D(1,2,6,19)            57.4437         -DE/DX =    0.0                 !
 ! D24   D(3,2,6,11)           120.1604         -DE/DX =    0.0                 !
 ! D25   D(3,2,6,19)           -60.1766         -DE/DX =    0.0                 !
 ! D26   D(5,2,6,11)            -6.8706         -DE/DX =    0.0                 !
 ! D27   D(5,2,6,19)           172.7924         -DE/DX =    0.0                 !
 ! D28   D(2,3,4,7)           -179.9112         -DE/DX =    0.0                 !
 ! D29   D(2,3,4,14)            55.9233         -DE/DX =    0.0                 !
 ! D30   D(2,3,4,15)           -59.9558         -DE/DX =    0.0                 !
 ! D31   D(12,3,4,7)            58.0793         -DE/DX =    0.0                 !
 ! D32   D(12,3,4,14)          -66.0862         -DE/DX =    0.0                 !
 ! D33   D(12,3,4,15)          178.0347         -DE/DX =    0.0                 !
 ! D34   D(13,3,4,7)           -57.8822         -DE/DX =    0.0                 !
 ! D35   D(13,3,4,14)          177.9523         -DE/DX =    0.0                 !
 ! D36   D(13,3,4,15)           62.0732         -DE/DX =    0.0                 !
 ! D37   D(3,4,7,8)           -117.9439         -DE/DX =    0.0                 !
 ! D38   D(3,4,7,20)            61.5192         -DE/DX =    0.0                 !
 ! D39   D(14,4,7,8)             5.22           -DE/DX =    0.0                 !
 ! D40   D(14,4,7,20)         -175.3169         -DE/DX =    0.0                 !
 ! D41   D(15,4,7,8)           121.9095         -DE/DX =    0.0                 !
 ! D42   D(15,4,7,20)          -58.6274         -DE/DX =    0.0                 !
 ! D43   D(2,6,11,28)          179.239          -DE/DX =    0.0                 !
 ! D44   D(2,6,11,29)           -0.5124         -DE/DX =    0.0                 !
 ! D45   D(19,6,11,28)          -0.4095         -DE/DX =    0.0                 !
 ! D46   D(19,6,11,29)         179.839          -DE/DX =    0.0                 !
 ! D47   D(4,7,8,9)            179.851          -DE/DX =    0.0                 !
 ! D48   D(4,7,8,10)            -0.416          -DE/DX =    0.0                 !
 ! D49   D(20,7,8,9)             0.3998         -DE/DX =    0.0                 !
 ! D50   D(20,7,8,10)         -179.8671         -DE/DX =    0.0                 !
 ! D51   D(7,8,9,22)          -121.0619         -DE/DX =    0.0                 !
 ! D52   D(7,8,9,23)           120.7694         -DE/DX =    0.0                 !
 ! D53   D(7,8,9,24)            -0.1153         -DE/DX =    0.0                 !
 ! D54   D(10,8,9,22)           59.1781         -DE/DX =    0.0                 !
 ! D55   D(10,8,9,23)          -58.9905         -DE/DX =    0.0                 !
 ! D56   D(10,8,9,24)         -179.8753         -DE/DX =    0.0                 !
 ! D57   D(7,8,10,25)         -119.5601         -DE/DX =    0.0                 !
 ! D58   D(7,8,10,26)            1.7262         -DE/DX =    0.0                 !
 ! D59   D(7,8,10,27)          123.0629         -DE/DX =    0.0                 !
 ! D60   D(9,8,10,25)           60.1883         -DE/DX =    0.0                 !
 ! D61   D(9,8,10,26)         -178.5254         -DE/DX =    0.0                 !
 ! D62   D(9,8,10,27)          -57.1887         -DE/DX =    0.0                 !
 --------------------------------------------------------------------------------
 Lowest energy point so far.  Saving SCF results.
 Largest change from initial coordinates is atom   28       0.771 Angstoms.
 GradGradGradGradGradGradGradGradGradGradGradGradGradGradGradGradGradGrad

 Leave Link  103 at Sat May  4 10:49:20 2024, MaxMem= 13421772800 cpu:               8.0 elap:               0.3
 (Enter /tmpu/scunam/7/gaussian-2016.03/g1/g16/l202.exe)
                          Input orientation:                          
 ---------------------------------------------------------------------
 Center     Atomic      Atomic             Coordinates (Angstroms)
 Number     Number       Type             X           Y           Z
 ---------------------------------------------------------------------
      1          8           0        2.728777   -1.314012   -1.178312
      2          6           0        1.988558   -0.546412   -0.202042
      3          6           0        0.489011   -0.868328   -0.382216
      4          6           0       -0.478327   -0.203224    0.609709
      5          6           0        2.523145   -1.025974    1.140786
      6          6           0        2.243764    0.920743   -0.471766
      7          6           0       -1.905553   -0.586286    0.344379
      8          6           0       -2.930900    0.199164    0.003594
      9          6           0       -4.302241   -0.379567   -0.225001
     10          6           0       -2.850165    1.690211   -0.180168
     11          6           0        2.747400    1.826803    0.354975
     12          1           0        0.200224   -0.576491   -1.398895
     13          1           0        0.384470   -1.955870   -0.331762
     14          1           0       -0.344891    0.878135    0.581990
     15          1           0       -0.216378   -0.519304    1.625217
     16          1           0        2.319076   -2.091297    1.252489
     17          1           0        3.602048   -0.879892    1.187067
     18          1           0        2.062510   -0.495816    1.973313
     19          1           0        1.972771    1.231376   -1.480193
     20          1           0       -2.109776   -1.651112    0.439797
     21          1           0        2.402254   -1.089825   -2.057884
     22          1           0       -4.653874   -0.166695   -1.239939
     23          1           0       -5.034377    0.065919    0.456652
     24          1           0       -4.315850   -1.459853   -0.079540
     25          1           0       -3.519314    2.199644    0.520921
     26          1           0       -1.848607    2.089822   -0.036646
     27          1           0       -3.184831    1.970321   -1.184187
     28          1           0        2.894418    2.851787    0.038390
     29          1           0        3.036057    1.589632    1.371071
 ---------------------------------------------------------------------
                    Distance matrix (angstroms):
                    1          2          3          4          5
     1  O    0.000000
     2  C    1.445765   0.000000
     3  C    2.418460   1.544258   0.000000
     4  C    3.836193   2.619587   1.536887   0.000000
     5  C    2.345947   1.522809   2.545994   3.157181   0.000000
     6  C    2.393444   1.513415   2.507578   3.137302   2.543243
     7  C    4.932056   3.932463   2.518219   1.501369   4.521167
     8  C    5.976499   4.979883   3.603357   2.558204   5.704452
     9  C    7.156619   6.293053   4.818683   3.917927   6.990644
    10  C    6.414533   5.330685   4.211537   3.136020   6.164012
    11  C    3.495145   2.553088   3.592701   3.819845   2.967512
    12  H    2.643136   2.152092   1.096450   2.152730   3.471019
    13  H    2.573791   2.139275   1.093719   2.168536   2.758085
    14  H    4.165526   2.844121   2.162226   1.089914   3.487623
    15  H    4.143099   2.863800   2.156196   1.095345   2.827786
    16  H    2.584729   2.147457   2.741725   3.435615   1.090429
    17  H    2.558532   2.155037   3.486228   4.176204   1.089731
    18  H    3.323567   2.177199   2.857128   2.898427   1.089198
    19  H    2.672392   2.189624   2.795684   3.526137   3.502581
    20  H    5.113072   4.292862   2.835870   2.187893   4.727171
    21  H    0.964636   1.977522   2.552924   4.024904   3.201590
    22  H    7.471524   6.733745   5.260917   4.567026   7.610244
    23  H    8.052569   7.080285   5.664303   4.566558   7.666577
    24  H    7.131293   6.371416   4.850589   4.096433   6.960553
    25  H    7.366940   6.196786   5.127844   3.876760   6.877511
    26  H    5.817381   4.658425   3.786096   2.748364   5.496066
    27  H    6.764439   5.836310   4.711497   3.907368   6.853049
    28  H    4.343003   3.525074   4.449959   4.586382   4.048475
    29  H    3.876199   2.852126   3.950066   4.018072   2.675351
                    6          7          8          9         10
     6  C    0.000000
     7  C    4.489327   0.000000
     8  C    5.246312   1.335815   0.000000
     9  C    6.678463   2.472052   1.505908   0.000000
    10  C    5.159963   2.519897   1.504496   2.528738   0.000000
    11  C    1.325932   5.241477   5.917413   7.409580   5.624747
    12  H    2.697653   2.733751   3.517464   4.657145   3.991003
    13  H    3.428043   2.752659   3.968414   4.945845   4.876448
    14  H    2.795237   2.153289   2.735505   4.230091   2.741670
    15  H    3.538837   2.120931   3.242605   4.487439   3.883067
    16  H    3.471472   4.575720   5.862440   6.996773   6.563030
    17  H    2.799813   5.579426   6.726395   8.045002   7.078547
    18  H    2.831590   4.290353   5.412664   6.734697   5.792285
    19  H    1.089429   4.655572   5.226191   6.598971   5.016105
    20  H    5.137966   1.088424   2.070758   2.620245   3.478070
    21  H    2.565789   4.957985   5.861205   6.986714   6.232361
    22  H    7.024957   3.199905   2.156123   1.095016   2.797245
    23  H    7.386746   3.198049   2.155836   1.095048   2.795468
    24  H    6.989250   2.598531   2.162714   1.090120   3.475811
    25  H    5.986158   3.224407   2.148437   2.796731   1.094901
    26  H    4.278268   2.703696   2.178891   3.486212   1.087845
    27  H    5.574836   3.241806   2.147627   2.773196   1.094768
    28  H    2.100604   5.912164   6.400933   7.893219   5.864917
    29  H    2.114518   5.496201   6.277577   7.763749   6.088027
                   11         12         13         14         15
    11  C    0.000000
    12  H    3.916629   0.000000
    13  H    4.512611   1.753683   0.000000
    14  H    3.242494   2.517338   3.065696   0.000000
    15  H    3.987695   3.053208   2.500901   1.748621   0.000000
    16  H    4.042339   3.716720   2.504175   4.045222   3.006429
    17  H    2.957871   4.283884   3.717174   4.362924   3.860360
    18  H    2.912499   3.853102   3.203271   3.101467   2.305439
    19  H    2.079044   2.533163   3.741675   3.122328   4.183398
    20  H    5.974551   3.141927   2.628582   3.087415   2.504230
    21  H    3.801018   2.355146   2.793024   4.288194   4.554993
    22  H    7.829218   4.873959   5.423177   4.793583   5.293848
    23  H    7.979167   5.590777   5.837219   4.760954   4.992108
    24  H    7.802591   4.787061   4.733145   4.655355   4.538337
    25  H    6.279989   5.022707   5.764971   3.439052   4.418318
    26  H    4.620155   3.628037   4.630480   2.027821   3.497642
    27  H    6.130333   4.241574   5.374152   3.518169   4.785677
    28  H    1.082788   4.591029   5.436029   3.831960   4.853794
    29  H    1.082601   4.517382   4.743536   3.543965   3.884653
                   16         17         18         19         20
    16  H    0.000000
    17  H    1.765729   0.000000
    18  H    1.769456   1.770840   0.000000
    19  H    4.315975   3.771774   3.862375   0.000000
    20  H    4.524264   5.811896   4.592859   5.353718   0.000000
    21  H    3.459543   3.466019   4.088865   2.430259   5.187665
    22  H    7.651035   8.634771   7.452726   6.776780   3.390788
    23  H    7.704558   8.718710   7.278846   7.362728   3.391425
    24  H    6.796710   8.039513   6.769568   6.982213   2.274435
    25  H    7.282456   7.787240   6.366451   5.924947   4.101427
    26  H    6.042616   6.326636   5.101205   4.174169   3.780184
    27  H    7.261345   7.733583   6.601986   5.218670   4.111915
    28  H    5.122415   3.968076   3.955052   2.404424   6.743825
    29  H    3.751981   2.540227   2.378987   3.064087   6.152178
                   21         22         23         24         25
    21  H    0.000000
    22  H    7.163111   0.000000
    23  H    7.934867   1.754227   0.000000
    24  H    7.013109   1.770041   1.769678   0.000000
    25  H    7.248159   3.160287   2.617695   3.793012   0.000000
    26  H    5.680262   3.795959   3.806396   4.323114   1.764711
    27  H    6.429881   2.593845   3.120884   3.776975   1.752673
    28  H    4.491424   8.229342   8.414379   8.401911   6.464834
    29  H    4.397604   8.308857   8.263762   8.090375   6.638355
                   26         27         28         29
    26  H    0.000000
    27  H    1.765397   0.000000
    28  H    4.804425   6.263301   0.000000
    29  H    5.108013   6.736002   1.840960   0.000000
 Stoichiometry    C10H18O
 Framework group  C1[X(C10H18O)]
 Deg. of freedom    81
 Full point group                 C1      NOp   1
 RotChk:  IX=2 Diff= 4.65D-16
 Largest Abelian subgroup         C1      NOp   1
 Largest concise Abelian subgroup C1      NOp   1
                         Standard orientation:                         
 ---------------------------------------------------------------------
 Center     Atomic      Atomic             Coordinates (Angstroms)
 Number     Number       Type             X           Y           Z
 ---------------------------------------------------------------------
      1          8           0       -2.796128   -1.170477    1.100996
      2          6           0       -2.010547   -0.397356    0.165377
      3          6           0       -0.534861   -0.827103    0.315045
      4          6           0        0.470512   -0.170088   -0.643900
      5          6           0       -2.580742   -0.761337   -1.198934
      6          6           0       -2.167271    1.065091    0.521904
      7          6           0        1.870322   -0.660976   -0.412225
      8          6           0        2.946594    0.034106   -0.034201
      9          6           0        4.277577   -0.645869    0.149852
     10          6           0        2.965210    1.513920    0.236567
     11          6           0       -2.613107    2.049118   -0.246871
     12          1           0       -0.223567   -0.614878    1.344733
     13          1           0       -0.502567   -1.914343    0.200638
     14          1           0        0.408892    0.914223   -0.552327
     15          1           0        0.184400   -0.408293   -1.674035
     16          1           0       -2.447904   -1.829400   -1.373955
     17          1           0       -3.647810   -0.542219   -1.228384
     18          1           0       -2.089268   -0.214778   -2.002725
     19          1           0       -1.872521    1.297692    1.544584
     20          1           0        2.003409   -1.729506   -0.570962
     21          1           0       -2.452170   -1.020096    1.989591
     22          1           0        4.646359   -0.516330    1.172731
     23          1           0        5.034939   -0.210324   -0.510325
     24          1           0        4.219257   -1.714345   -0.058281
     25          1           0        3.663872    2.018440   -0.438813
     26          1           0        1.991692    1.986192    0.124194
     27          1           0        3.321461    1.712189    1.252584
     28          1           0       -2.690904    3.061256    0.129896
     29          1           0       -2.920660    1.891304   -1.272800
 ---------------------------------------------------------------------
 Rotational constants (GHZ):           1.9647286           0.4632442           0.4212222
 Leave Link  202 at Sat May  4 10:49:20 2024, MaxMem= 13421772800 cpu:               2.7 elap:               0.1
 (Enter /tmpu/scunam/7/gaussian-2016.03/g1/g16/l601.exe)
 Copying SCF densities to generalized density rwf, IOpCl= 0 IROHF=0.

 **********************************************************************

            Population analysis using the SCF density.

 **********************************************************************

 Orbital symmetries:
       Occupied  (A) (A) (A) (A) (A) (A) (A) (A) (A) (A) (A) (A)
                 (A) (A) (A) (A) (A) (A) (A) (A) (A) (A) (A) (A)
                 (A) (A) (A) (A) (A) (A) (A) (A) (A) (A) (A) (A)
                 (A) (A) (A) (A) (A) (A) (A)
       Virtual   (A) (A) (A) (A) (A) (A) (A) (A) (A) (A) (A) (A)
                 (A) (A) (A) (A) (A) (A) (A) (A) (A) (A) (A) (A)
                 (A) (A) (A) (A) (A) (A) (A) (A) (A) (A) (A) (A)
                 (A) (A) (A) (A) (A) (A) (A) (A) (A) (A) (A) (A)
                 (A) (A) (A) (A) (A) (A) (A) (A) (A) (A) (A) (A)
                 (A) (A) (A) (A) (A) (A) (A) (A) (A) (A) (A) (A)
                 (A) (A) (A) (A) (A) (A) (A) (A) (A) (A) (A) (A)
                 (A) (A) (A) (A) (A) (A) (A) (A) (A) (A) (A) (A)
                 (A) (A) (A) (A) (A) (A) (A) (A) (A) (A) (A) (A)
                 (A) (A) (A) (A) (A) (A) (A) (A) (A) (A) (A) (A)
                 (A) (A) (A) (A) (A) (A) (A) (A) (A) (A) (A) (A)
                 (A) (A) (A) (A) (A) (A) (A) (A) (A) (A) (A) (A)
                 (A) (A) (A) (A) (A) (A) (A) (A) (A) (A) (A) (A)
                 (A) (A) (A) (A) (A) (A) (A) (A) (A) (A) (A) (A)
                 (A) (A) (A) (A) (A) (A) (A) (A) (A) (A) (A) (A)
                 (A) (A) (A) (A) (A) (A) (A) (A) (A) (A) (A) (A)
                 (A) (A) (A) (A) (A) (A) (A) (A) (A) (A) (A) (A)
                 (A) (A) (A) (A) (A) (A) (A) (A) (A) (A) (A) (A)
                 (A) (A) (A) (A) (A) (A) (A) (A) (A) (A) (A) (A)
                 (A) (A) (A) (A) (A) (A) (A) (A) (A) (A) (A) (A)
                 (A) (A) (A) (A) (A) (A) (A) (A) (A) (A) (A) (A)
                 (A) (A) (A) (A) (A) (A) (A) (A) (A) (A) (A) (A)
                 (A) (A) (A) (A) (A) (A) (A) (A) (A) (A) (A) (A)
                 (A) (A) (A) (A) (A) (A) (A) (A) (A) (A) (A) (A)
                 (A) (A) (A) (A) (A) (A) (A) (A) (A) (A) (A) (A)
                 (A) (A) (A) (A) (A) (A) (A) (A) (A) (A) (A) (A)
                 (A) (A) (A) (A) (A) (A) (A) (A) (A) (A) (A) (A)
                 (A) (A) (A) (A) (A) (A) (A) (A) (A) (A) (A) (A)
                 (A) (A) (A) (A) (A) (A) (A) (A) (A) (A) (A) (A)
                 (A) (A) (A) (A) (A) (A) (A) (A) (A) (A) (A) (A)
                 (A) (A) (A) (A) (A) (A) (A) (A) (A) (A) (A) (A)
                 (A) (A) (A) (A) (A) (A) (A) (A) (A) (A) (A) (A)
                 (A) (A) (A) (A) (A) (A) (A) (A) (A) (A) (A) (A)
                 (A) (A) (A) (A) (A) (A) (A) (A) (A) (A)
 The electronic state is 1-A.
 Alpha  occ. eigenvalues --  -19.12339 -10.23440 -10.17792 -10.17657 -10.17081
 Alpha  occ. eigenvalues --  -10.17012 -10.16934 -10.16529 -10.16353 -10.16100
 Alpha  occ. eigenvalues --  -10.15906  -1.02182  -0.82422  -0.80565  -0.76561
 Alpha  occ. eigenvalues --   -0.72997  -0.69475  -0.68510  -0.63571  -0.60176
 Alpha  occ. eigenvalues --   -0.55503  -0.52245  -0.50165  -0.47814  -0.47350
 Alpha  occ. eigenvalues --   -0.45562  -0.43709  -0.43440  -0.41500  -0.40986
 Alpha  occ. eigenvalues --   -0.38787  -0.38762  -0.38729  -0.37482  -0.37179
 Alpha  occ. eigenvalues --   -0.36274  -0.35635  -0.35109  -0.32973  -0.32514
 Alpha  occ. eigenvalues --   -0.28192  -0.27043  -0.23868
 Alpha virt. eigenvalues --   -0.00504   0.01644   0.02637   0.03758   0.04907
 Alpha virt. eigenvalues --    0.06075   0.07403   0.07731   0.08900   0.09685
 Alpha virt. eigenvalues --    0.09904   0.10353   0.10996   0.11445   0.12141
 Alpha virt. eigenvalues --    0.12852   0.13870   0.14352   0.14695   0.14837
 Alpha virt. eigenvalues --    0.15858   0.16751   0.17466   0.17721   0.18621
 Alpha virt. eigenvalues --    0.19322   0.20436   0.21171   0.21848   0.22436
 Alpha virt. eigenvalues --    0.23083   0.24426   0.24821   0.26320   0.27188
 Alpha virt. eigenvalues --    0.28111   0.29359   0.29645   0.31487   0.31697
 Alpha virt. eigenvalues --    0.32347   0.33530   0.33675   0.34495   0.35120
 Alpha virt. eigenvalues --    0.36061   0.36548   0.36985   0.37513   0.38702
 Alpha virt. eigenvalues --    0.39805   0.40131   0.40946   0.41891   0.42663
 Alpha virt. eigenvalues --    0.42904   0.43649   0.44293   0.45376   0.45617
 Alpha virt. eigenvalues --    0.46021   0.46366   0.46673   0.46834   0.47591
 Alpha virt. eigenvalues --    0.47615   0.48078   0.48954   0.49291   0.49628
 Alpha virt. eigenvalues --    0.51131   0.51362   0.52637   0.53891   0.54308
 Alpha virt. eigenvalues --    0.55358   0.55879   0.58160   0.58372   0.59322
 Alpha virt. eigenvalues --    0.61815   0.62505   0.63556   0.64635   0.64737
 Alpha virt. eigenvalues --    0.66263   0.66483   0.67952   0.69091   0.70113
 Alpha virt. eigenvalues --    0.71062   0.73462   0.74326   0.74662   0.77798
 Alpha virt. eigenvalues --    0.78882   0.81032   0.83628   0.84053   0.84637
 Alpha virt. eigenvalues --    0.87101   0.88107   0.89676   0.90582   0.92328
 Alpha virt. eigenvalues --    0.94997   0.95538   0.96529   0.97995   0.98812
 Alpha virt. eigenvalues --    1.00089   1.00628   1.01672   1.03050   1.04094
 Alpha virt. eigenvalues --    1.06234   1.07043   1.08204   1.10111   1.11231
 Alpha virt. eigenvalues --    1.12758   1.14191   1.16005   1.16368   1.17083
 Alpha virt. eigenvalues --    1.18131   1.20078   1.21938   1.23058   1.23937
 Alpha virt. eigenvalues --    1.24405   1.26716   1.27722   1.28104   1.29470
 Alpha virt. eigenvalues --    1.35290   1.36315   1.37326   1.40058   1.40207
 Alpha virt. eigenvalues --    1.42834   1.44982   1.46021   1.47587   1.49208
 Alpha virt. eigenvalues --    1.50921   1.51782   1.52565   1.52790   1.53292
 Alpha virt. eigenvalues --    1.53946   1.54994   1.55539   1.56605   1.57469
 Alpha virt. eigenvalues --    1.58075   1.58228   1.59997   1.60670   1.61034
 Alpha virt. eigenvalues --    1.62248   1.62570   1.64685   1.66025   1.66504
 Alpha virt. eigenvalues --    1.67816   1.69260   1.70120   1.71995   1.72776
 Alpha virt. eigenvalues --    1.73144   1.74880   1.78848   1.79764   1.82000
 Alpha virt. eigenvalues --    1.83189   1.83338   1.85250   1.87766   1.89096
 Alpha virt. eigenvalues --    1.91668   1.92628   1.93615   1.95219   1.95790
 Alpha virt. eigenvalues --    1.96009   1.98545   1.98764   2.00248   2.02484
 Alpha virt. eigenvalues --    2.03359   2.04754   2.06726   2.07722   2.08529
 Alpha virt. eigenvalues --    2.10639   2.12443   2.14247   2.15884   2.17687
 Alpha virt. eigenvalues --    2.18781   2.22313   2.23024   2.25133   2.26477
 Alpha virt. eigenvalues --    2.26741   2.28872   2.30235   2.30449   2.31273
 Alpha virt. eigenvalues --    2.31746   2.33234   2.34689   2.34849   2.37649
 Alpha virt. eigenvalues --    2.38314   2.39789   2.40376   2.41708   2.42223
 Alpha virt. eigenvalues --    2.44804   2.45606   2.46130   2.47767   2.49861
 Alpha virt. eigenvalues --    2.50699   2.52085   2.52385   2.53485   2.54220
 Alpha virt. eigenvalues --    2.54659   2.55954   2.57094   2.57521   2.58685
 Alpha virt. eigenvalues --    2.60053   2.60970   2.61938   2.62773   2.64676
 Alpha virt. eigenvalues --    2.66241   2.66750   2.68245   2.69545   2.70745
 Alpha virt. eigenvalues --    2.72458   2.73944   2.75599   2.76689   2.77675
 Alpha virt. eigenvalues --    2.78553   2.79746   2.81023   2.82410   2.84032
 Alpha virt. eigenvalues --    2.84972   2.87277   2.88733   2.90704   2.92032
 Alpha virt. eigenvalues --    2.94001   2.94742   2.95376   2.96907   2.97812
 Alpha virt. eigenvalues --    3.00102   3.02568   3.03254   3.04306   3.05073
 Alpha virt. eigenvalues --    3.06368   3.06975   3.09057   3.10500   3.11867
 Alpha virt. eigenvalues --    3.12469   3.13114   3.14078   3.15190   3.16766
 Alpha virt. eigenvalues --    3.17080   3.17587   3.18855   3.20098   3.21474
 Alpha virt. eigenvalues --    3.22487   3.24480   3.25927   3.26705   3.27772
 Alpha virt. eigenvalues --    3.28758   3.30541   3.32229   3.32639   3.33394
 Alpha virt. eigenvalues --    3.33839   3.34815   3.35435   3.36623   3.37420
 Alpha virt. eigenvalues --    3.38035   3.39651   3.41226   3.42214   3.43893
 Alpha virt. eigenvalues --    3.44444   3.45865   3.47737   3.48550   3.48748
 Alpha virt. eigenvalues --    3.50289   3.51724   3.54562   3.55477   3.56029
 Alpha virt. eigenvalues --    3.58481   3.59448   3.61960   3.63837   3.64797
 Alpha virt. eigenvalues --    3.66724   3.69409   3.69998   3.73427   3.74607
 Alpha virt. eigenvalues --    3.76875   3.81128   3.81309   3.82145   3.85891
 Alpha virt. eigenvalues --    3.87895   3.89231   3.93318   3.94750   3.97684
 Alpha virt. eigenvalues --    3.99914   4.00806   4.00976   4.01890   4.04707
 Alpha virt. eigenvalues --    4.06094   4.06919   4.07787   4.09437   4.11050
 Alpha virt. eigenvalues --    4.12344   4.15699   4.16591   4.20479   4.24024
 Alpha virt. eigenvalues --    4.26373   4.29067   4.32393   4.36326   4.37180
 Alpha virt. eigenvalues --    4.40665   4.42052   4.43325   4.45470   4.46199
 Alpha virt. eigenvalues --    4.47565   4.50310   4.54688   4.56141   4.57900
 Alpha virt. eigenvalues --    4.59378   4.62684   4.66366   4.67154   4.70889
 Alpha virt. eigenvalues --    4.77424   4.79835   4.81464   4.86452   4.91552
 Alpha virt. eigenvalues --    4.92646   4.95405   4.98065   5.04835   5.13132
 Alpha virt. eigenvalues --    5.19017   5.23762   5.33336   5.39576   5.42194
 Alpha virt. eigenvalues --    5.54356   5.75279   5.79899   5.91750   6.29868
 Alpha virt. eigenvalues --    6.49005   6.74890   6.86109   7.00881   7.18896
 Alpha virt. eigenvalues --   22.19768  22.23419  22.37204  22.42440  22.44264
 Alpha virt. eigenvalues --   22.49214  22.58407  22.68924  22.74107  23.04407
 Alpha virt. eigenvalues --   44.07855
          Condensed to atoms (all electrons):
               1          2          3          4          5          6
     1  O    8.018004   0.262708  -0.052932   0.011716  -0.069457  -0.039054
     2  C    0.262708   4.923407   0.316932  -0.039745   0.201643   0.289273
     3  C   -0.052932   0.316932   5.149349   0.223324  -0.038050  -0.009679
     4  C    0.011716  -0.039745   0.223324   5.059597   0.001700  -0.007930
     5  C   -0.069457   0.201643  -0.038050   0.001700   5.136119  -0.078843
     6  C   -0.039054   0.289273  -0.009679  -0.007930  -0.078843   5.206481
     7  C   -0.000193   0.005920  -0.045502   0.281431   0.000649  -0.000249
     8  C   -0.000062  -0.000763   0.010834  -0.047408   0.000104   0.001457
     9  C   -0.000002   0.000040  -0.000020   0.013200  -0.000010   0.000024
    10  C    0.000000   0.000406  -0.002732  -0.015757   0.000017  -0.001103
    11  C    0.011203  -0.053981   0.005185  -0.008415   0.001920   0.545622
    12  H   -0.001976  -0.027398   0.391385  -0.040901   0.012707  -0.025663
    13  H    0.010822  -0.052618   0.418810  -0.036067  -0.015380   0.013437
    14  H   -0.000129   0.001434  -0.043903   0.438218  -0.001455  -0.004656
    15  H   -0.000021  -0.002724  -0.058206   0.410071   0.003588  -0.004560
    16  H    0.003501  -0.042862  -0.001324  -0.000393   0.403238   0.008277
    17  H    0.004347  -0.047936   0.008587  -0.000790   0.410324   0.005024
    18  H    0.004692  -0.038693  -0.014118   0.004479   0.409582   0.005337
    19  H   -0.001192  -0.049691  -0.005274  -0.000233   0.009915   0.381167
    20  H   -0.000004   0.000372  -0.002915  -0.038197   0.000029  -0.000166
    21  H    0.281817  -0.035872  -0.007243   0.000069   0.017123  -0.013064
    22  H    0.000000  -0.000005   0.000250  -0.000436   0.000000  -0.000001
    23  H   -0.000000  -0.000001  -0.000091  -0.001097  -0.000000  -0.000000
    24  H   -0.000000   0.000010  -0.000020   0.001390  -0.000000  -0.000000
    25  H   -0.000000   0.000009  -0.000219  -0.000663  -0.000002   0.000012
    26  H    0.000002  -0.000129  -0.001025   0.000699   0.000009   0.001261
    27  H    0.000000  -0.000069   0.000960  -0.000012   0.000002   0.000023
    28  H   -0.000485   0.009665  -0.000516   0.000262  -0.001144  -0.034590
    29  H    0.000308  -0.013490   0.000283  -0.000789   0.004909  -0.045591
               7          8          9         10         11         12
     1  O   -0.000193  -0.000062  -0.000002   0.000000   0.011203  -0.001976
     2  C    0.005920  -0.000763   0.000040   0.000406  -0.053981  -0.027398
     3  C   -0.045502   0.010834  -0.000020  -0.002732   0.005185   0.391385
     4  C    0.281431  -0.047408   0.013200  -0.015757  -0.008415  -0.040901
     5  C    0.000649   0.000104  -0.000010   0.000017   0.001920   0.012707
     6  C   -0.000249   0.001457   0.000024  -0.001103   0.545622  -0.025663
     7  C    5.084058   0.656861  -0.051974  -0.046853  -0.000579  -0.003175
     8  C    0.656861   5.042595   0.303571   0.280185   0.000533   0.003077
     9  C   -0.051974   0.303571   4.934368  -0.072787   0.000002  -0.000192
    10  C   -0.046853   0.280185  -0.072787   4.950239  -0.000345   0.000314
    11  C   -0.000579   0.000533   0.000002  -0.000345   4.951719   0.002419
    12  H   -0.003175   0.003077  -0.000192   0.000314   0.002419   0.614575
    13  H   -0.002977   0.001635  -0.000087  -0.000062  -0.001459  -0.028251
    14  H   -0.067326   0.007651   0.000106  -0.003222  -0.002270  -0.001335
    15  H   -0.031686  -0.002252  -0.000726   0.001594   0.001048   0.008618
    16  H   -0.000068  -0.000038  -0.000001   0.000002  -0.000800   0.000034
    17  H    0.000001   0.000000   0.000000   0.000000  -0.000934  -0.000487
    18  H    0.000081   0.000026   0.000003  -0.000008  -0.005212  -0.000475
    19  H   -0.000441   0.000106  -0.000001  -0.000072  -0.021361   0.005433
    20  H    0.388859  -0.036731  -0.017924   0.010125  -0.000014   0.000578
    21  H    0.000069   0.000005  -0.000001   0.000002   0.002196   0.009917
    22  H   -0.006391  -0.042585   0.405605  -0.002514  -0.000000  -0.000034
    23  H   -0.004017  -0.043769   0.400852   0.000628  -0.000000   0.000019
    24  H    0.003548  -0.057045   0.412061   0.007984   0.000000  -0.000013
    25  H   -0.000023  -0.046751  -0.002362   0.404135   0.000007   0.000052
    26  H   -0.007257  -0.049472   0.007645   0.420845   0.001034   0.000249
    27  H   -0.004005  -0.044400  -0.000516   0.402633  -0.000005  -0.000293
    28  H    0.000022  -0.000007  -0.000000   0.000000   0.406247  -0.000095
    29  H   -0.000049   0.000009   0.000000  -0.000007   0.418595   0.000035
              13         14         15         16         17         18
     1  O    0.010822  -0.000129  -0.000021   0.003501   0.004347   0.004692
     2  C   -0.052618   0.001434  -0.002724  -0.042862  -0.047936  -0.038693
     3  C    0.418810  -0.043903  -0.058206  -0.001324   0.008587  -0.014118
     4  C   -0.036067   0.438218   0.410071  -0.000393  -0.000790   0.004479
     5  C   -0.015380  -0.001455   0.003588   0.403238   0.410324   0.409582
     6  C    0.013437  -0.004656  -0.004560   0.008277   0.005024   0.005337
     7  C   -0.002977  -0.067326  -0.031686  -0.000068   0.000001   0.000081
     8  C    0.001635   0.007651  -0.002252  -0.000038   0.000000   0.000026
     9  C   -0.000087   0.000106  -0.000726  -0.000001   0.000000   0.000003
    10  C   -0.000062  -0.003222   0.001594   0.000002   0.000000  -0.000008
    11  C   -0.001459  -0.002270   0.001048  -0.000800  -0.000934  -0.005212
    12  H   -0.028251  -0.001335   0.008618   0.000034  -0.000487  -0.000475
    13  H    0.576851   0.005955  -0.003194   0.004655  -0.000286   0.001962
    14  H    0.005955   0.564462  -0.023596   0.000232  -0.000037   0.000214
    15  H   -0.003194  -0.023596   0.604761   0.000428   0.000161  -0.002673
    16  H    0.004655   0.000232   0.000428   0.554644  -0.019632  -0.024551
    17  H   -0.000286  -0.000037   0.000161  -0.019632   0.543143  -0.027283
    18  H    0.001962   0.000214  -0.002673  -0.024551  -0.027283   0.573195
    19  H   -0.000652  -0.000583   0.000165  -0.000372  -0.000213  -0.000214
    20  H    0.003653   0.005717  -0.002335   0.000032  -0.000000   0.000042
    21  H   -0.002646   0.000004   0.000113  -0.000337  -0.000590  -0.000944
    22  H   -0.000009  -0.000025  -0.000043   0.000000  -0.000000  -0.000000
    23  H    0.000006   0.000004   0.000150  -0.000000   0.000000   0.000000
    24  H    0.000025   0.000040  -0.000059   0.000000  -0.000000  -0.000000
    25  H    0.000006  -0.000295   0.000336  -0.000000   0.000000   0.000001
    26  H   -0.000012   0.006540   0.000053  -0.000003  -0.000000   0.000020
    27  H   -0.000002  -0.000064  -0.000201   0.000000  -0.000000  -0.000000
    28  H    0.000040   0.000093  -0.000020   0.000032  -0.000027   0.000155
    29  H   -0.000051  -0.000226  -0.000058  -0.000053  -0.000665  -0.000661
              19         20         21         22         23         24
     1  O   -0.001192  -0.000004   0.281817   0.000000  -0.000000  -0.000000
     2  C   -0.049691   0.000372  -0.035872  -0.000005  -0.000001   0.000010
     3  C   -0.005274  -0.002915  -0.007243   0.000250  -0.000091  -0.000020
     4  C   -0.000233  -0.038197   0.000069  -0.000436  -0.001097   0.001390
     5  C    0.009915   0.000029   0.017123   0.000000  -0.000000  -0.000000
     6  C    0.381167  -0.000166  -0.013064  -0.000001  -0.000000  -0.000000
     7  C   -0.000441   0.388859   0.000069  -0.006391  -0.004017   0.003548
     8  C    0.000106  -0.036731   0.000005  -0.042585  -0.043769  -0.057045
     9  C   -0.000001  -0.017924  -0.000001   0.405605   0.400852   0.412061
    10  C   -0.000072   0.010125   0.000002  -0.002514   0.000628   0.007984
    11  C   -0.021361  -0.000014   0.002196  -0.000000  -0.000000   0.000000
    12  H    0.005433   0.000578   0.009917  -0.000034   0.000019  -0.000013
    13  H   -0.000652   0.003653  -0.002646  -0.000009   0.000006   0.000025
    14  H   -0.000583   0.005717   0.000004  -0.000025   0.000004   0.000040
    15  H    0.000165  -0.002335   0.000113  -0.000043   0.000150  -0.000059
    16  H   -0.000372   0.000032  -0.000337   0.000000  -0.000000   0.000000
    17  H   -0.000213  -0.000000  -0.000590  -0.000000   0.000000  -0.000000
    18  H   -0.000214   0.000042  -0.000944  -0.000000   0.000000  -0.000000
    19  H    0.591663  -0.000013   0.005375   0.000000  -0.000000   0.000000
    20  H   -0.000013   0.593474   0.000003   0.000298   0.000609   0.005752
    21  H    0.005375   0.000003   0.459300  -0.000000   0.000000   0.000000
    22  H    0.000000   0.000298  -0.000000   0.601260  -0.043603  -0.023274
    23  H   -0.000000   0.000609   0.000000  -0.043603   0.601562  -0.023244
    24  H    0.000000   0.005752   0.000000  -0.023274  -0.023244   0.567620
    25  H   -0.000000  -0.000401   0.000000  -0.001840   0.006491  -0.000117
    26  H    0.000035   0.000083  -0.000002  -0.000059  -0.000078  -0.000397
    27  H    0.000013  -0.000371   0.000000   0.006536  -0.002075  -0.000059
    28  H   -0.012402   0.000000  -0.000054   0.000000  -0.000000  -0.000000
    29  H    0.007358  -0.000002   0.000041   0.000000  -0.000000   0.000000
              25         26         27         28         29
     1  O   -0.000000   0.000002   0.000000  -0.000485   0.000308
     2  C    0.000009  -0.000129  -0.000069   0.009665  -0.013490
     3  C   -0.000219  -0.001025   0.000960  -0.000516   0.000283
     4  C   -0.000663   0.000699  -0.000012   0.000262  -0.000789
     5  C   -0.000002   0.000009   0.000002  -0.001144   0.004909
     6  C    0.000012   0.001261   0.000023  -0.034590  -0.045591
     7  C   -0.000023  -0.007257  -0.004005   0.000022  -0.000049
     8  C   -0.046751  -0.049472  -0.044400  -0.000007   0.000009
     9  C   -0.002362   0.007645  -0.000516  -0.000000   0.000000
    10  C    0.404135   0.420845   0.402633   0.000000  -0.000007
    11  C    0.000007   0.001034  -0.000005   0.406247   0.418595
    12  H    0.000052   0.000249  -0.000293  -0.000095   0.000035
    13  H    0.000006  -0.000012  -0.000002   0.000040  -0.000051
    14  H   -0.000295   0.006540  -0.000064   0.000093  -0.000226
    15  H    0.000336   0.000053  -0.000201  -0.000020  -0.000058
    16  H   -0.000000  -0.000003   0.000000   0.000032  -0.000053
    17  H    0.000000  -0.000000  -0.000000  -0.000027  -0.000665
    18  H    0.000001   0.000020  -0.000000   0.000155  -0.000661
    19  H   -0.000000   0.000035   0.000013  -0.012402   0.007358
    20  H   -0.000401   0.000083  -0.000371   0.000000  -0.000002
    21  H    0.000000  -0.000002   0.000000  -0.000054   0.000041
    22  H   -0.001840  -0.000059   0.006536   0.000000   0.000000
    23  H    0.006491  -0.000078  -0.002075  -0.000000  -0.000000
    24  H   -0.000117  -0.000397  -0.000059  -0.000000   0.000000
    25  H    0.593504  -0.023355  -0.040081  -0.000000   0.000000
    26  H   -0.023355   0.562571  -0.023425  -0.000008   0.000005
    27  H   -0.040081  -0.023425   0.596153   0.000000   0.000000
    28  H   -0.000000  -0.000008   0.000000   0.553789  -0.034162
    29  H    0.000000   0.000005   0.000000  -0.034162   0.549234
 Mulliken charges:
               1
     1  O   -0.443615
     2  C    0.394160
     3  C   -0.242130
     4  C   -0.207324
     5  C   -0.409236
     6  C   -0.192245
     7  C   -0.148737
     8  C    0.062631
     9  C   -0.330876
    10  C   -0.333646
    11  C   -0.252358
    12  H    0.080877
    13  H    0.105896
    14  H    0.118452
    15  H    0.101270
    16  H    0.115360
    17  H    0.127291
    18  H    0.115043
    19  H    0.091485
    20  H    0.089445
    21  H    0.284721
    22  H    0.106870
    23  H    0.107655
    24  H    0.105799
    25  H    0.111555
    26  H    0.104169
    27  H    0.109258
    28  H    0.113205
    29  H    0.115024
 Sum of Mulliken charges =  -0.00000
 Mulliken charges with hydrogens summed into heavy atoms:
               1
     1  O   -0.158894
     2  C    0.394160
     3  C   -0.055357
     4  C    0.012398
     5  C   -0.051542
     6  C   -0.100760
     7  C   -0.059292
     8  C    0.062631
     9  C   -0.010553
    10  C   -0.008664
    11  C   -0.024129
 Electronic spatial extent (au):  <R**2>=           2812.1972
 Charge=             -0.0000 electrons
 Dipole moment (field-independent basis, Debye):
    X=              1.4198    Y=              0.9688    Z=              0.2856  Tot=              1.7424
 Quadrupole moment (field-independent basis, Debye-Ang):
   XX=            -77.2968   YY=            -71.1932   ZZ=            -67.5587
   XY=             -2.9780   XZ=              2.0285   YZ=              0.9355
 Traceless Quadrupole moment (field-independent basis, Debye-Ang):
   XX=             -5.2805   YY=              0.8230   ZZ=              4.4575
   XY=             -2.9780   XZ=              2.0285   YZ=              0.9355
 Octapole moment (field-independent basis, Debye-Ang**2):
  XXX=             30.2128  YYY=             -1.0591  ZZZ=             17.1552  XYY=              0.2400
  XXY=             13.0085  XXZ=             -6.3597  XZZ=            -13.8783  YZZ=             -2.3910
  YYZ=             -0.7163  XYZ=             -0.9128
 Hexadecapole moment (field-independent basis, Debye-Ang**3):
 XXXX=          -3057.8012 YYYY=           -612.9537 ZZZZ=           -278.7866 XXXY=             -2.8404
 XXXZ=             31.5526 YYYX=            -15.0173 YYYZ=              3.9453 ZZZX=            -30.3773
 ZZZY=            -16.2194 XXYY=           -607.3694 XXZZ=           -528.7725 YYZZ=           -154.1037
 XXYZ=              0.4994 YYXZ=             -2.0115 ZZXY=             11.0106
 N-N= 6.174707297453D+02 E-N=-2.320217170326D+03  KE= 4.647652639588D+02
 No NMR shielding tensors so no spin-rotation constants.
 Leave Link  601 at Sat May  4 10:49:21 2024, MaxMem= 13421772800 cpu:              11.1 elap:               0.4
 (Enter /tmpu/scunam/7/gaussian-2016.03/g1/g16/l9999.exe)
 1\1\GINC-MN429\FOpt\RB3LYP\def2TZVP\C10H18O1\ANDFAG_A\04-May-2024\0\\#
 p opt=(maxcycle=2000) freq=raman b3lyp/def2tzvp scf=(maxcycle=2000,dir
 ect,NoInCore, xqc)\\Linalool\\0,1\O,2.7287765604,-1.31401197,-1.178312
 1129\C,1.9885580073,-0.5464122794,-0.2020415247\C,0.4890114953,-0.8683
 276542,-0.3822163226\C,-0.47832668,-0.2032244391,0.6097085341\C,2.5231
 448867,-1.0259739855,1.1407861626\C,2.2437638613,0.9207430663,-0.47176
 57356\C,-1.9055527058,-0.5862858208,0.3443785327\C,-2.9309002621,0.199
 1636635,0.0035941168\C,-4.3022407468,-0.3795666884,-0.2250009887\C,-2.
 8501651511,1.6902110528,-0.1801681881\C,2.7474002559,1.8268032783,0.35
 49747024\H,0.200224407,-0.5764907865,-1.3988946392\H,0.3844698583,-1.9
 558696148,-0.3317621451\H,-0.3448907377,0.8781354689,0.5819901855\H,-0
 .2163775869,-0.5193038895,1.6252169876\H,2.31907603,-2.0912974543,1.25
 24894717\H,3.6020483966,-0.8798924065,1.1870674464\H,2.0625099501,-0.4
 958155213,1.9733126907\H,1.9727709287,1.2313763805,-1.4801925727\H,-2.
 1097763517,-1.6511119707,0.4397974857\H,2.4022541633,-1.0898254872,-2.
 0578836619\H,-4.6538744046,-0.1666947519,-1.2399390958\H,-5.0343765089
 ,0.0659193864,0.4566515599\H,-4.315850368,-1.4598528541,-0.0795396823\
 H,-3.5193140619,2.1996442398,0.5209211187\H,-1.8486070143,2.0898215886
 ,-0.0366458205\H,-3.1848311408,1.9703210984,-1.1841869642\H,2.89441761
 53,2.8517865844,0.0383898328\H,3.0360573043,1.5896317658,1.3710706267\
 \Version=ES64L-G16RevA.03\State=1-A\HF=-467.2737647\RMSD=7.165e-09\RMS
 F=3.016e-06\Dipole=-0.5314778,0.4231128,-0.0919791\Quadrupole=-3.63793
 39,0.4020882,3.2358457,2.4125439,1.5488566,-0.944945\PG=C01 [X(C10H18O
 1)]\\@


 A HARD FALL SHOULD MEAN A HIGH BOUNCE 
 IF ONE IS MADE OF THE RIGHT MATERIAL.

                -- THE CHEMIST ANALYST, MARCH 1950
 Leave Link 9999 at Sat May  4 10:49:21 2024, MaxMem= 13421772800 cpu:               3.2 elap:               0.1
 Job cpu time:       0 days  7 hours 50 minutes 24.3 seconds.
 Elapsed time:       0 days  0 hours 14 minutes 47.9 seconds.
 File lengths (MBytes):  RWF=    129 Int=      0 D2E=      0 Chk=     16 Scr=      1
 Normal termination of Gaussian 16 at Sat May  4 10:49:21 2024.
 (Enter /tmpu/scunam/7/gaussian-2016.03/g1/g16/l1.exe)
 Link1:  Proceeding to internal job step number  2.
 --------------------------------------------------------------------
 #P Geom=AllCheck Guess=TCheck SCRF=Check GenChk RB3LYP/def2TZVP Freq
 --------------------------------------------------------------------
 1/6=2000,10=4,29=7,30=1,38=1,40=1/1,3;
 2/12=2,40=1/2;
 3/5=44,7=101,11=2,14=-4,25=1,30=1,70=2,71=2,74=-5,116=1,140=1/1,2,3;
 4/5=101/1;
 5/5=2,7=2000,8=3,13=1,38=6,98=1/2,8;
 8/6=4,10=90,11=11/1;
 10/13=10,15=4/2;
 11/6=3,8=1,9=11,15=111,16=1/1,2,10;
 10/6=1/2;
 6/7=2,8=2,9=2,10=2,28=1/1;
 7/8=1,10=1,25=1/1,2,3,16;
 1/6=2000,10=4,30=1/3;
 99//99;
 Leave Link    1 at Sat May  4 10:49:21 2024, MaxMem= 13421772800 cpu:               0.9 elap:               0.0
 (Enter /tmpu/scunam/7/gaussian-2016.03/g1/g16/l101.exe)
 Structure from the checkpoint file:  "linalool.chk"
 --------
 Linalool
 --------
 Charge =  0 Multiplicity = 1
 Redundant internal coordinates found in file.  (old form).
 O,0,2.7287765604,-1.31401197,-1.1783121129
 C,0,1.9885580073,-0.5464122794,-0.2020415247
 C,0,0.4890114953,-0.8683276542,-0.3822163226
 C,0,-0.47832668,-0.2032244391,0.6097085341
 C,0,2.5231448867,-1.0259739855,1.1407861626
 C,0,2.2437638613,0.9207430663,-0.4717657356
 C,0,-1.9055527058,-0.5862858208,0.3443785327
 C,0,-2.9309002621,0.1991636635,0.0035941168
 C,0,-4.3022407468,-0.3795666884,-0.2250009887
 C,0,-2.8501651511,1.6902110528,-0.1801681881
 C,0,2.7474002559,1.8268032783,0.3549747024
 H,0,0.200224407,-0.5764907865,-1.3988946392
 H,0,0.3844698583,-1.9558696148,-0.3317621451
 H,0,-0.3448907377,0.8781354689,0.5819901855
 H,0,-0.2163775869,-0.5193038895,1.6252169876
 H,0,2.31907603,-2.0912974543,1.2524894717
 H,0,3.6020483966,-0.8798924065,1.1870674464
 H,0,2.0625099501,-0.4958155213,1.9733126907
 H,0,1.9727709287,1.2313763805,-1.4801925727
 H,0,-2.1097763517,-1.6511119707,0.4397974857
 H,0,2.4022541633,-1.0898254872,-2.0578836619
 H,0,-4.6538744046,-0.1666947519,-1.2399390958
 H,0,-5.0343765089,0.0659193864,0.4566515599
 H,0,-4.315850368,-1.4598528541,-0.0795396823
 H,0,-3.5193140619,2.1996442398,0.5209211187
 H,0,-1.8486070143,2.0898215886,-0.0366458205
 H,0,-3.1848311408,1.9703210984,-1.1841869642
 H,0,2.8944176153,2.8517865844,0.0383898328
 H,0,3.0360573043,1.5896317658,1.3710706267
 Recover connectivity data from disk.
 ITRead=  0  0  0  0  0  0  0  0  0  0  0  0  0  0  0  0  0  0  0  0
 ITRead=  0  0  0  0  0  0  0  0  0
 MicOpt= -1 -1 -1 -1 -1 -1 -1 -1 -1 -1 -1 -1 -1 -1 -1 -1 -1 -1 -1 -1
 MicOpt= -1 -1 -1 -1 -1 -1 -1 -1 -1
 NAtoms=     29 NQM=       29 NQMF=       0 NMMI=      0 NMMIF=      0
                NMic=       0 NMicF=      0.
                    Isotopes and Nuclear Properties:
 (Nuclear quadrupole moments (NQMom) in fm**2, nuclear magnetic moments (NMagM)
  in nuclear magnetons)

  Atom         1           2           3           4           5           6           7           8           9          10
 IAtWgt=          16          12          12          12          12          12          12          12          12          12
 AtmWgt=  15.9949146  12.0000000  12.0000000  12.0000000  12.0000000  12.0000000  12.0000000  12.0000000  12.0000000  12.0000000
 NucSpn=           0           0           0           0           0           0           0           0           0           0
 AtZEff=   5.6000000   3.6000000   3.6000000   3.6000000   3.6000000   3.6000000   3.6000000   3.6000000   3.6000000   3.6000000
 NQMom=    0.0000000   0.0000000   0.0000000   0.0000000   0.0000000   0.0000000   0.0000000   0.0000000   0.0000000   0.0000000
 NMagM=    0.0000000   0.0000000   0.0000000   0.0000000   0.0000000   0.0000000   0.0000000   0.0000000   0.0000000   0.0000000
 AtZNuc=   8.0000000   6.0000000   6.0000000   6.0000000   6.0000000   6.0000000   6.0000000   6.0000000   6.0000000   6.0000000

  Atom        11          12          13          14          15          16          17          18          19          20
 IAtWgt=          12           1           1           1           1           1           1           1           1           1
 AtmWgt=  12.0000000   1.0078250   1.0078250   1.0078250   1.0078250   1.0078250   1.0078250   1.0078250   1.0078250   1.0078250
 NucSpn=           0           1           1           1           1           1           1           1           1           1
 AtZEff=   3.6000000   1.0000000   1.0000000   1.0000000   1.0000000   1.0000000   1.0000000   1.0000000   1.0000000   1.0000000
 NQMom=    0.0000000   0.0000000   0.0000000   0.0000000   0.0000000   0.0000000   0.0000000   0.0000000   0.0000000   0.0000000
 NMagM=    0.0000000   2.7928460   2.7928460   2.7928460   2.7928460   2.7928460   2.7928460   2.7928460   2.7928460   2.7928460
 AtZNuc=   6.0000000   1.0000000   1.0000000   1.0000000   1.0000000   1.0000000   1.0000000   1.0000000   1.0000000   1.0000000

  Atom        21          22          23          24          25          26          27          28          29
 IAtWgt=           1           1           1           1           1           1           1           1           1
 AtmWgt=   1.0078250   1.0078250   1.0078250   1.0078250   1.0078250   1.0078250   1.0078250   1.0078250   1.0078250
 NucSpn=           1           1           1           1           1           1           1           1           1
 AtZEff=   1.0000000   1.0000000   1.0000000   1.0000000   1.0000000   1.0000000   1.0000000   1.0000000   1.0000000
 NQMom=    0.0000000   0.0000000   0.0000000   0.0000000   0.0000000   0.0000000   0.0000000   0.0000000   0.0000000
 NMagM=    2.7928460   2.7928460   2.7928460   2.7928460   2.7928460   2.7928460   2.7928460   2.7928460   2.7928460
 AtZNuc=   1.0000000   1.0000000   1.0000000   1.0000000   1.0000000   1.0000000   1.0000000   1.0000000   1.0000000
 Leave Link  101 at Sat May  4 10:49:22 2024, MaxMem= 13421772800 cpu:              10.6 elap:               0.4
 (Enter /tmpu/scunam/7/gaussian-2016.03/g1/g16/l103.exe)

 GradGradGradGradGradGradGradGradGradGradGradGradGradGradGradGradGradGrad
 Berny optimization.
 Initialization pass.
                           ----------------------------
                           !    Initial Parameters    !
                           ! (Angstroms and Degrees)  !
 --------------------------                            --------------------------
 ! Name  Definition              Value          Derivative Info.                !
 --------------------------------------------------------------------------------
 ! R1    R(1,2)                  1.4458         calculate D2E/DX2 analytically  !
 ! R2    R(1,21)                 0.9646         calculate D2E/DX2 analytically  !
 ! R3    R(2,3)                  1.5443         calculate D2E/DX2 analytically  !
 ! R4    R(2,5)                  1.5228         calculate D2E/DX2 analytically  !
 ! R5    R(2,6)                  1.5134         calculate D2E/DX2 analytically  !
 ! R6    R(3,4)                  1.5369         calculate D2E/DX2 analytically  !
 ! R7    R(3,12)                 1.0964         calculate D2E/DX2 analytically  !
 ! R8    R(3,13)                 1.0937         calculate D2E/DX2 analytically  !
 ! R9    R(4,7)                  1.5014         calculate D2E/DX2 analytically  !
 ! R10   R(4,14)                 1.0899         calculate D2E/DX2 analytically  !
 ! R11   R(4,15)                 1.0953         calculate D2E/DX2 analytically  !
 ! R12   R(5,16)                 1.0904         calculate D2E/DX2 analytically  !
 ! R13   R(5,17)                 1.0897         calculate D2E/DX2 analytically  !
 ! R14   R(5,18)                 1.0892         calculate D2E/DX2 analytically  !
 ! R15   R(6,11)                 1.3259         calculate D2E/DX2 analytically  !
 ! R16   R(6,19)                 1.0894         calculate D2E/DX2 analytically  !
 ! R17   R(7,8)                  1.3358         calculate D2E/DX2 analytically  !
 ! R18   R(7,20)                 1.0884         calculate D2E/DX2 analytically  !
 ! R19   R(8,9)                  1.5059         calculate D2E/DX2 analytically  !
 ! R20   R(8,10)                 1.5045         calculate D2E/DX2 analytically  !
 ! R21   R(9,22)                 1.095          calculate D2E/DX2 analytically  !
 ! R22   R(9,23)                 1.095          calculate D2E/DX2 analytically  !
 ! R23   R(9,24)                 1.0901         calculate D2E/DX2 analytically  !
 ! R24   R(10,25)                1.0949         calculate D2E/DX2 analytically  !
 ! R25   R(10,26)                1.0878         calculate D2E/DX2 analytically  !
 ! R26   R(10,27)                1.0948         calculate D2E/DX2 analytically  !
 ! R27   R(11,28)                1.0828         calculate D2E/DX2 analytically  !
 ! R28   R(11,29)                1.0826         calculate D2E/DX2 analytically  !
 ! A1    A(2,1,21)             108.6036         calculate D2E/DX2 analytically  !
 ! A2    A(1,2,3)              107.9209         calculate D2E/DX2 analytically  !
 ! A3    A(1,2,5)              104.3898         calculate D2E/DX2 analytically  !
 ! A4    A(1,2,6)              107.9398         calculate D2E/DX2 analytically  !
 ! A5    A(3,2,5)              112.2176         calculate D2E/DX2 analytically  !
 ! A6    A(3,2,6)              110.1843         calculate D2E/DX2 analytically  !
 ! A7    A(5,2,6)              113.7817         calculate D2E/DX2 analytically  !
 ! A8    A(2,3,4)              116.4665         calculate D2E/DX2 analytically  !
 ! A9    A(2,3,12)             107.9664         calculate D2E/DX2 analytically  !
 ! A10   A(2,3,13)             107.1405         calculate D2E/DX2 analytically  !
 ! A11   A(4,3,12)             108.5113         calculate D2E/DX2 analytically  !
 ! A12   A(4,3,13)             109.9001         calculate D2E/DX2 analytically  !
 ! A13   A(12,3,13)            106.3952         calculate D2E/DX2 analytically  !
 ! A14   A(3,4,7)              111.9536         calculate D2E/DX2 analytically  !
 ! A15   A(3,4,14)             109.6268         calculate D2E/DX2 analytically  !
 ! A16   A(3,4,15)             108.8424         calculate D2E/DX2 analytically  !
 ! A17   A(7,4,14)             111.4092         calculate D2E/DX2 analytically  !
 ! A18   A(7,4,15)             108.5152         calculate D2E/DX2 analytically  !
 ! A19   A(14,4,15)            106.2961         calculate D2E/DX2 analytically  !
 ! A20   A(2,5,16)             109.4086         calculate D2E/DX2 analytically  !
 ! A21   A(2,5,17)             110.0475         calculate D2E/DX2 analytically  !
 ! A22   A(2,5,18)             111.8551         calculate D2E/DX2 analytically  !
 ! A23   A(16,5,17)            108.1739         calculate D2E/DX2 analytically  !
 ! A24   A(16,5,18)            108.5474         calculate D2E/DX2 analytically  !
 ! A25   A(17,5,18)            108.7233         calculate D2E/DX2 analytically  !
 ! A26   A(2,6,11)             127.9794         calculate D2E/DX2 analytically  !
 ! A27   A(2,6,19)             113.5434         calculate D2E/DX2 analytically  !
 ! A28   A(11,6,19)            118.4764         calculate D2E/DX2 analytically  !
 ! A29   A(4,7,8)              128.6631         calculate D2E/DX2 analytically  !
 ! A30   A(4,7,20)             114.3609         calculate D2E/DX2 analytically  !
 ! A31   A(8,7,20)             116.974          calculate D2E/DX2 analytically  !
 ! A32   A(7,8,9)              120.7803         calculate D2E/DX2 analytically  !
 ! A33   A(7,8,10)             124.9391         calculate D2E/DX2 analytically  !
 ! A34   A(9,8,10)             114.2801         calculate D2E/DX2 analytically  !
 ! A35   A(8,9,22)             111.0029         calculate D2E/DX2 analytically  !
 ! A36   A(8,9,23)             110.9779         calculate D2E/DX2 analytically  !
 ! A37   A(8,9,24)             111.8361         calculate D2E/DX2 analytically  !
 ! A38   A(22,9,23)            106.4501         calculate D2E/DX2 analytically  !
 ! A39   A(22,9,24)            108.1989         calculate D2E/DX2 analytically  !
 ! A40   A(23,9,24)            108.1641         calculate D2E/DX2 analytically  !
 ! A41   A(8,10,25)            110.4942         calculate D2E/DX2 analytically  !
 ! A42   A(8,10,26)            113.4126         calculate D2E/DX2 analytically  !
 ! A43   A(8,10,27)            110.4377         calculate D2E/DX2 analytically  !
 ! A44   A(25,10,26)           107.8953         calculate D2E/DX2 analytically  !
 ! A45   A(25,10,27)           106.342          calculate D2E/DX2 analytically  !
 ! A46   A(26,10,27)           107.9662         calculate D2E/DX2 analytically  !
 ! A47   A(6,11,28)            121.0729         calculate D2E/DX2 analytically  !
 ! A48   A(6,11,29)            122.4652         calculate D2E/DX2 analytically  !
 ! A49   A(28,11,29)           116.4615         calculate D2E/DX2 analytically  !
 ! D1    D(21,1,2,3)            57.4792         calculate D2E/DX2 analytically  !
 ! D2    D(21,1,2,5)           177.0336         calculate D2E/DX2 analytically  !
 ! D3    D(21,1,2,6)           -61.5902         calculate D2E/DX2 analytically  !
 ! D4    D(1,2,3,4)            177.1464         calculate D2E/DX2 analytically  !
 ! D5    D(1,2,3,12)           -60.5584         calculate D2E/DX2 analytically  !
 ! D6    D(1,2,3,13)            53.6799         calculate D2E/DX2 analytically  !
 ! D7    D(5,2,3,4)             62.6757         calculate D2E/DX2 analytically  !
 ! D8    D(5,2,3,12)          -175.029          calculate D2E/DX2 analytically  !
 ! D9    D(5,2,3,13)           -60.7907         calculate D2E/DX2 analytically  !
 ! D10   D(6,2,3,4)            -65.2216         calculate D2E/DX2 analytically  !
 ! D11   D(6,2,3,12)            57.0736         calculate D2E/DX2 analytically  !
 ! D12   D(6,2,3,13)           171.3119         calculate D2E/DX2 analytically  !
 ! D13   D(1,2,5,16)           -61.4733         calculate D2E/DX2 analytically  !
 ! D14   D(1,2,5,17)            57.2507         calculate D2E/DX2 analytically  !
 ! D15   D(1,2,5,18)           178.2163         calculate D2E/DX2 analytically  !
 ! D16   D(3,2,5,16)            55.1384         calculate D2E/DX2 analytically  !
 ! D17   D(3,2,5,17)           173.8624         calculate D2E/DX2 analytically  !
 ! D18   D(3,2,5,18)           -65.172          calculate D2E/DX2 analytically  !
 ! D19   D(6,2,5,16)          -178.8967         calculate D2E/DX2 analytically  !
 ! D20   D(6,2,5,17)           -60.1727         calculate D2E/DX2 analytically  !
 ! D21   D(6,2,5,18)            60.7929         calculate D2E/DX2 analytically  !
 ! D22   D(1,2,6,11)          -122.2193         calculate D2E/DX2 analytically  !
 ! D23   D(1,2,6,19)            57.4437         calculate D2E/DX2 analytically  !
 ! D24   D(3,2,6,11)           120.1604         calculate D2E/DX2 analytically  !
 ! D25   D(3,2,6,19)           -60.1766         calculate D2E/DX2 analytically  !
 ! D26   D(5,2,6,11)            -6.8706         calculate D2E/DX2 analytically  !
 ! D27   D(5,2,6,19)           172.7924         calculate D2E/DX2 analytically  !
 ! D28   D(2,3,4,7)           -179.9112         calculate D2E/DX2 analytically  !
 ! D29   D(2,3,4,14)            55.9233         calculate D2E/DX2 analytically  !
 ! D30   D(2,3,4,15)           -59.9558         calculate D2E/DX2 analytically  !
 ! D31   D(12,3,4,7)            58.0793         calculate D2E/DX2 analytically  !
 ! D32   D(12,3,4,14)          -66.0862         calculate D2E/DX2 analytically  !
 ! D33   D(12,3,4,15)          178.0347         calculate D2E/DX2 analytically  !
 ! D34   D(13,3,4,7)           -57.8822         calculate D2E/DX2 analytically  !
 ! D35   D(13,3,4,14)          177.9523         calculate D2E/DX2 analytically  !
 ! D36   D(13,3,4,15)           62.0732         calculate D2E/DX2 analytically  !
 ! D37   D(3,4,7,8)           -117.9439         calculate D2E/DX2 analytically  !
 ! D38   D(3,4,7,20)            61.5192         calculate D2E/DX2 analytically  !
 ! D39   D(14,4,7,8)             5.22           calculate D2E/DX2 analytically  !
 ! D40   D(14,4,7,20)         -175.3169         calculate D2E/DX2 analytically  !
 ! D41   D(15,4,7,8)           121.9095         calculate D2E/DX2 analytically  !
 ! D42   D(15,4,7,20)          -58.6274         calculate D2E/DX2 analytically  !
 ! D43   D(2,6,11,28)          179.239          calculate D2E/DX2 analytically  !
 ! D44   D(2,6,11,29)           -0.5124         calculate D2E/DX2 analytically  !
 ! D45   D(19,6,11,28)          -0.4095         calculate D2E/DX2 analytically  !
 ! D46   D(19,6,11,29)         179.839          calculate D2E/DX2 analytically  !
 ! D47   D(4,7,8,9)            179.851          calculate D2E/DX2 analytically  !
 ! D48   D(4,7,8,10)            -0.416          calculate D2E/DX2 analytically  !
 ! D49   D(20,7,8,9)             0.3998         calculate D2E/DX2 analytically  !
 ! D50   D(20,7,8,10)         -179.8671         calculate D2E/DX2 analytically  !
 ! D51   D(7,8,9,22)          -121.0619         calculate D2E/DX2 analytically  !
 ! D52   D(7,8,9,23)           120.7694         calculate D2E/DX2 analytically  !
 ! D53   D(7,8,9,24)            -0.1153         calculate D2E/DX2 analytically  !
 ! D54   D(10,8,9,22)           59.1781         calculate D2E/DX2 analytically  !
 ! D55   D(10,8,9,23)          -58.9905         calculate D2E/DX2 analytically  !
 ! D56   D(10,8,9,24)         -179.8753         calculate D2E/DX2 analytically  !
 ! D57   D(7,8,10,25)         -119.5601         calculate D2E/DX2 analytically  !
 ! D58   D(7,8,10,26)            1.7262         calculate D2E/DX2 analytically  !
 ! D59   D(7,8,10,27)          123.0629         calculate D2E/DX2 analytically  !
 ! D60   D(9,8,10,25)           60.1883         calculate D2E/DX2 analytically  !
 ! D61   D(9,8,10,26)         -178.5254         calculate D2E/DX2 analytically  !
 ! D62   D(9,8,10,27)          -57.1887         calculate D2E/DX2 analytically  !
 --------------------------------------------------------------------------------
 Trust Radius=3.00D-01 FncErr=1.00D-07 GrdErr=1.00D-07 EigMax=2.50D+02 EigMin=1.00D-04
 Number of steps in this run=      2 maximum allowed number of steps=      2.
 GradGradGradGradGradGradGradGradGradGradGradGradGradGradGradGradGradGrad

 Leave Link  103 at Sat May  4 10:49:22 2024, MaxMem= 13421772800 cpu:               1.4 elap:               0.1
 (Enter /tmpu/scunam/7/gaussian-2016.03/g1/g16/l202.exe)
                          Input orientation:                          
 ---------------------------------------------------------------------
 Center     Atomic      Atomic             Coordinates (Angstroms)
 Number     Number       Type             X           Y           Z
 ---------------------------------------------------------------------
      1          8           0        2.728777   -1.314012   -1.178312
      2          6           0        1.988558   -0.546412   -0.202042
      3          6           0        0.489011   -0.868328   -0.382216
      4          6           0       -0.478327   -0.203224    0.609709
      5          6           0        2.523145   -1.025974    1.140786
      6          6           0        2.243764    0.920743   -0.471766
      7          6           0       -1.905553   -0.586286    0.344379
      8          6           0       -2.930900    0.199164    0.003594
      9          6           0       -4.302241   -0.379567   -0.225001
     10          6           0       -2.850165    1.690211   -0.180168
     11          6           0        2.747400    1.826803    0.354975
     12          1           0        0.200224   -0.576491   -1.398895
     13          1           0        0.384470   -1.955870   -0.331762
     14          1           0       -0.344891    0.878135    0.581990
     15          1           0       -0.216378   -0.519304    1.625217
     16          1           0        2.319076   -2.091297    1.252489
     17          1           0        3.602048   -0.879892    1.187067
     18          1           0        2.062510   -0.495816    1.973313
     19          1           0        1.972771    1.231376   -1.480193
     20          1           0       -2.109776   -1.651112    0.439797
     21          1           0        2.402254   -1.089825   -2.057884
     22          1           0       -4.653874   -0.166695   -1.239939
     23          1           0       -5.034377    0.065919    0.456652
     24          1           0       -4.315850   -1.459853   -0.079540
     25          1           0       -3.519314    2.199644    0.520921
     26          1           0       -1.848607    2.089822   -0.036646
     27          1           0       -3.184831    1.970321   -1.184187
     28          1           0        2.894418    2.851787    0.038390
     29          1           0        3.036057    1.589632    1.371071
 ---------------------------------------------------------------------
                    Distance matrix (angstroms):
                    1          2          3          4          5
     1  O    0.000000
     2  C    1.445765   0.000000
     3  C    2.418460   1.544258   0.000000
     4  C    3.836193   2.619587   1.536887   0.000000
     5  C    2.345947   1.522809   2.545994   3.157181   0.000000
     6  C    2.393444   1.513415   2.507578   3.137302   2.543243
     7  C    4.932056   3.932463   2.518219   1.501369   4.521167
     8  C    5.976499   4.979883   3.603357   2.558204   5.704452
     9  C    7.156619   6.293053   4.818683   3.917927   6.990644
    10  C    6.414533   5.330685   4.211537   3.136020   6.164012
    11  C    3.495145   2.553088   3.592701   3.819845   2.967512
    12  H    2.643136   2.152092   1.096450   2.152730   3.471019
    13  H    2.573791   2.139275   1.093719   2.168536   2.758085
    14  H    4.165526   2.844121   2.162226   1.089914   3.487623
    15  H    4.143099   2.863800   2.156196   1.095345   2.827786
    16  H    2.584729   2.147457   2.741725   3.435615   1.090429
    17  H    2.558532   2.155037   3.486228   4.176204   1.089731
    18  H    3.323567   2.177199   2.857128   2.898427   1.089198
    19  H    2.672392   2.189624   2.795684   3.526137   3.502581
    20  H    5.113072   4.292862   2.835870   2.187893   4.727171
    21  H    0.964636   1.977522   2.552924   4.024904   3.201590
    22  H    7.471524   6.733745   5.260917   4.567026   7.610244
    23  H    8.052569   7.080285   5.664303   4.566558   7.666577
    24  H    7.131293   6.371416   4.850589   4.096433   6.960553
    25  H    7.366940   6.196786   5.127844   3.876760   6.877511
    26  H    5.817381   4.658425   3.786096   2.748364   5.496066
    27  H    6.764439   5.836310   4.711497   3.907368   6.853049
    28  H    4.343003   3.525074   4.449959   4.586382   4.048475
    29  H    3.876199   2.852126   3.950066   4.018072   2.675351
                    6          7          8          9         10
     6  C    0.000000
     7  C    4.489327   0.000000
     8  C    5.246312   1.335815   0.000000
     9  C    6.678463   2.472052   1.505908   0.000000
    10  C    5.159963   2.519897   1.504496   2.528738   0.000000
    11  C    1.325932   5.241477   5.917413   7.409580   5.624747
    12  H    2.697653   2.733751   3.517464   4.657145   3.991003
    13  H    3.428043   2.752659   3.968414   4.945845   4.876448
    14  H    2.795237   2.153289   2.735505   4.230091   2.741670
    15  H    3.538837   2.120931   3.242605   4.487439   3.883067
    16  H    3.471472   4.575720   5.862440   6.996773   6.563030
    17  H    2.799813   5.579426   6.726395   8.045002   7.078547
    18  H    2.831590   4.290353   5.412664   6.734697   5.792285
    19  H    1.089429   4.655572   5.226191   6.598971   5.016105
    20  H    5.137966   1.088424   2.070758   2.620245   3.478070
    21  H    2.565789   4.957985   5.861205   6.986714   6.232361
    22  H    7.024957   3.199905   2.156123   1.095016   2.797245
    23  H    7.386746   3.198049   2.155836   1.095048   2.795468
    24  H    6.989250   2.598531   2.162714   1.090120   3.475811
    25  H    5.986158   3.224407   2.148437   2.796731   1.094901
    26  H    4.278268   2.703696   2.178891   3.486212   1.087845
    27  H    5.574836   3.241806   2.147627   2.773196   1.094768
    28  H    2.100604   5.912164   6.400933   7.893219   5.864917
    29  H    2.114518   5.496201   6.277577   7.763749   6.088027
                   11         12         13         14         15
    11  C    0.000000
    12  H    3.916629   0.000000
    13  H    4.512611   1.753683   0.000000
    14  H    3.242494   2.517338   3.065696   0.000000
    15  H    3.987695   3.053208   2.500901   1.748621   0.000000
    16  H    4.042339   3.716720   2.504175   4.045222   3.006429
    17  H    2.957871   4.283884   3.717174   4.362924   3.860360
    18  H    2.912499   3.853102   3.203271   3.101467   2.305439
    19  H    2.079044   2.533163   3.741675   3.122328   4.183398
    20  H    5.974551   3.141927   2.628582   3.087415   2.504230
    21  H    3.801018   2.355146   2.793024   4.288194   4.554993
    22  H    7.829218   4.873959   5.423177   4.793583   5.293848
    23  H    7.979167   5.590777   5.837219   4.760954   4.992108
    24  H    7.802591   4.787061   4.733145   4.655355   4.538337
    25  H    6.279989   5.022707   5.764971   3.439052   4.418318
    26  H    4.620155   3.628037   4.630480   2.027821   3.497642
    27  H    6.130333   4.241574   5.374152   3.518169   4.785677
    28  H    1.082788   4.591029   5.436029   3.831960   4.853794
    29  H    1.082601   4.517382   4.743536   3.543965   3.884653
                   16         17         18         19         20
    16  H    0.000000
    17  H    1.765729   0.000000
    18  H    1.769456   1.770840   0.000000
    19  H    4.315975   3.771774   3.862375   0.000000
    20  H    4.524264   5.811896   4.592859   5.353718   0.000000
    21  H    3.459543   3.466019   4.088865   2.430259   5.187665
    22  H    7.651035   8.634771   7.452726   6.776780   3.390788
    23  H    7.704558   8.718710   7.278846   7.362728   3.391425
    24  H    6.796710   8.039513   6.769568   6.982213   2.274435
    25  H    7.282456   7.787240   6.366451   5.924947   4.101427
    26  H    6.042616   6.326636   5.101205   4.174169   3.780184
    27  H    7.261345   7.733583   6.601986   5.218670   4.111915
    28  H    5.122415   3.968076   3.955052   2.404424   6.743825
    29  H    3.751981   2.540227   2.378987   3.064087   6.152178
                   21         22         23         24         25
    21  H    0.000000
    22  H    7.163111   0.000000
    23  H    7.934867   1.754227   0.000000
    24  H    7.013109   1.770041   1.769678   0.000000
    25  H    7.248159   3.160287   2.617695   3.793012   0.000000
    26  H    5.680262   3.795959   3.806396   4.323114   1.764711
    27  H    6.429881   2.593845   3.120884   3.776975   1.752673
    28  H    4.491424   8.229342   8.414379   8.401911   6.464834
    29  H    4.397604   8.308857   8.263762   8.090375   6.638355
                   26         27         28         29
    26  H    0.000000
    27  H    1.765397   0.000000
    28  H    4.804425   6.263301   0.000000
    29  H    5.108013   6.736002   1.840960   0.000000
 Stoichiometry    C10H18O
 Framework group  C1[X(C10H18O)]
 Deg. of freedom    81
 Full point group                 C1      NOp   1
 RotChk:  IX=2 Diff= 4.54D-16
 Largest Abelian subgroup         C1      NOp   1
 Largest concise Abelian subgroup C1      NOp   1
                         Standard orientation:                         
 ---------------------------------------------------------------------
 Center     Atomic      Atomic             Coordinates (Angstroms)
 Number     Number       Type             X           Y           Z
 ---------------------------------------------------------------------
      1          8           0       -2.796128   -1.170477    1.100996
      2          6           0       -2.010547   -0.397356    0.165377
      3          6           0       -0.534861   -0.827103    0.315045
      4          6           0        0.470512   -0.170088   -0.643900
      5          6           0       -2.580742   -0.761337   -1.198934
      6          6           0       -2.167271    1.065091    0.521904
      7          6           0        1.870322   -0.660976   -0.412225
      8          6           0        2.946594    0.034106   -0.034201
      9          6           0        4.277577   -0.645869    0.149852
     10          6           0        2.965210    1.513920    0.236567
     11          6           0       -2.613107    2.049118   -0.246871
     12          1           0       -0.223567   -0.614878    1.344733
     13          1           0       -0.502567   -1.914343    0.200638
     14          1           0        0.408892    0.914223   -0.552327
     15          1           0        0.184400   -0.408293   -1.674035
     16          1           0       -2.447904   -1.829400   -1.373955
     17          1           0       -3.647810   -0.542219   -1.228384
     18          1           0       -2.089268   -0.214778   -2.002725
     19          1           0       -1.872521    1.297692    1.544584
     20          1           0        2.003409   -1.729506   -0.570962
     21          1           0       -2.452170   -1.020096    1.989591
     22          1           0        4.646359   -0.516330    1.172731
     23          1           0        5.034939   -0.210324   -0.510325
     24          1           0        4.219257   -1.714345   -0.058281
     25          1           0        3.663872    2.018440   -0.438813
     26          1           0        1.991692    1.986192    0.124194
     27          1           0        3.321461    1.712189    1.252584
     28          1           0       -2.690904    3.061256    0.129896
     29          1           0       -2.920660    1.891304   -1.272800
 ---------------------------------------------------------------------
 Rotational constants (GHZ):           1.9647286           0.4632442           0.4212222
 Leave Link  202 at Sat May  4 10:49:22 2024, MaxMem= 13421772800 cpu:               0.5 elap:               0.0
 (Enter /tmpu/scunam/7/gaussian-2016.03/g1/g16/l301.exe)
 Standard basis: def2TZVP (5D, 7F)
 Ernie: Thresh=  0.10000D-02 Tol=  0.10000D-05 Strict=F.
 There are   504 symmetry adapted cartesian basis functions of A   symmetry.
 There are   449 symmetry adapted basis functions of A   symmetry.
   449 basis functions,   705 primitive gaussians,   504 cartesian basis functions
    43 alpha electrons       43 beta electrons
       nuclear repulsion energy       617.4707297453 Hartrees.
 IExCor=  402 DFT=T Ex+Corr=B3LYP ExCW=0 ScaHFX=  0.200000
 ScaDFX=  0.800000  0.720000  1.000000  0.810000 ScalE2=  1.000000  1.000000
 IRadAn=      5 IRanWt=     -1 IRanGd=            0 ICorTp=0 IEmpDi=  4
 NAtoms=   29 NActive=   29 NUniq=   29 SFac= 1.00D+00 NAtFMM=   60 NAOKFM=F Big=F
 Integral buffers will be    131072 words long.
 Raffenetti 2 integral format.
 Two-electron integral symmetry is turned on.
 Leave Link  301 at Sat May  4 10:49:22 2024, MaxMem= 13421772800 cpu:               2.9 elap:               0.1
 (Enter /tmpu/scunam/7/gaussian-2016.03/g1/g16/l302.exe)
 NPDir=0 NMtPBC=     1 NCelOv=     1 NCel=       1 NClECP=     1 NCelD=      1
         NCelK=      1 NCelE2=     1 NClLst=     1 CellRange=     0.0.
 One-electron integrals computed using PRISM.
 One-electron integral symmetry used in STVInt
   1 Symmetry operations used in ECPInt.
 ECPInt:  NShTT=   18721 NPrTT=   54252 LenC2=   17415 LenP2D=   38538.
 LDataN:  DoStor=T MaxTD1= 6 Len=  172
 NBasis=   449 RedAO= T EigKep=  6.64D-05  NBF=   449
 NBsUse=   449 1.00D-06 EigRej= -1.00D+00 NBFU=   449
 Precomputing XC quadrature grid using
 IXCGrd= 4 IRadAn=           5 IRanWt=          -1 IRanGd=           0 AccXCQ= 0.00D+00.
 Generated NRdTot=       0 NPtTot=           0 NUsed=           0 NTot=          32
 NSgBfM=   501   501   501   501   501 MxSgAt=    29 MxSgA2=    29.
 Leave Link  302 at Sat May  4 10:49:22 2024, MaxMem= 13421772800 cpu:              17.2 elap:               0.6
 (Enter /tmpu/scunam/7/gaussian-2016.03/g1/g16/l303.exe)
 DipDrv:  MaxL=1.
 Leave Link  303 at Sat May  4 10:49:23 2024, MaxMem= 13421772800 cpu:               4.6 elap:               0.2
 (Enter /tmpu/scunam/7/gaussian-2016.03/g1/g16/l401.exe)
 Initial guess from the checkpoint file:  "linalool.chk"
 B after Tr=    -0.000000    0.000000    0.000000
         Rot=    1.000000   -0.000000   -0.000000   -0.000000 Ang=   0.00 deg.
 Guess basis will be translated and rotated to current coordinates.
 JPrj=2 DoOrth=T DoCkMO=T.
 Leave Link  401 at Sat May  4 10:49:23 2024, MaxMem= 13421772800 cpu:              16.6 elap:               0.6
 (Enter /tmpu/scunam/7/gaussian-2016.03/g1/g16/l502.exe)
 Integral symmetry usage will be decided dynamically.
 Closed shell SCF:
 Using DIIS extrapolation, IDIIS=  1040.
 NGot= 13421772800 LenX= 13421243903 LenY= 13420989383
 Requested convergence on RMS density matrix=1.00D-08 within 128 cycles.
 Requested convergence on MAX density matrix=1.00D-06.
 Requested convergence on             energy=1.00D-06.
 No special actions if energy rises.
 Fock matrices will be formed incrementally for  20 cycles.

 Cycle   1  Pass 1  IDiag  1:
 FoFJK:  IHMeth= 1 ICntrl=       0 DoSepK=F KAlg= 0 I1Cent=           0 FoldK=F
 IRaf= 880000000 NMat=       1 IRICut=       1 DoRegI=T DoRafI=F ISym2E= 0 IDoP0=0 IntGTp=1.
 FoFCou: FMM=F IPFlag=           0 FMFlag=      100000 FMFlg1=           0
         NFxFlg=           0 DoJE=F BraDBF=F KetDBF=F FulRan=T
         wScrn=  0.000000 ICntrl=         0 IOpCl=  0 I1Cent=           0 NGrid=           0
         NMat0=    1 NMatS0=      1 NMatT0=    0 NMatD0=    1 NMtDS0=    0 NMtDT0=    0
 Symmetry not used in FoFCou.
 E= -467.273764710745    
 DIIS: error= 2.60D-08 at cycle   1 NSaved=   1.
 NSaved= 1 IEnMin= 1 EnMin= -467.273764710745     IErMin= 1 ErrMin= 2.60D-08
 ErrMax= 2.60D-08  0.00D+00 EMaxC= 1.00D-01 BMatC= 6.00D-13 BMatP= 6.00D-13
 IDIUse=1 WtCom= 1.00D+00 WtEn= 0.00D+00
 Coeff-Com:  0.100D+01
 Coeff:      0.100D+01
 Gap=     0.234 Goal=   None    Shift=    0.000
 RMSDP=3.99D-09 MaxDP=2.28D-07              OVMax= 8.77D-07

 SCF Done:  E(RB3LYP) =  -467.273764711     A.U. after    1 cycles
            NFock=  1  Conv=0.40D-08     -V/T= 2.0054
 KE= 4.647652592836D+02 PE=-2.320217165651D+03 EE= 7.707074119111D+02
 Leave Link  502 at Sat May  4 10:49:29 2024, MaxMem= 13421772800 cpu:             188.4 elap:               5.9
 (Enter /tmpu/scunam/7/gaussian-2016.03/g1/g16/l508.exe)
 QCSCF skips out because SCF is already converged.
 Leave Link  508 at Sat May  4 10:49:29 2024, MaxMem= 13421772800 cpu:               1.1 elap:               0.1
 (Enter /tmpu/scunam/7/gaussian-2016.03/g1/g16/l801.exe)
 DoSCS=F DFT=T ScalE2(SS,OS)=  1.000000  1.000000
 Range of M.O.s used for correlation:     1   449
 NBasis=   449 NAE=    43 NBE=    43 NFC=     0 NFV=     0
 NROrb=    449 NOA=    43 NOB=    43 NVA=   406 NVB=   406

 **** Warning!!: The largest alpha MO coefficient is  0.21772717D+02

 Leave Link  801 at Sat May  4 10:49:30 2024, MaxMem= 13421772800 cpu:               0.8 elap:               0.0
 (Enter /tmpu/scunam/7/gaussian-2016.03/g1/g16/l1002.exe)
 Minotr:  Closed shell wavefunction.
          Direct CPHF calculation.
          Differentiating once with respect to electric field.
                with respect to dipole field.
          Electric field/nuclear overlap derivatives assumed to be zero.
          Requested convergence is 1.0D-08 RMS, and 1.0D-07 maximum.
          Secondary convergence is 1.0D-12 RMS, and 1.0D-12 maximum.
          NewPWx=F KeepS1=T KeepF1=T KeepIn=T MapXYZ=F SortEE=F KeepMc=T.
         8762 words used for storage of precomputed grid.
 Two-electron integral symmetry used by symmetrizing perturbed Fock matrices.
          MDV=   13421772800 using IRadAn=       1.
          Solving linear equations simultaneously, MaxMat=     384.
          There are     3 degrees of freedom in the 1st order CPHF.  IDoFFX=0 NUNeed=     3.
      3 vectors produced by pass  0 Test12= 5.82D-13 3.33D-08 XBig12= 1.05D+02 5.89D+00.
 AX will form     3 AO Fock derivatives at one time.
 FoFJK:  IHMeth= 1 ICntrl=       0 DoSepK=F KAlg= 0 I1Cent=           0 FoldK=F
 IRaf= 860000000 NMat=       3 IRICut=       1 DoRegI=T DoRafI=F ISym2E=-1 IDoP0=0 IntGTp=1.
 FoFCou: FMM=F IPFlag=           0 FMFlag=      100000 FMFlg1=           0
         NFxFlg=           0 DoJE=F BraDBF=F KetDBF=F FulRan=T
         wScrn=  0.000000 ICntrl=         0 IOpCl=  0 I1Cent=           0 NGrid=           0
         NMat0=    3 NMatS0=      3 NMatT0=    0 NMatD0=    3 NMtDS0=    0 NMtDT0=    0
 Petite list used in FoFCou.
      3 vectors produced by pass  1 Test12= 5.82D-13 3.33D-08 XBig12= 2.10D+01 1.44D+00.
      3 vectors produced by pass  2 Test12= 5.82D-13 3.33D-08 XBig12= 7.74D+00 1.05D+00.
      3 vectors produced by pass  3 Test12= 5.82D-13 3.33D-08 XBig12= 1.32D+00 1.30D-01.
      3 vectors produced by pass  4 Test12= 5.82D-13 3.33D-08 XBig12= 3.97D-01 7.97D-02.
      3 vectors produced by pass  5 Test12= 5.82D-13 3.33D-08 XBig12= 3.49D-02 2.94D-02.
      3 vectors produced by pass  6 Test12= 5.82D-13 3.33D-08 XBig12= 3.65D-03 1.12D-02.
      3 vectors produced by pass  7 Test12= 5.82D-13 3.33D-08 XBig12= 8.39D-04 4.06D-03.
      3 vectors produced by pass  8 Test12= 5.82D-13 3.33D-08 XBig12= 7.68D-05 1.30D-03.
      3 vectors produced by pass  9 Test12= 5.82D-13 3.33D-08 XBig12= 6.11D-06 2.48D-04.
      3 vectors produced by pass 10 Test12= 5.82D-13 3.33D-08 XBig12= 5.80D-07 9.70D-05.
      3 vectors produced by pass 11 Test12= 5.82D-13 3.33D-08 XBig12= 3.10D-08 1.84D-05.
      3 vectors produced by pass 12 Test12= 5.82D-13 3.33D-08 XBig12= 1.28D-09 4.33D-06.
      3 vectors produced by pass 13 Test12= 5.82D-13 3.33D-08 XBig12= 5.74D-11 1.47D-06.
      3 vectors produced by pass 14 Test12= 5.82D-13 3.33D-08 XBig12= 1.99D-12 2.53D-07.
      2 vectors produced by pass 15 Test12= 5.82D-13 3.33D-08 XBig12= 6.37D-14 5.26D-08.
 InvSVY:  IOpt=1 It=  1 EMax= 3.55D-15
 Solved reduced A of dimension    47 with     3 vectors.
 End of Minotr F.D. properties file   721 does not exist.
 End of Minotr F.D. properties file   722 does not exist.
 End of Minotr F.D. properties file   788 does not exist.
 Leave Link 1002 at Sat May  4 10:51:28 2024, MaxMem= 13421772800 cpu:            3770.5 elap:             118.0
 (Enter /tmpu/scunam/7/gaussian-2016.03/g1/g16/l1101.exe)
 Using compressed storage, NAtomX=    29.
 Will process     30 centers per pass.
   1 Symmetry operations used in ECPInt.
 ECPInt:  NShTT=   18721 NPrTT=   54252 LenC2=   17415 LenP2D=   38538.
 LDataN:  DoStor=T MaxTD1= 7 Len=  274
 Leave Link 1101 at Sat May  4 10:51:29 2024, MaxMem= 13421772800 cpu:              36.1 elap:               1.2
 (Enter /tmpu/scunam/7/gaussian-2016.03/g1/g16/l1102.exe)
 Symmetrizing basis deriv contribution to polar:
 IMax=3 JMax=2 DiffMx= 0.00D+00
 Leave Link 1102 at Sat May  4 10:51:30 2024, MaxMem= 13421772800 cpu:               1.7 elap:               0.1
 (Enter /tmpu/scunam/7/gaussian-2016.03/g1/g16/l1110.exe)
 Forming Gx(P) for the SCF density, NAtomX=    29.
 Integral derivatives from FoFJK, PRISM(SPDF).
 Do as many integral derivatives as possible in FoFJK.
 G2DrvN: MDV=   13421770576.
 G2DrvN: will do    30 centers at a time, making    1 passes.
 PxScal for G2LodP:  IOpCl= 0 ISclPx=1 IMOff=     1 NMtTot=     4 NTT=  101025 ScalPx= 2.95D+00
 Calling FoFCou, ICntrl=  3107 FMM=F I1Cent=   0 AccDes= 0.00D+00.
 FoFJK:  IHMeth= 1 ICntrl=    3107 DoSepK=F KAlg= 0 I1Cent=           0 FoldK=F
 IRaf=         0 NMat=       1 IRICut=       1 DoRegI=T DoRafI=F ISym2E= 0 IDoP0=0 IntGTp=1.
 FoFCou: FMM=F IPFlag=           0 FMFlag=      100000 FMFlg1=           0
         NFxFlg=           0 DoJE=F BraDBF=F KetDBF=F FulRan=T
         wScrn=  0.000000 ICntrl=      3107 IOpCl=  0 I1Cent=           0 NGrid=           0
         NMat0=    1 NMatS0=      1 NMatT0=    0 NMatD0=    4 NMtDS0=    3 NMtDT0=    0
 Symmetry not used in FoFCou.
 End of G2Drv F.D. properties file   721 does not exist.
 End of G2Drv F.D. properties file   722 does not exist.
 End of G2Drv F.D. properties file   788 does not exist.
 Leave Link 1110 at Sat May  4 10:54:25 2024, MaxMem= 13421772800 cpu:            5576.3 elap:             174.6
 (Enter /tmpu/scunam/7/gaussian-2016.03/g1/g16/l1002.exe)
 Minotr:  Closed shell wavefunction.
          IDoAtm=11111111111111111111111111111
          Direct CPHF calculation.
          Differentiating once with respect to electric field.
                with respect to dipole field.
          Differentiating once with respect to nuclear coordinates.
          Requested convergence is 1.0D-08 RMS, and 1.0D-07 maximum.
          Secondary convergence is 1.0D-12 RMS, and 1.0D-12 maximum.
          NewPWx=T KeepS1=F KeepF1=F KeepIn=T MapXYZ=F SortEE=F KeepMc=T.
         8762 words used for storage of precomputed grid.
 Two-electron integrals replicated using symmetry.
          MDV=   13421772800 using IRadAn=       1.
          Solving linear equations simultaneously, MaxMat=     384.
 FoF2E skips out because all densities are zero.
 CalDSu exits because no D1Ps are significant.
 FoFJK:  IHMeth= 1 ICntrl=       0 DoSepK=F KAlg= 0 I1Cent=           0 FoldK=F
 IRaf= 860000000 NMat=      87 IRICut=     217 DoRegI=T DoRafI=T ISym2E= 2 IDoP0=3 IntGTp=3.
 FoFCou: FMM=F IPFlag=           0 FMFlag=      100000 FMFlg1=           0
         NFxFlg=           0 DoJE=F BraDBF=F KetDBF=F FulRan=T
         wScrn=  0.000000 ICntrl=         0 IOpCl=  0 I1Cent=           0 NGrid=           0
         NMat0=   87 NMatS0=     87 NMatT0=    0 NMatD0=   87 NMtDS0=    0 NMtDT0=    0
 Integrals replicated using symmetry in FoFCou.
 Raff kept on since  82.38% of shell-pairs survive, threshold=   0.20 IRatSp=82.
          There are    90 degrees of freedom in the 1st order CPHF.  IDoFFX=5 NUNeed=    90.
 Will reuse    3 saved solutions.
     84 vectors produced by pass  0 Test12= 1.94D-14 1.11D-09 XBig12= 8.46D-02 7.50D-02.
 AX will form    84 AO Fock derivatives at one time.
     84 vectors produced by pass  1 Test12= 1.94D-14 1.11D-09 XBig12= 1.09D-02 3.79D-02.
     84 vectors produced by pass  2 Test12= 1.94D-14 1.11D-09 XBig12= 1.19D-04 1.48D-03.
     84 vectors produced by pass  3 Test12= 1.94D-14 1.11D-09 XBig12= 4.38D-07 7.30D-05.
     84 vectors produced by pass  4 Test12= 1.94D-14 1.11D-09 XBig12= 8.43D-10 2.64D-06.
     63 vectors produced by pass  5 Test12= 1.94D-14 1.11D-09 XBig12= 9.16D-13 9.00D-08.
     16 vectors produced by pass  6 Test12= 1.94D-14 1.11D-09 XBig12= 8.83D-16 3.71D-09.
      8 vectors produced by pass  7 Test12= 1.94D-14 1.11D-09 XBig12= 1.34D-15 3.61D-09.
      5 vectors produced by pass  8 Test12= 1.94D-14 1.11D-09 XBig12= 2.78D-15 3.44D-09.
      4 vectors produced by pass  9 Test12= 1.94D-14 1.11D-09 XBig12= 8.34D-15 6.36D-09.
      1 vectors produced by pass 10 Test12= 1.94D-14 1.11D-09 XBig12= 1.59D-15 3.73D-09.
 InvSVY:  IOpt=1 It=  1 EMax= 7.22D-16
 Solved reduced A of dimension   517 with    90 vectors.
 FullF1:  Do perturbations      1 to       3.
 Isotropic polarizability for W=    0.000000      127.45 Bohr**3.
 FullF1:  Do perturbations      1 to       6.
 End of Minotr F.D. properties file   721 does not exist.
 End of Minotr F.D. properties file   722 does not exist.
 End of Minotr F.D. properties file   788 does not exist.
 Leave Link 1002 at Sat May  4 10:59:15 2024, MaxMem= 13421772800 cpu:            9267.5 elap:             289.9
 (Enter /tmpu/scunam/7/gaussian-2016.03/g1/g16/l601.exe)
 Copying SCF densities to generalized density rwf, IOpCl= 0 IROHF=0.

 **********************************************************************

            Population analysis using the SCF density.

 **********************************************************************

 Orbital symmetries:
       Occupied  (A) (A) (A) (A) (A) (A) (A) (A) (A) (A) (A) (A)
                 (A) (A) (A) (A) (A) (A) (A) (A) (A) (A) (A) (A)
                 (A) (A) (A) (A) (A) (A) (A) (A) (A) (A) (A) (A)
                 (A) (A) (A) (A) (A) (A) (A)
       Virtual   (A) (A) (A) (A) (A) (A) (A) (A) (A) (A) (A) (A)
                 (A) (A) (A) (A) (A) (A) (A) (A) (A) (A) (A) (A)
                 (A) (A) (A) (A) (A) (A) (A) (A) (A) (A) (A) (A)
                 (A) (A) (A) (A) (A) (A) (A) (A) (A) (A) (A) (A)
                 (A) (A) (A) (A) (A) (A) (A) (A) (A) (A) (A) (A)
                 (A) (A) (A) (A) (A) (A) (A) (A) (A) (A) (A) (A)
                 (A) (A) (A) (A) (A) (A) (A) (A) (A) (A) (A) (A)
                 (A) (A) (A) (A) (A) (A) (A) (A) (A) (A) (A) (A)
                 (A) (A) (A) (A) (A) (A) (A) (A) (A) (A) (A) (A)
                 (A) (A) (A) (A) (A) (A) (A) (A) (A) (A) (A) (A)
                 (A) (A) (A) (A) (A) (A) (A) (A) (A) (A) (A) (A)
                 (A) (A) (A) (A) (A) (A) (A) (A) (A) (A) (A) (A)
                 (A) (A) (A) (A) (A) (A) (A) (A) (A) (A) (A) (A)
                 (A) (A) (A) (A) (A) (A) (A) (A) (A) (A) (A) (A)
                 (A) (A) (A) (A) (A) (A) (A) (A) (A) (A) (A) (A)
                 (A) (A) (A) (A) (A) (A) (A) (A) (A) (A) (A) (A)
                 (A) (A) (A) (A) (A) (A) (A) (A) (A) (A) (A) (A)
                 (A) (A) (A) (A) (A) (A) (A) (A) (A) (A) (A) (A)
                 (A) (A) (A) (A) (A) (A) (A) (A) (A) (A) (A) (A)
                 (A) (A) (A) (A) (A) (A) (A) (A) (A) (A) (A) (A)
                 (A) (A) (A) (A) (A) (A) (A) (A) (A) (A) (A) (A)
                 (A) (A) (A) (A) (A) (A) (A) (A) (A) (A) (A) (A)
                 (A) (A) (A) (A) (A) (A) (A) (A) (A) (A) (A) (A)
                 (A) (A) (A) (A) (A) (A) (A) (A) (A) (A) (A) (A)
                 (A) (A) (A) (A) (A) (A) (A) (A) (A) (A) (A) (A)
                 (A) (A) (A) (A) (A) (A) (A) (A) (A) (A) (A) (A)
                 (A) (A) (A) (A) (A) (A) (A) (A) (A) (A) (A) (A)
                 (A) (A) (A) (A) (A) (A) (A) (A) (A) (A) (A) (A)
                 (A) (A) (A) (A) (A) (A) (A) (A) (A) (A) (A) (A)
                 (A) (A) (A) (A) (A) (A) (A) (A) (A) (A) (A) (A)
                 (A) (A) (A) (A) (A) (A) (A) (A) (A) (A) (A) (A)
                 (A) (A) (A) (A) (A) (A) (A) (A) (A) (A) (A) (A)
                 (A) (A) (A) (A) (A) (A) (A) (A) (A) (A) (A) (A)
                 (A) (A) (A) (A) (A) (A) (A) (A) (A) (A)
 The electronic state is 1-A.
 Alpha  occ. eigenvalues --  -19.12339 -10.23440 -10.17792 -10.17657 -10.17081
 Alpha  occ. eigenvalues --  -10.17012 -10.16934 -10.16529 -10.16353 -10.16100
 Alpha  occ. eigenvalues --  -10.15906  -1.02182  -0.82422  -0.80565  -0.76561
 Alpha  occ. eigenvalues --   -0.72997  -0.69475  -0.68510  -0.63571  -0.60176
 Alpha  occ. eigenvalues --   -0.55503  -0.52245  -0.50165  -0.47814  -0.47350
 Alpha  occ. eigenvalues --   -0.45562  -0.43709  -0.43440  -0.41500  -0.40986
 Alpha  occ. eigenvalues --   -0.38787  -0.38762  -0.38729  -0.37482  -0.37179
 Alpha  occ. eigenvalues --   -0.36274  -0.35635  -0.35108  -0.32973  -0.32514
 Alpha  occ. eigenvalues --   -0.28192  -0.27043  -0.23868
 Alpha virt. eigenvalues --   -0.00504   0.01644   0.02637   0.03758   0.04907
 Alpha virt. eigenvalues --    0.06075   0.07403   0.07731   0.08900   0.09685
 Alpha virt. eigenvalues --    0.09904   0.10353   0.10996   0.11445   0.12141
 Alpha virt. eigenvalues --    0.12852   0.13870   0.14352   0.14695   0.14837
 Alpha virt. eigenvalues --    0.15858   0.16751   0.17466   0.17721   0.18621
 Alpha virt. eigenvalues --    0.19322   0.20436   0.21171   0.21848   0.22436
 Alpha virt. eigenvalues --    0.23083   0.24426   0.24821   0.26320   0.27188
 Alpha virt. eigenvalues --    0.28111   0.29359   0.29645   0.31487   0.31697
 Alpha virt. eigenvalues --    0.32347   0.33530   0.33675   0.34495   0.35120
 Alpha virt. eigenvalues --    0.36061   0.36548   0.36985   0.37513   0.38703
 Alpha virt. eigenvalues --    0.39805   0.40131   0.40946   0.41891   0.42663
 Alpha virt. eigenvalues --    0.42904   0.43649   0.44293   0.45376   0.45617
 Alpha virt. eigenvalues --    0.46021   0.46366   0.46673   0.46834   0.47591
 Alpha virt. eigenvalues --    0.47615   0.48078   0.48954   0.49291   0.49628
 Alpha virt. eigenvalues --    0.51131   0.51362   0.52637   0.53891   0.54308
 Alpha virt. eigenvalues --    0.55358   0.55879   0.58160   0.58372   0.59322
 Alpha virt. eigenvalues --    0.61815   0.62505   0.63556   0.64635   0.64737
 Alpha virt. eigenvalues --    0.66263   0.66483   0.67952   0.69091   0.70113
 Alpha virt. eigenvalues --    0.71062   0.73462   0.74326   0.74662   0.77798
 Alpha virt. eigenvalues --    0.78882   0.81032   0.83628   0.84053   0.84637
 Alpha virt. eigenvalues --    0.87101   0.88107   0.89676   0.90582   0.92328
 Alpha virt. eigenvalues --    0.94997   0.95538   0.96529   0.97995   0.98812
 Alpha virt. eigenvalues --    1.00089   1.00628   1.01672   1.03050   1.04094
 Alpha virt. eigenvalues --    1.06234   1.07043   1.08204   1.10111   1.11231
 Alpha virt. eigenvalues --    1.12758   1.14191   1.16005   1.16368   1.17083
 Alpha virt. eigenvalues --    1.18131   1.20078   1.21938   1.23058   1.23937
 Alpha virt. eigenvalues --    1.24405   1.26716   1.27722   1.28104   1.29470
 Alpha virt. eigenvalues --    1.35290   1.36315   1.37326   1.40058   1.40207
 Alpha virt. eigenvalues --    1.42834   1.44982   1.46021   1.47587   1.49208
 Alpha virt. eigenvalues --    1.50921   1.51782   1.52565   1.52790   1.53292
 Alpha virt. eigenvalues --    1.53946   1.54994   1.55539   1.56605   1.57469
 Alpha virt. eigenvalues --    1.58075   1.58228   1.59997   1.60670   1.61034
 Alpha virt. eigenvalues --    1.62248   1.62570   1.64685   1.66025   1.66504
 Alpha virt. eigenvalues --    1.67816   1.69260   1.70120   1.71995   1.72776
 Alpha virt. eigenvalues --    1.73144   1.74880   1.78848   1.79764   1.82000
 Alpha virt. eigenvalues --    1.83189   1.83338   1.85250   1.87766   1.89096
 Alpha virt. eigenvalues --    1.91668   1.92628   1.93615   1.95219   1.95790
 Alpha virt. eigenvalues --    1.96009   1.98545   1.98764   2.00248   2.02484
 Alpha virt. eigenvalues --    2.03359   2.04754   2.06726   2.07722   2.08529
 Alpha virt. eigenvalues --    2.10639   2.12443   2.14247   2.15884   2.17687
 Alpha virt. eigenvalues --    2.18781   2.22313   2.23024   2.25133   2.26477
 Alpha virt. eigenvalues --    2.26741   2.28872   2.30235   2.30449   2.31273
 Alpha virt. eigenvalues --    2.31746   2.33234   2.34689   2.34849   2.37649
 Alpha virt. eigenvalues --    2.38314   2.39789   2.40376   2.41708   2.42223
 Alpha virt. eigenvalues --    2.44804   2.45606   2.46130   2.47767   2.49861
 Alpha virt. eigenvalues --    2.50699   2.52085   2.52385   2.53485   2.54220
 Alpha virt. eigenvalues --    2.54659   2.55954   2.57094   2.57521   2.58685
 Alpha virt. eigenvalues --    2.60053   2.60970   2.61938   2.62773   2.64676
 Alpha virt. eigenvalues --    2.66241   2.66750   2.68246   2.69545   2.70745
 Alpha virt. eigenvalues --    2.72458   2.73944   2.75599   2.76689   2.77675
 Alpha virt. eigenvalues --    2.78553   2.79746   2.81023   2.82410   2.84032
 Alpha virt. eigenvalues --    2.84972   2.87277   2.88733   2.90704   2.92032
 Alpha virt. eigenvalues --    2.94001   2.94742   2.95376   2.96907   2.97812
 Alpha virt. eigenvalues --    3.00102   3.02568   3.03254   3.04306   3.05073
 Alpha virt. eigenvalues --    3.06368   3.06975   3.09057   3.10500   3.11867
 Alpha virt. eigenvalues --    3.12469   3.13114   3.14078   3.15190   3.16766
 Alpha virt. eigenvalues --    3.17080   3.17587   3.18855   3.20098   3.21474
 Alpha virt. eigenvalues --    3.22487   3.24480   3.25927   3.26705   3.27772
 Alpha virt. eigenvalues --    3.28758   3.30541   3.32229   3.32639   3.33394
 Alpha virt. eigenvalues --    3.33839   3.34815   3.35435   3.36623   3.37420
 Alpha virt. eigenvalues --    3.38035   3.39651   3.41226   3.42214   3.43893
 Alpha virt. eigenvalues --    3.44444   3.45865   3.47737   3.48550   3.48748
 Alpha virt. eigenvalues --    3.50289   3.51724   3.54562   3.55477   3.56029
 Alpha virt. eigenvalues --    3.58481   3.59448   3.61960   3.63837   3.64797
 Alpha virt. eigenvalues --    3.66724   3.69409   3.69998   3.73427   3.74607
 Alpha virt. eigenvalues --    3.76875   3.81128   3.81309   3.82145   3.85891
 Alpha virt. eigenvalues --    3.87895   3.89231   3.93318   3.94750   3.97684
 Alpha virt. eigenvalues --    3.99914   4.00806   4.00976   4.01890   4.04707
 Alpha virt. eigenvalues --    4.06094   4.06919   4.07787   4.09437   4.11050
 Alpha virt. eigenvalues --    4.12344   4.15699   4.16591   4.20479   4.24024
 Alpha virt. eigenvalues --    4.26373   4.29067   4.32393   4.36326   4.37180
 Alpha virt. eigenvalues --    4.40665   4.42052   4.43325   4.45470   4.46199
 Alpha virt. eigenvalues --    4.47565   4.50310   4.54688   4.56141   4.57900
 Alpha virt. eigenvalues --    4.59378   4.62684   4.66366   4.67154   4.70889
 Alpha virt. eigenvalues --    4.77424   4.79835   4.81464   4.86452   4.91552
 Alpha virt. eigenvalues --    4.92646   4.95405   4.98065   5.04835   5.13132
 Alpha virt. eigenvalues --    5.19017   5.23762   5.33336   5.39576   5.42194
 Alpha virt. eigenvalues --    5.54356   5.75279   5.79899   5.91750   6.29868
 Alpha virt. eigenvalues --    6.49005   6.74890   6.86109   7.00881   7.18896
 Alpha virt. eigenvalues --   22.19768  22.23419  22.37204  22.42440  22.44264
 Alpha virt. eigenvalues --   22.49214  22.58407  22.68924  22.74107  23.04407
 Alpha virt. eigenvalues --   44.07855
          Condensed to atoms (all electrons):
               1          2          3          4          5          6
     1  O    8.018003   0.262708  -0.052932   0.011716  -0.069457  -0.039054
     2  C    0.262708   4.923408   0.316932  -0.039745   0.201643   0.289273
     3  C   -0.052932   0.316932   5.149349   0.223324  -0.038050  -0.009679
     4  C    0.011716  -0.039745   0.223324   5.059597   0.001700  -0.007930
     5  C   -0.069457   0.201643  -0.038050   0.001700   5.136119  -0.078843
     6  C   -0.039054   0.289273  -0.009679  -0.007930  -0.078843   5.206480
     7  C   -0.000193   0.005920  -0.045502   0.281431   0.000649  -0.000249
     8  C   -0.000062  -0.000763   0.010834  -0.047408   0.000104   0.001457
     9  C   -0.000002   0.000040  -0.000020   0.013200  -0.000010   0.000024
    10  C    0.000000   0.000406  -0.002732  -0.015757   0.000017  -0.001103
    11  C    0.011203  -0.053981   0.005185  -0.008415   0.001920   0.545622
    12  H   -0.001976  -0.027398   0.391385  -0.040901   0.012707  -0.025663
    13  H    0.010822  -0.052618   0.418810  -0.036067  -0.015380   0.013437
    14  H   -0.000129   0.001434  -0.043903   0.438218  -0.001455  -0.004656
    15  H   -0.000021  -0.002724  -0.058206   0.410071   0.003588  -0.004560
    16  H    0.003501  -0.042862  -0.001324  -0.000393   0.403238   0.008277
    17  H    0.004347  -0.047936   0.008587  -0.000790   0.410324   0.005024
    18  H    0.004692  -0.038693  -0.014118   0.004479   0.409582   0.005337
    19  H   -0.001192  -0.049691  -0.005274  -0.000233   0.009915   0.381167
    20  H   -0.000004   0.000372  -0.002915  -0.038197   0.000029  -0.000166
    21  H    0.281817  -0.035873  -0.007243   0.000069   0.017123  -0.013064
    22  H    0.000000  -0.000005   0.000250  -0.000436   0.000000  -0.000001
    23  H   -0.000000  -0.000001  -0.000091  -0.001097  -0.000000  -0.000000
    24  H   -0.000000   0.000010  -0.000020   0.001390  -0.000000  -0.000000
    25  H   -0.000000   0.000009  -0.000219  -0.000663  -0.000002   0.000012
    26  H    0.000002  -0.000129  -0.001025   0.000699   0.000009   0.001261
    27  H    0.000000  -0.000069   0.000960  -0.000012   0.000002   0.000023
    28  H   -0.000485   0.009665  -0.000516   0.000262  -0.001144  -0.034590
    29  H    0.000308  -0.013490   0.000283  -0.000789   0.004909  -0.045591
               7          8          9         10         11         12
     1  O   -0.000193  -0.000062  -0.000002   0.000000   0.011203  -0.001976
     2  C    0.005920  -0.000763   0.000040   0.000406  -0.053981  -0.027398
     3  C   -0.045502   0.010834  -0.000020  -0.002732   0.005185   0.391385
     4  C    0.281431  -0.047408   0.013200  -0.015757  -0.008415  -0.040901
     5  C    0.000649   0.000104  -0.000010   0.000017   0.001920   0.012707
     6  C   -0.000249   0.001457   0.000024  -0.001103   0.545622  -0.025663
     7  C    5.084055   0.656861  -0.051974  -0.046853  -0.000579  -0.003175
     8  C    0.656861   5.042598   0.303571   0.280185   0.000533   0.003077
     9  C   -0.051974   0.303571   4.934369  -0.072787   0.000002  -0.000192
    10  C   -0.046853   0.280185  -0.072787   4.950240  -0.000345   0.000314
    11  C   -0.000579   0.000533   0.000002  -0.000345   4.951721   0.002419
    12  H   -0.003175   0.003077  -0.000192   0.000314   0.002419   0.614575
    13  H   -0.002977   0.001635  -0.000087  -0.000062  -0.001459  -0.028251
    14  H   -0.067326   0.007651   0.000106  -0.003222  -0.002270  -0.001335
    15  H   -0.031686  -0.002252  -0.000726   0.001594   0.001048   0.008618
    16  H   -0.000068  -0.000038  -0.000001   0.000002  -0.000800   0.000034
    17  H    0.000001   0.000000   0.000000   0.000000  -0.000934  -0.000487
    18  H    0.000081   0.000026   0.000003  -0.000008  -0.005212  -0.000475
    19  H   -0.000441   0.000106  -0.000001  -0.000072  -0.021361   0.005433
    20  H    0.388859  -0.036731  -0.017924   0.010125  -0.000014   0.000578
    21  H    0.000069   0.000005  -0.000001   0.000002   0.002196   0.009917
    22  H   -0.006391  -0.042585   0.405605  -0.002514  -0.000000  -0.000034
    23  H   -0.004017  -0.043769   0.400852   0.000628  -0.000000   0.000019
    24  H    0.003548  -0.057045   0.412061   0.007984   0.000000  -0.000013
    25  H   -0.000023  -0.046751  -0.002362   0.404135   0.000007   0.000052
    26  H   -0.007257  -0.049472   0.007645   0.420846   0.001034   0.000249
    27  H   -0.004005  -0.044400  -0.000516   0.402633  -0.000005  -0.000293
    28  H    0.000022  -0.000007  -0.000000   0.000000   0.406247  -0.000095
    29  H   -0.000049   0.000009   0.000000  -0.000007   0.418595   0.000035
              13         14         15         16         17         18
     1  O    0.010822  -0.000129  -0.000021   0.003501   0.004347   0.004692
     2  C   -0.052618   0.001434  -0.002724  -0.042862  -0.047936  -0.038693
     3  C    0.418810  -0.043903  -0.058206  -0.001324   0.008587  -0.014118
     4  C   -0.036067   0.438218   0.410071  -0.000393  -0.000790   0.004479
     5  C   -0.015380  -0.001455   0.003588   0.403238   0.410324   0.409582
     6  C    0.013437  -0.004656  -0.004560   0.008277   0.005024   0.005337
     7  C   -0.002977  -0.067326  -0.031686  -0.000068   0.000001   0.000081
     8  C    0.001635   0.007651  -0.002252  -0.000038   0.000000   0.000026
     9  C   -0.000087   0.000106  -0.000726  -0.000001   0.000000   0.000003
    10  C   -0.000062  -0.003222   0.001594   0.000002   0.000000  -0.000008
    11  C   -0.001459  -0.002270   0.001048  -0.000800  -0.000934  -0.005212
    12  H   -0.028251  -0.001335   0.008618   0.000034  -0.000487  -0.000475
    13  H    0.576851   0.005955  -0.003194   0.004655  -0.000286   0.001962
    14  H    0.005955   0.564462  -0.023596   0.000232  -0.000037   0.000214
    15  H   -0.003194  -0.023596   0.604761   0.000428   0.000161  -0.002673
    16  H    0.004655   0.000232   0.000428   0.554643  -0.019632  -0.024551
    17  H   -0.000286  -0.000037   0.000161  -0.019632   0.543143  -0.027283
    18  H    0.001962   0.000214  -0.002673  -0.024551  -0.027283   0.573195
    19  H   -0.000652  -0.000583   0.000165  -0.000372  -0.000213  -0.000214
    20  H    0.003653   0.005717  -0.002335   0.000032  -0.000000   0.000042
    21  H   -0.002646   0.000004   0.000113  -0.000337  -0.000590  -0.000944
    22  H   -0.000009  -0.000025  -0.000043   0.000000  -0.000000  -0.000000
    23  H    0.000006   0.000004   0.000150  -0.000000   0.000000   0.000000
    24  H    0.000025   0.000040  -0.000059   0.000000  -0.000000  -0.000000
    25  H    0.000006  -0.000295   0.000336  -0.000000   0.000000   0.000001
    26  H   -0.000012   0.006540   0.000053  -0.000003  -0.000000   0.000020
    27  H   -0.000002  -0.000064  -0.000201   0.000000  -0.000000  -0.000000
    28  H    0.000040   0.000093  -0.000020   0.000032  -0.000027   0.000155
    29  H   -0.000051  -0.000226  -0.000058  -0.000053  -0.000665  -0.000661
              19         20         21         22         23         24
     1  O   -0.001192  -0.000004   0.281817   0.000000  -0.000000  -0.000000
     2  C   -0.049691   0.000372  -0.035873  -0.000005  -0.000001   0.000010
     3  C   -0.005274  -0.002915  -0.007243   0.000250  -0.000091  -0.000020
     4  C   -0.000233  -0.038197   0.000069  -0.000436  -0.001097   0.001390
     5  C    0.009915   0.000029   0.017123   0.000000  -0.000000  -0.000000
     6  C    0.381167  -0.000166  -0.013064  -0.000001  -0.000000  -0.000000
     7  C   -0.000441   0.388859   0.000069  -0.006391  -0.004017   0.003548
     8  C    0.000106  -0.036731   0.000005  -0.042585  -0.043769  -0.057045
     9  C   -0.000001  -0.017924  -0.000001   0.405605   0.400852   0.412061
    10  C   -0.000072   0.010125   0.000002  -0.002514   0.000628   0.007984
    11  C   -0.021361  -0.000014   0.002196  -0.000000  -0.000000   0.000000
    12  H    0.005433   0.000578   0.009917  -0.000034   0.000019  -0.000013
    13  H   -0.000652   0.003653  -0.002646  -0.000009   0.000006   0.000025
    14  H   -0.000583   0.005717   0.000004  -0.000025   0.000004   0.000040
    15  H    0.000165  -0.002335   0.000113  -0.000043   0.000150  -0.000059
    16  H   -0.000372   0.000032  -0.000337   0.000000  -0.000000   0.000000
    17  H   -0.000213  -0.000000  -0.000590  -0.000000   0.000000  -0.000000
    18  H   -0.000214   0.000042  -0.000944  -0.000000   0.000000  -0.000000
    19  H    0.591663  -0.000013   0.005375   0.000000  -0.000000   0.000000
    20  H   -0.000013   0.593474   0.000003   0.000298   0.000609   0.005752
    21  H    0.005375   0.000003   0.459300  -0.000000   0.000000   0.000000
    22  H    0.000000   0.000298  -0.000000   0.601260  -0.043603  -0.023274
    23  H   -0.000000   0.000609   0.000000  -0.043603   0.601562  -0.023244
    24  H    0.000000   0.005752   0.000000  -0.023274  -0.023244   0.567620
    25  H   -0.000000  -0.000401   0.000000  -0.001840   0.006491  -0.000117
    26  H    0.000035   0.000083  -0.000002  -0.000059  -0.000078  -0.000397
    27  H    0.000013  -0.000371   0.000000   0.006536  -0.002075  -0.000059
    28  H   -0.012402   0.000000  -0.000054   0.000000  -0.000000  -0.000000
    29  H    0.007358  -0.000002   0.000041   0.000000  -0.000000   0.000000
              25         26         27         28         29
     1  O   -0.000000   0.000002   0.000000  -0.000485   0.000308
     2  C    0.000009  -0.000129  -0.000069   0.009665  -0.013490
     3  C   -0.000219  -0.001025   0.000960  -0.000516   0.000283
     4  C   -0.000663   0.000699  -0.000012   0.000262  -0.000789
     5  C   -0.000002   0.000009   0.000002  -0.001144   0.004909
     6  C    0.000012   0.001261   0.000023  -0.034590  -0.045591
     7  C   -0.000023  -0.007257  -0.004005   0.000022  -0.000049
     8  C   -0.046751  -0.049472  -0.044400  -0.000007   0.000009
     9  C   -0.002362   0.007645  -0.000516  -0.000000   0.000000
    10  C    0.404135   0.420846   0.402633   0.000000  -0.000007
    11  C    0.000007   0.001034  -0.000005   0.406247   0.418595
    12  H    0.000052   0.000249  -0.000293  -0.000095   0.000035
    13  H    0.000006  -0.000012  -0.000002   0.000040  -0.000051
    14  H   -0.000295   0.006540  -0.000064   0.000093  -0.000226
    15  H    0.000336   0.000053  -0.000201  -0.000020  -0.000058
    16  H   -0.000000  -0.000003   0.000000   0.000032  -0.000053
    17  H    0.000000  -0.000000  -0.000000  -0.000027  -0.000665
    18  H    0.000001   0.000020  -0.000000   0.000155  -0.000661
    19  H   -0.000000   0.000035   0.000013  -0.012402   0.007358
    20  H   -0.000401   0.000083  -0.000371   0.000000  -0.000002
    21  H    0.000000  -0.000002   0.000000  -0.000054   0.000041
    22  H   -0.001840  -0.000059   0.006536   0.000000   0.000000
    23  H    0.006491  -0.000078  -0.002075  -0.000000  -0.000000
    24  H   -0.000117  -0.000397  -0.000059  -0.000000   0.000000
    25  H    0.593505  -0.023355  -0.040081  -0.000000   0.000000
    26  H   -0.023355   0.562571  -0.023425  -0.000008   0.000005
    27  H   -0.040081  -0.023425   0.596153   0.000000   0.000000
    28  H   -0.000000  -0.000008   0.000000   0.553789  -0.034162
    29  H    0.000000   0.000005   0.000000  -0.034162   0.549234
 Mulliken charges:
               1
     1  O   -0.443614
     2  C    0.394160
     3  C   -0.242130
     4  C   -0.207324
     5  C   -0.409236
     6  C   -0.192243
     7  C   -0.148734
     8  C    0.062629
     9  C   -0.330876
    10  C   -0.333647
    11  C   -0.252359
    12  H    0.080877
    13  H    0.105896
    14  H    0.118452
    15  H    0.101269
    16  H    0.115360
    17  H    0.127291
    18  H    0.115043
    19  H    0.091485
    20  H    0.089445
    21  H    0.284721
    22  H    0.106870
    23  H    0.107655
    24  H    0.105799
    25  H    0.111555
    26  H    0.104170
    27  H    0.109258
    28  H    0.113205
    29  H    0.115024
 Sum of Mulliken charges =  -0.00000
 Mulliken charges with hydrogens summed into heavy atoms:
               1
     1  O   -0.158893
     2  C    0.394160
     3  C   -0.055357
     4  C    0.012398
     5  C   -0.051542
     6  C   -0.100758
     7  C   -0.059289
     8  C    0.062629
     9  C   -0.010553
    10  C   -0.008664
    11  C   -0.024130
 APT charges:
               1
     1  O   -0.666083
     2  C    0.528907
     3  C    0.026783
     4  C    0.052580
     5  C   -0.007940
     6  C   -0.032511
     7  C   -0.031520
     8  C    0.089112
     9  C    0.065933
    10  C    0.043322
    11  C   -0.114727
    12  H   -0.040908
    13  H   -0.031161
    14  H   -0.010958
    15  H   -0.038453
    16  H    0.003566
    17  H   -0.006682
    18  H    0.007112
    19  H   -0.002877
    20  H   -0.014153
    21  H    0.243961
    22  H   -0.035928
    23  H   -0.036189
    24  H   -0.013744
    25  H   -0.024100
    26  H   -0.009305
    27  H   -0.021509
    28  H    0.034768
    29  H    0.042701
 Sum of APT charges =  -0.00000
 APT charges with hydrogens summed into heavy atoms:
               1
     1  O   -0.422122
     2  C    0.528907
     3  C   -0.045285
     4  C    0.003170
     5  C   -0.003944
     6  C   -0.035387
     7  C   -0.045673
     8  C    0.089112
     9  C   -0.019928
    10  C   -0.011591
    11  C   -0.037258
 Electronic spatial extent (au):  <R**2>=           2812.1972
 Charge=             -0.0000 electrons
 Dipole moment (field-independent basis, Debye):
    X=              1.4198    Y=              0.9688    Z=              0.2856  Tot=              1.7424
 Quadrupole moment (field-independent basis, Debye-Ang):
   XX=            -77.2969   YY=            -71.1932   ZZ=            -67.5587
   XY=             -2.9780   XZ=              2.0285   YZ=              0.9355
 Traceless Quadrupole moment (field-independent basis, Debye-Ang):
   XX=             -5.2806   YY=              0.8231   ZZ=              4.4575
   XY=             -2.9780   XZ=              2.0285   YZ=              0.9355
 Octapole moment (field-independent basis, Debye-Ang**2):
  XXX=             30.2125  YYY=             -1.0591  ZZZ=             17.1552  XYY=              0.2401
  XXY=             13.0084  XXZ=             -6.3596  XZZ=            -13.8783  YZZ=             -2.3910
  YYZ=             -0.7162  XYZ=             -0.9128
 Hexadecapole moment (field-independent basis, Debye-Ang**3):
 XXXX=          -3057.8024 YYYY=           -612.9537 ZZZZ=           -278.7867 XXXY=             -2.8404
 XXXZ=             31.5527 YYYX=            -15.0172 YYYZ=              3.9454 ZZZX=            -30.3773
 ZZZY=            -16.2194 XXYY=           -607.3695 XXZZ=           -528.7725 YYZZ=           -154.1037
 XXYZ=              0.4994 YYXZ=             -2.0115 ZZXY=             11.0107
 N-N= 6.174707297453D+02 E-N=-2.320217157129D+03  KE= 4.647652592836D+02
  Exact polarizability: 150.572   0.820 125.378   9.259  -0.811 106.391
 Approx polarizability: 184.969   7.334 183.974  14.612  -5.479 166.767
 No NMR shielding tensors so no spin-rotation constants.
 Leave Link  601 at Sat May  4 10:59:15 2024, MaxMem= 13421772800 cpu:              14.1 elap:               0.5
 (Enter /tmpu/scunam/7/gaussian-2016.03/g1/g16/l701.exe)
 ... and contract with generalized density number  0.
 Compute integral second derivatives.
   1 Symmetry operations used in ECPInt.
 ECPInt:  NShTT=   18721 NPrTT=   54252 LenC2=   17415 LenP2D=   38538.
 LDataN:  DoStor=T MaxTD1= 8 Len=  415
 Leave Link  701 at Sat May  4 10:59:16 2024, MaxMem= 13421772800 cpu:              12.0 elap:               0.4
 (Enter /tmpu/scunam/7/gaussian-2016.03/g1/g16/l702.exe)
 L702 exits ... SP integral derivatives will be done elsewhere.
 Leave Link  702 at Sat May  4 10:59:16 2024, MaxMem= 13421772800 cpu:               1.7 elap:               0.1
 (Enter /tmpu/scunam/7/gaussian-2016.03/g1/g16/l703.exe)
 Integral derivatives from FoFJK, PRISM(SPDF).
 Compute integral second derivatives, UseDBF=F ICtDFT=           0.
 Calling FoFJK, ICntrl=    100127 FMM=F ISym2X=0 I1Cent= 0 IOpClX= 0 NMat=1 NMatS=1 NMatT=0.
 FoFJK:  IHMeth= 1 ICntrl=  100127 DoSepK=F KAlg= 0 I1Cent=           0 FoldK=F
 IRaf=         0 NMat=       1 IRICut=       1 DoRegI=T DoRafI=F ISym2E= 0 IDoP0=0 IntGTp=1.
 FoFCou: FMM=F IPFlag=           0 FMFlag=      100000 FMFlg1=         800
         NFxFlg=           0 DoJE=F BraDBF=F KetDBF=F FulRan=T
         wScrn=  0.000000 ICntrl=    100127 IOpCl=  0 I1Cent=           0 NGrid=           0
         NMat0=    1 NMatS0=      1 NMatT0=    0 NMatD0=    1 NMtDS0=    0 NMtDT0=    0
 Symmetry not used in FoFCou.
 Leave Link  703 at Sat May  4 11:03:07 2024, MaxMem= 13421772800 cpu:            7374.3 elap:             230.8
 (Enter /tmpu/scunam/7/gaussian-2016.03/g1/g16/l716.exe)
 Dipole        = 5.58602608D-01 3.81157715D-01 1.12360129D-01
 Polarizability= 1.50572090D+02 8.19682128D-01 1.25378085D+02
                 9.25880138D+00-8.10924766D-01 1.06390582D+02
 HyperPolar    = 1.59999310D+02 4.85614949D+01 2.03386031D+01
                 5.21120481D+00-4.06347619D+01-7.52408284D+00
                -3.84360797D+01 3.91540277D+01 2.43563742D+01
                 6.93553648D+01
 Full mass-weighted force constant matrix:
 Low frequencies ---   -4.6884   -1.4155   -0.0003    0.0004    0.0006    4.8556
 Low frequencies ---   25.3519   40.2086   72.0153
 Diagonal vibrational polarizability:
       30.5350341      31.2493337       8.2677958
 Diagonal vibrational hyperpolarizability:
      -79.9952324    -147.4988411     -36.5623219
 Harmonic frequencies (cm**-1), IR intensities (KM/Mole), Raman scattering
 activities (A**4/AMU), depolarization ratios for plane and unpolarized
 incident light, reduced masses (AMU), force constants (mDyne/A),
 and normal coordinates:
                      1                      2                      3
                      A                      A                      A
 Frequencies --     25.2990                40.1999                72.0127
 Red. masses --      2.8538                 3.3501                 2.8119
 Frc consts  --      0.0011                 0.0032                 0.0086
 IR Inten    --      0.0264                 0.1034                 0.0755
 Raman Activ --      1.6128                 1.3236                 3.5651
 Depolar (P) --      0.7500                 0.6793                 0.7413
 Depolar (U) --      0.8571                 0.8090                 0.8515
  Atom  AN      X      Y      Z        X      Y      Z        X      Y      Z
     1   8     0.07   0.05   0.09    -0.03  -0.04  -0.04    -0.09  -0.03  -0.02
     2   6     0.02   0.01   0.01    -0.03   0.00  -0.01    -0.04  -0.03   0.02
     3   6     0.03   0.06  -0.01    -0.01   0.08   0.06    -0.05  -0.03   0.07
     4   6    -0.00   0.06  -0.04     0.01   0.15   0.14    -0.03   0.02   0.12
     5   6    -0.02  -0.09   0.06     0.06  -0.03  -0.03     0.01  -0.03  -0.01
     6   6    -0.01   0.03  -0.07    -0.13  -0.01  -0.01    -0.04  -0.03   0.01
     7   6     0.00   0.03  -0.12    -0.01   0.06   0.08    -0.02   0.02   0.06
     8   6    -0.01  -0.02   0.01     0.07  -0.02  -0.01    -0.01   0.03  -0.01
     9   6    -0.00  -0.04  -0.10     0.03  -0.12  -0.08     0.03   0.05  -0.17
    10   6    -0.03  -0.07   0.26     0.21  -0.01  -0.05    -0.01   0.02   0.05
    11   6    -0.06  -0.03  -0.12    -0.20  -0.04  -0.02     0.26   0.02  -0.10
    12   1     0.05   0.09  -0.02    -0.08   0.07   0.09    -0.09  -0.06   0.09
    13   1     0.06   0.05   0.02     0.05   0.09   0.04    -0.03  -0.03   0.04
    14   1     0.02   0.06  -0.02     0.06   0.15   0.26    -0.04   0.01   0.19
    15   1    -0.05   0.09  -0.03     0.00   0.28   0.11    -0.04   0.09   0.11
    16   1    -0.00  -0.10   0.12     0.13  -0.02  -0.03     0.00  -0.03   0.00
    17   1    -0.02  -0.11   0.07     0.05  -0.10  -0.08     0.02  -0.01  -0.05
    18   1    -0.05  -0.13   0.00     0.06  -0.00  -0.01     0.05  -0.04   0.01
    19   1     0.02   0.11  -0.10    -0.16   0.02  -0.01    -0.28  -0.07   0.08
    20   1     0.01   0.06  -0.29    -0.10   0.05   0.09    -0.02   0.03   0.01
    21   1     0.09   0.12   0.07    -0.08  -0.02  -0.03    -0.11  -0.06  -0.01
    22   1    -0.01  -0.21  -0.08     0.11  -0.13  -0.11     0.14   0.03  -0.21
    23   1    -0.00   0.08  -0.02     0.02  -0.20  -0.15    -0.06   0.09  -0.24
    24   1     0.01  -0.00  -0.29    -0.08  -0.12  -0.05     0.03   0.06  -0.20
    25   1    -0.02   0.06   0.36     0.19  -0.09  -0.13    -0.13   0.07  -0.04
    26   1    -0.03  -0.06   0.32     0.24   0.06   0.02    -0.04  -0.01   0.21
    27   1    -0.05  -0.24   0.30     0.32  -0.01  -0.09     0.13  -0.01   0.00
    28   1    -0.08  -0.01  -0.18    -0.28  -0.05  -0.03     0.26   0.03  -0.11
    29   1    -0.09  -0.10  -0.10    -0.17  -0.07  -0.03     0.51   0.06  -0.18
                      4                      5                      6
                      A                      A                      A
 Frequencies --     98.9143               114.0397               143.4914
 Red. masses --      2.7498                 2.1718                 1.0622
 Frc consts  --      0.0159                 0.0166                 0.0129
 IR Inten    --      0.0670                 0.4543                 0.1775
 Raman Activ --      0.9478                 1.0196                 0.2924
 Depolar (P) --      0.6658                 0.7030                 0.7471
 Depolar (U) --      0.7994                 0.8256                 0.8552
  Atom  AN      X      Y      Z        X      Y      Z        X      Y      Z
     1   8     0.09  -0.09   0.05     0.01  -0.05  -0.04     0.02  -0.01   0.01
     2   6    -0.02  -0.03   0.01     0.02   0.04   0.03     0.00   0.00  -0.00
     3   6     0.02   0.06  -0.07     0.04   0.14   0.12     0.01   0.02  -0.02
     4   6    -0.03   0.13  -0.07    -0.00  -0.07  -0.06     0.00   0.01  -0.02
     5   6    -0.07  -0.05   0.04     0.14   0.03  -0.02    -0.01   0.00   0.00
     6   6    -0.07  -0.04   0.03    -0.12   0.02   0.06    -0.01   0.00   0.00
     7   6    -0.04   0.09  -0.07     0.00  -0.05  -0.05    -0.00  -0.00  -0.01
     8   6    -0.02   0.02  -0.01    -0.02  -0.03  -0.03    -0.01  -0.01   0.01
     9   6    -0.10  -0.09   0.13    -0.01  -0.00  -0.01    -0.01  -0.01   0.04
    10   6     0.07   0.03  -0.05    -0.07  -0.04  -0.01    -0.00  -0.00  -0.01
    11   6     0.15   0.00  -0.04    -0.01   0.03   0.01     0.00   0.00  -0.00
    12   1     0.04   0.04  -0.07     0.06   0.37   0.06     0.01   0.03  -0.02
    13   1     0.07   0.07  -0.10     0.07   0.11   0.35     0.01   0.02  -0.00
    14   1    -0.02   0.13   0.00     0.02  -0.05  -0.28     0.01   0.01  -0.04
    15   1    -0.05   0.19  -0.07    -0.06  -0.27   0.00     0.01  -0.00  -0.02
    16   1    -0.04  -0.04   0.04     0.33   0.06  -0.09     0.01   0.00  -0.00
    17   1    -0.08  -0.08   0.10     0.11  -0.15  -0.04    -0.01  -0.01   0.02
    18   1    -0.13  -0.03   0.02     0.08   0.16   0.04    -0.02   0.01  -0.00
    19   1    -0.28  -0.08   0.10    -0.34  -0.01   0.13    -0.03  -0.00   0.01
    20   1    -0.10   0.08  -0.05     0.02  -0.05  -0.05    -0.01  -0.00  -0.01
    21   1     0.16  -0.12   0.02    -0.03  -0.08  -0.02     0.05  -0.02  -0.00
    22   1    -0.21  -0.11   0.18    -0.03  -0.01   0.00    -0.12  -0.16   0.10
    23   1     0.02  -0.16   0.22    -0.00   0.02   0.01     0.05   0.10   0.19
    24   1    -0.17  -0.08   0.14     0.02  -0.00  -0.02     0.03   0.02  -0.13
    25   1     0.25  -0.07   0.07    -0.03  -0.01   0.05    -0.40   0.06  -0.39
    26   1     0.14   0.12  -0.25    -0.07  -0.06  -0.07    -0.11  -0.10   0.48
    27   1    -0.10   0.02   0.01    -0.15  -0.05   0.02     0.50   0.05  -0.20
    28   1     0.13   0.00  -0.03    -0.12   0.01   0.04    -0.01   0.00   0.00
    29   1     0.37   0.05  -0.11     0.21   0.06  -0.06     0.02   0.01  -0.01
                      7                      8                      9
                      A                      A                      A
 Frequencies --    189.6234               211.1454               234.7170
 Red. masses --      1.3998                 1.9213                 1.1015
 Frc consts  --      0.0297                 0.0505                 0.0358
 IR Inten    --      2.2799                 0.5381                53.5066
 Raman Activ --      0.1358                 0.5515                 1.0967
 Depolar (P) --      0.5227                 0.0703                 0.6195
 Depolar (U) --      0.6866                 0.1314                 0.7650
  Atom  AN      X      Y      Z        X      Y      Z        X      Y      Z
     1   8     0.06  -0.02   0.02    -0.00   0.01  -0.01    -0.00  -0.03  -0.01
     2   6    -0.02   0.01  -0.02     0.05  -0.02   0.01    -0.01  -0.00   0.00
     3   6    -0.01   0.03  -0.06     0.03  -0.01   0.03     0.01   0.03  -0.00
     4   6     0.03  -0.02  -0.05    -0.05   0.06   0.01     0.01  -0.00  -0.04
     5   6    -0.08   0.02   0.01     0.14  -0.03  -0.02    -0.01  -0.02   0.00
     6   6    -0.06   0.01   0.00     0.11  -0.01  -0.01    -0.03  -0.02   0.02
     7   6     0.02  -0.02   0.04    -0.07   0.05  -0.05     0.01   0.01  -0.02
     8   6     0.01  -0.02   0.05    -0.07   0.01   0.00     0.01   0.00  -0.00
     9   6     0.04   0.01  -0.02    -0.12  -0.05   0.01     0.01  -0.00   0.01
    10   6     0.00  -0.02   0.04    -0.05   0.01   0.01     0.02   0.00   0.01
    11   6    -0.01   0.02  -0.01     0.03  -0.03   0.02     0.01   0.00   0.03
    12   1    -0.00   0.05  -0.06     0.05  -0.00   0.03     0.01   0.06  -0.01
    13   1    -0.02   0.03  -0.03     0.07  -0.00   0.01     0.02   0.02   0.04
    14   1     0.04  -0.01  -0.11    -0.06   0.05   0.06     0.01   0.00  -0.09
    15   1     0.08  -0.07  -0.05    -0.10   0.10   0.01     0.02  -0.05  -0.03
    16   1    -0.08   0.02  -0.01     0.21  -0.03  -0.02    -0.33  -0.09   0.19
    17   1    -0.09   0.00   0.07     0.13  -0.10  -0.07     0.06   0.31  -0.14
    18   1    -0.13   0.04  -0.01     0.15  -0.00   0.01     0.25  -0.30  -0.03
    19   1    -0.14  -0.01   0.03     0.26   0.02  -0.06    -0.04  -0.03   0.03
    20   1     0.02  -0.03   0.07    -0.09   0.05  -0.06     0.02   0.01  -0.02
    21   1     0.17  -0.11  -0.02    -0.09   0.08   0.01    -0.48   0.54   0.08
    22   1     0.33   0.42  -0.17     0.08   0.26  -0.10     0.03   0.05  -0.00
    23   1    -0.13  -0.28  -0.41    -0.18  -0.37  -0.28     0.00  -0.04  -0.02
    24   1    -0.04  -0.07   0.43    -0.27  -0.12   0.39    -0.00  -0.01   0.06
    25   1    -0.10   0.01  -0.05    -0.16   0.03  -0.10    -0.00   0.01  -0.01
    26   1    -0.03  -0.05   0.16    -0.08  -0.00   0.15     0.01  -0.00   0.04
    27   1     0.12  -0.00  -0.00     0.10   0.02  -0.05     0.05  -0.01   0.00
    28   1    -0.05   0.01   0.00     0.10  -0.01  -0.00     0.01  -0.00   0.04
    29   1     0.06   0.04  -0.04    -0.11  -0.05   0.07     0.04   0.02   0.01
                     10                     11                     12
                      A                      A                      A
 Frequencies --    265.4825               284.7075               292.9499
 Red. masses --      1.3501                 1.6264                 2.4258
 Frc consts  --      0.0561                 0.0777                 0.1227
 IR Inten    --     14.0052                35.2001                 4.9267
 Raman Activ --      1.4256                 0.9423                 0.6977
 Depolar (P) --      0.3242                 0.3205                 0.7480
 Depolar (U) --      0.4897                 0.4854                 0.8558
  Atom  AN      X      Y      Z        X      Y      Z        X      Y      Z
     1   8     0.04  -0.02   0.00     0.07  -0.04   0.01    -0.04  -0.06  -0.00
     2   6     0.03   0.02   0.03     0.02   0.01   0.02    -0.00  -0.01   0.07
     3   6     0.01  -0.01   0.01     0.01  -0.03  -0.03     0.00  -0.04   0.04
     4   6     0.00   0.03   0.04     0.03   0.07   0.07    -0.04  -0.09  -0.06
     5   6     0.04   0.09   0.01    -0.00   0.09   0.01    -0.03   0.19   0.04
     6   6    -0.01   0.02   0.02    -0.02   0.01   0.01     0.04  -0.01   0.04
     7   6    -0.02  -0.02  -0.00     0.00  -0.05  -0.02     0.01   0.06  -0.01
     8   6    -0.02  -0.02  -0.01    -0.00  -0.06  -0.02     0.01   0.07   0.00
     9   6    -0.01  -0.00  -0.00     0.03   0.03   0.03    -0.04  -0.03  -0.01
    10   6    -0.06  -0.02  -0.02    -0.09  -0.06  -0.04     0.11   0.06   0.04
    11   6    -0.02  -0.05  -0.06    -0.01  -0.03  -0.06    -0.00  -0.14  -0.11
    12   1     0.02  -0.06   0.02     0.01  -0.18   0.01     0.05   0.01   0.01
    13   1    -0.00   0.00  -0.05    -0.03  -0.01  -0.17    -0.02  -0.05   0.09
    14   1     0.03   0.02   0.11     0.10   0.05   0.27    -0.12  -0.08  -0.23
    15   1    -0.01   0.10   0.03    -0.01   0.28   0.03    -0.02  -0.28  -0.02
    16   1    -0.36   0.02   0.15     0.19   0.14  -0.17     0.00   0.23  -0.19
    17   1     0.13   0.51  -0.16    -0.04  -0.11   0.12    -0.04   0.14   0.14
    18   1     0.35  -0.19   0.01    -0.16   0.30   0.06    -0.10   0.36   0.12
    19   1    -0.06   0.07   0.02    -0.08   0.06   0.02     0.10   0.12  -0.01
    20   1    -0.04  -0.02  -0.01    -0.05  -0.05  -0.06     0.08   0.07   0.00
    21   1     0.31  -0.38  -0.04    -0.34   0.47   0.09    -0.22   0.06   0.05
    22   1    -0.02   0.00   0.00     0.00   0.10   0.03    -0.02  -0.05  -0.01
    23   1    -0.01   0.00   0.00     0.02   0.05   0.02    -0.01  -0.09  -0.02
    24   1    -0.00  -0.00   0.00     0.11   0.01   0.08    -0.13  -0.02  -0.00
    25   1    -0.06  -0.01  -0.02    -0.11  -0.02  -0.03     0.11   0.04   0.03
    26   1    -0.07  -0.04  -0.04    -0.11  -0.11  -0.06     0.13   0.12   0.10
    27   1    -0.08   0.01  -0.02    -0.13  -0.01  -0.03     0.17   0.00   0.03
    28   1    -0.09  -0.03  -0.14    -0.06  -0.02  -0.11     0.01  -0.07  -0.30
    29   1     0.03  -0.14  -0.06     0.06  -0.09  -0.07    -0.05  -0.33  -0.07
                     13                     14                     15
                      A                      A                      A
 Frequencies --    302.2299               327.7506               396.3828
 Red. masses --      2.8091                 2.1647                 2.2689
 Frc consts  --      0.1512                 0.1370                 0.2100
 IR Inten    --     11.5524                 2.0375                 2.3963
 Raman Activ --      1.2741                 2.0240                 0.8964
 Depolar (P) --      0.1825                 0.5939                 0.7500
 Depolar (U) --      0.3086                 0.7452                 0.8571
  Atom  AN      X      Y      Z        X      Y      Z        X      Y      Z
     1   8     0.17  -0.12  -0.02    -0.06  -0.10  -0.08     0.01  -0.04   0.05
     2   6     0.01   0.00  -0.04    -0.04  -0.01   0.00    -0.05   0.01   0.03
     3   6    -0.00   0.09  -0.00     0.01   0.12   0.10    -0.06   0.02  -0.06
     4   6    -0.01   0.01   0.00     0.01   0.06   0.04    -0.07   0.02  -0.07
     5   6    -0.04   0.02  -0.02    -0.11  -0.01   0.03     0.09  -0.00  -0.02
     6   6     0.07   0.01  -0.05     0.08   0.01  -0.02    -0.00   0.02   0.02
     7   6    -0.07  -0.01   0.20     0.02  -0.02  -0.08    -0.10  -0.05  -0.00
     8   6    -0.06   0.00   0.11     0.03  -0.04  -0.06    -0.09  -0.08   0.04
     9   6    -0.06  -0.05  -0.10     0.06   0.04   0.05     0.02   0.15   0.01
    10   6    -0.06   0.02  -0.02    -0.01  -0.05  -0.01     0.13  -0.09   0.01
    11   6     0.02   0.03  -0.00     0.03  -0.01  -0.01     0.01   0.01  -0.01
    12   1    -0.05   0.20  -0.01    -0.07   0.32   0.09     0.01  -0.04  -0.07
    13   1     0.05   0.08   0.11     0.12   0.11   0.28    -0.08   0.02  -0.11
    14   1    -0.00   0.02  -0.14     0.08   0.06   0.05    -0.02   0.02  -0.05
    15   1     0.09  -0.13   0.01    -0.10   0.09   0.07    -0.05   0.03  -0.07
    16   1    -0.05   0.02  -0.04    -0.17  -0.02   0.05     0.16   0.00  -0.00
    17   1    -0.04   0.02   0.02    -0.11   0.02   0.13     0.09  -0.04  -0.20
    18   1    -0.06   0.02  -0.04    -0.18  -0.04  -0.03     0.20   0.01   0.07
    19   1     0.31   0.04  -0.12     0.39   0.06  -0.13     0.14   0.06  -0.03
    20   1    -0.10  -0.03   0.31    -0.02  -0.02  -0.13    -0.12  -0.05   0.00
    21   1    -0.05   0.20   0.01    -0.04  -0.25  -0.06     0.03  -0.01   0.04
    22   1     0.03  -0.33  -0.10    -0.01   0.19   0.06     0.01   0.27   0.00
    23   1    -0.12   0.11  -0.06     0.07   0.03   0.05    -0.12   0.38   0.00
    24   1    -0.10   0.01  -0.39     0.16   0.02   0.17     0.31   0.14   0.01
    25   1     0.01  -0.04   0.00    -0.04  -0.01  -0.00     0.24  -0.27  -0.02
    26   1    -0.05   0.02  -0.15    -0.02  -0.07   0.03     0.24   0.14   0.03
    27   1    -0.16   0.12  -0.00     0.00  -0.08  -0.01     0.23  -0.15  -0.01
    28   1     0.21   0.05  -0.03     0.29   0.05  -0.10     0.15   0.05  -0.08
    29   1    -0.19   0.02   0.06    -0.27  -0.07   0.09    -0.12  -0.05   0.04
                     16                     17                     18
                      A                      A                      A
 Frequencies --    404.4158               434.2580               446.4307
 Red. masses --      3.3991                 2.4181                 2.5918
 Frc consts  --      0.3275                 0.2687                 0.3043
 IR Inten    --      6.1424                 2.1841                 6.3425
 Raman Activ --      1.2646                 1.4437                 0.7316
 Depolar (P) --      0.5320                 0.2010                 0.4113
 Depolar (U) --      0.6945                 0.3347                 0.5829
  Atom  AN      X      Y      Z        X      Y      Z        X      Y      Z
     1   8     0.17  -0.09   0.03     0.04   0.14   0.03    -0.03   0.01   0.19
     2   6    -0.00  -0.01  -0.04     0.07  -0.07  -0.09    -0.13  -0.07  -0.00
     3   6    -0.05  -0.10   0.11     0.05   0.03   0.08    -0.07   0.06  -0.03
     4   6    -0.06  -0.13   0.14    -0.02   0.02   0.03     0.00   0.04  -0.02
     5   6    -0.01   0.02  -0.05    -0.08   0.06  -0.09     0.04   0.05  -0.12
     6   6    -0.04   0.05  -0.13     0.03  -0.14  -0.04    -0.04  -0.09  -0.03
     7   6    -0.00  -0.02  -0.06    -0.05  -0.02  -0.02     0.03   0.04   0.04
     8   6    -0.01   0.06  -0.16    -0.06  -0.03   0.04     0.09   0.01  -0.09
     9   6    -0.07   0.03   0.03    -0.03   0.06  -0.00     0.07  -0.05   0.01
    10   6     0.07   0.03   0.04     0.04  -0.03  -0.00    -0.05   0.00   0.00
    11   6    -0.03   0.16  -0.01     0.01  -0.11   0.04     0.03  -0.03   0.01
    12   1    -0.14  -0.09   0.14    -0.05   0.29   0.06    -0.10   0.14  -0.04
    13   1    -0.14  -0.11   0.15     0.21   0.01   0.30     0.02   0.05   0.04
    14   1    -0.08  -0.13   0.18     0.01   0.02   0.06    -0.02   0.05  -0.10
    15   1    -0.15  -0.09   0.15    -0.09   0.04   0.05     0.08  -0.03  -0.03
    16   1    -0.09   0.02  -0.11    -0.23   0.06  -0.25     0.08   0.09  -0.31
    17   1     0.01   0.12  -0.05    -0.05   0.20   0.07     0.06   0.10  -0.37
    18   1     0.03   0.04  -0.02    -0.12   0.11  -0.08     0.26   0.20   0.11
    19   1    -0.02   0.04  -0.13    -0.17  -0.26   0.04     0.18  -0.09  -0.10
    20   1     0.08  -0.01  -0.06    -0.06  -0.02  -0.05    -0.03   0.02   0.11
    21   1     0.14   0.12   0.01     0.15   0.20  -0.02     0.17   0.09   0.10
    22   1    -0.23   0.16   0.07    -0.01   0.09  -0.01    -0.01  -0.03   0.04
    23   1     0.07  -0.11   0.09    -0.10   0.15  -0.02     0.17  -0.14   0.06
    24   1    -0.09  -0.00   0.19     0.07   0.05  -0.01     0.01  -0.06   0.06
    25   1     0.08   0.10   0.10     0.09  -0.15  -0.04    -0.13   0.20   0.07
    26   1     0.10   0.12   0.19     0.10   0.08  -0.01    -0.13  -0.15   0.04
    27   1     0.15  -0.21   0.06     0.09  -0.03  -0.02    -0.12  -0.05   0.04
    28   1     0.04   0.11   0.16    -0.21  -0.19   0.20     0.31  -0.01   0.01
    29   1    -0.09   0.36  -0.03     0.21   0.01  -0.04    -0.19   0.02   0.07
                     19                     20                     21
                      A                      A                      A
 Frequencies --    472.4459               548.0489               554.6707
 Red. masses --      2.3287                 2.4697                 2.8215
 Frc consts  --      0.3062                 0.4371                 0.5114
 IR Inten    --      3.9655                 3.6011                 8.6478
 Raman Activ --      2.8291                 1.8307                 1.1842
 Depolar (P) --      0.1862                 0.5191                 0.7473
 Depolar (U) --      0.3140                 0.6834                 0.8554
  Atom  AN      X      Y      Z        X      Y      Z        X      Y      Z
     1   8    -0.02  -0.05   0.06     0.05   0.03   0.01    -0.12  -0.04   0.05
     2   6    -0.03  -0.05   0.02    -0.09   0.08  -0.05     0.01  -0.08   0.05
     3   6     0.01  -0.04   0.05    -0.08   0.06  -0.02     0.11   0.03  -0.04
     4   6    -0.00  -0.02   0.01     0.09  -0.07   0.07     0.18   0.01  -0.03
     5   6     0.01   0.03  -0.01    -0.03  -0.03  -0.09     0.02   0.03   0.06
     6   6    -0.04   0.00  -0.08    -0.02   0.01   0.14    -0.04  -0.04  -0.10
     7   6     0.07   0.05  -0.15     0.09  -0.11  -0.07     0.05  -0.15   0.03
     8   6    -0.01  -0.03   0.24    -0.04   0.04   0.03    -0.08   0.03  -0.03
     9   6     0.04  -0.03  -0.00    -0.09   0.01  -0.01    -0.15   0.04  -0.03
    10   6    -0.01   0.03  -0.03     0.01   0.07   0.01     0.01   0.04   0.01
    11   6    -0.01   0.08  -0.02     0.04  -0.08   0.02    -0.02   0.06  -0.02
    12   1    -0.00  -0.01   0.04    -0.17   0.09   0.00     0.17   0.05  -0.06
    13   1     0.01  -0.05   0.07    -0.18   0.05   0.06     0.19   0.03  -0.04
    14   1    -0.04  -0.02   0.07     0.28  -0.08   0.22     0.42   0.01   0.15
    15   1    -0.09   0.03   0.02     0.03   0.15   0.04     0.17   0.24  -0.08
    16   1    -0.03   0.04  -0.12     0.11  -0.04   0.06    -0.05   0.05  -0.10
    17   1     0.02   0.09  -0.06    -0.05  -0.17  -0.23     0.03   0.12   0.08
    18   1     0.08   0.09   0.07     0.01  -0.10  -0.12     0.06   0.13   0.16
    19   1     0.03   0.03  -0.10     0.14  -0.02   0.10    -0.00   0.01  -0.12
    20   1     0.15   0.10  -0.47     0.24  -0.06  -0.22     0.11  -0.16   0.15
    21   1     0.01  -0.03   0.04     0.12   0.10  -0.03    -0.12  -0.13   0.07
    22   1     0.25  -0.15  -0.07    -0.05  -0.05  -0.02    -0.14   0.00  -0.03
    23   1    -0.11   0.04  -0.12    -0.06  -0.06  -0.03    -0.13   0.01  -0.03
    24   1     0.00  -0.01  -0.11    -0.19   0.01  -0.02    -0.21   0.05  -0.05
    25   1    -0.01  -0.22  -0.22     0.06  -0.05  -0.03     0.08  -0.01   0.05
    26   1    -0.00  -0.00  -0.24     0.07   0.18  -0.01     0.09   0.21   0.08
    27   1    -0.02   0.40  -0.11     0.06   0.09  -0.01     0.08  -0.11   0.02
    28   1     0.12   0.05   0.08     0.15   0.03  -0.26     0.12   0.01   0.15
    29   1    -0.11   0.20  -0.01    -0.05  -0.36   0.09    -0.11   0.26  -0.02
                     22                     23                     24
                      A                      A                      A
 Frequencies --    711.9122               739.1613               766.5342
 Red. masses --      2.0010                 2.9389                 1.5399
 Frc consts  --      0.5975                 0.9460                 0.5331
 IR Inten    --      6.9898                 1.9160                 1.7376
 Raman Activ --      4.3812                 3.5048                 2.8458
 Depolar (P) --      0.0684                 0.1022                 0.2330
 Depolar (U) --      0.1281                 0.1855                 0.3780
  Atom  AN      X      Y      Z        X      Y      Z        X      Y      Z
     1   8     0.05   0.10  -0.08     0.04   0.02  -0.06     0.01   0.02  -0.02
     2   6     0.03   0.02  -0.00    -0.02   0.04   0.00     0.02  -0.03   0.00
     3   6     0.05  -0.00   0.03    -0.19   0.08  -0.07     0.05  -0.08  -0.02
     4   6     0.00  -0.00   0.03    -0.07  -0.04  -0.01    -0.07  -0.03  -0.08
     5   6     0.03   0.02   0.06     0.08   0.05   0.20     0.00  -0.01  -0.02
     6   6    -0.20  -0.12   0.00     0.06  -0.12  -0.13    -0.07   0.03   0.05
     7   6    -0.00   0.02  -0.00    -0.00  -0.07  -0.01    -0.04  -0.03  -0.00
     8   6    -0.00  -0.00   0.00    -0.00   0.00  -0.00    -0.01  -0.01  -0.00
     9   6    -0.02   0.01  -0.00     0.07  -0.03   0.01     0.07  -0.04   0.02
    10   6     0.00  -0.03  -0.00     0.00   0.10   0.02     0.00   0.08   0.01
    11   6     0.02  -0.04  -0.00     0.01  -0.08   0.00    -0.00   0.03  -0.00
    12   1     0.06  -0.24   0.07    -0.20   0.21  -0.09     0.15   0.33  -0.13
    13   1    -0.07   0.02  -0.20    -0.28   0.06   0.10     0.09  -0.12   0.38
    14   1    -0.05   0.01  -0.13     0.08  -0.05   0.20    -0.04  -0.07   0.42
    15   1    -0.03  -0.17   0.07    -0.04   0.22  -0.08    -0.09   0.43  -0.17
    16   1    -0.03   0.01   0.09     0.13   0.05   0.26    -0.04  -0.01  -0.04
    17   1     0.03   0.04   0.19     0.08   0.03   0.16     0.00   0.02   0.03
    18   1    -0.05   0.00   0.00     0.12   0.05   0.23    -0.02  -0.00  -0.03
    19   1     0.17  -0.05  -0.12    -0.05  -0.16  -0.09     0.04   0.06   0.01
    20   1    -0.02   0.02  -0.01     0.07  -0.05  -0.10    -0.08  -0.08   0.25
    21   1     0.07   0.03  -0.08    -0.01  -0.01  -0.04     0.01   0.02  -0.02
    22   1    -0.02   0.02  -0.00     0.06  -0.06   0.01     0.13  -0.06  -0.00
    23   1    -0.02   0.02   0.00     0.10  -0.08   0.01     0.03  -0.01  -0.02
    24   1    -0.00   0.01   0.00     0.04  -0.04   0.02     0.10  -0.03  -0.03
    25   1     0.00  -0.03  -0.01     0.00   0.08   0.01    -0.01   0.13   0.04
    26   1    -0.00  -0.03  -0.01     0.01   0.12   0.01    -0.00   0.08   0.04
    27   1     0.00  -0.02  -0.01     0.01   0.11   0.01    -0.01   0.03   0.03
    28   1     0.70   0.03  -0.05    -0.08  -0.21   0.35     0.19   0.10  -0.15
    29   1    -0.37   0.05   0.10     0.07   0.23  -0.06    -0.11  -0.07   0.04
                     25                     26                     27
                      A                      A                      A
 Frequencies --    813.2539               866.1049               910.8112
 Red. masses --      1.9939                 1.4345                 2.1665
 Frc consts  --      0.7770                 0.6340                 1.0589
 IR Inten    --      0.3377                12.3906                34.4562
 Raman Activ --      6.0951                 4.2143                 3.1775
 Depolar (P) --      0.0633                 0.6885                 0.7216
 Depolar (U) --      0.1191                 0.8156                 0.8383
  Atom  AN      X      Y      Z        X      Y      Z        X      Y      Z
     1   8    -0.01  -0.01   0.02     0.01  -0.00  -0.00     0.08   0.09  -0.12
     2   6     0.02   0.01   0.01    -0.03   0.03   0.00    -0.12  -0.15   0.05
     3   6     0.03   0.06   0.07    -0.03  -0.01   0.04    -0.01  -0.03  -0.00
     4   6    -0.04   0.04  -0.00     0.02  -0.00  -0.02     0.03   0.04   0.02
     5   6    -0.01  -0.01  -0.07    -0.01   0.01   0.01    -0.05  -0.07   0.10
     6   6     0.01  -0.00  -0.01     0.02  -0.02  -0.02     0.02   0.04   0.02
     7   6    -0.04  -0.13  -0.07     0.07   0.05  -0.12     0.01  -0.02  -0.03
     8   6    -0.05  -0.04  -0.01     0.02   0.02   0.04    -0.01  -0.01   0.00
     9   6     0.10  -0.06   0.02    -0.05   0.02   0.04     0.00  -0.01   0.01
    10   6    -0.01   0.17   0.02     0.01  -0.06  -0.03    -0.01   0.03  -0.00
    11   6     0.00  -0.00   0.00     0.00  -0.02   0.00    -0.00   0.05   0.01
    12   1     0.05  -0.40   0.15    -0.06  -0.06   0.06    -0.15   0.00   0.04
    13   1    -0.01   0.11  -0.40    -0.12  -0.01   0.00     0.23  -0.02  -0.01
    14   1     0.16   0.07  -0.24     0.03  -0.01   0.05     0.03   0.06  -0.17
    15   1    -0.27  -0.16   0.11    -0.14   0.09   0.00     0.02  -0.15   0.07
    16   1    -0.08  -0.02  -0.08     0.05   0.01   0.08     0.02   0.01  -0.33
    17   1    -0.01   0.02   0.02    -0.01  -0.04  -0.06    -0.01   0.09  -0.25
    18   1    -0.08  -0.02  -0.12     0.01  -0.02  -0.01     0.32   0.25   0.53
    19   1     0.00   0.00  -0.00    -0.01  -0.02  -0.01    -0.02  -0.04   0.06
    20   1    -0.16  -0.19   0.22    -0.08  -0.10   0.79    -0.07  -0.05   0.08
    21   1    -0.01  -0.02   0.02     0.02   0.00  -0.01     0.02   0.04  -0.09
    22   1     0.17  -0.08  -0.00     0.21  -0.09  -0.05     0.04  -0.01  -0.01
    23   1     0.04  -0.02  -0.02    -0.23   0.11  -0.12    -0.03   0.02  -0.02
    24   1     0.16  -0.06  -0.02    -0.07   0.06  -0.15     0.02  -0.00  -0.02
    25   1     0.04   0.16   0.06    -0.02   0.11   0.06     0.02   0.02   0.02
    26   1     0.04   0.31   0.09    -0.04  -0.15   0.05     0.01   0.07   0.03
    27   1     0.02   0.07   0.03    -0.04  -0.18   0.01     0.01  -0.02   0.00
    28   1    -0.03  -0.02   0.02    -0.02  -0.05   0.08    -0.15   0.11  -0.18
    29   1     0.02   0.01  -0.01     0.02   0.04  -0.01     0.02  -0.16   0.03
                     28                     29                     30
                      A                      A                      A
 Frequencies --    948.1908               959.4893               962.5582
 Red. masses --      1.7589                 1.3408                 1.4493
 Frc consts  --      0.9317                 0.7273                 0.7912
 IR Inten    --     10.8674                42.2809                 0.4541
 Raman Activ --      5.0008                 1.4763                 1.8957
 Depolar (P) --      0.5210                 0.7269                 0.7459
 Depolar (U) --      0.6851                 0.8418                 0.8545
  Atom  AN      X      Y      Z        X      Y      Z        X      Y      Z
     1   8    -0.03  -0.01   0.03    -0.00  -0.00   0.00    -0.01  -0.01   0.01
     2   6     0.10  -0.08  -0.07    -0.00  -0.00  -0.00     0.01  -0.00  -0.03
     3   6    -0.12   0.05  -0.03    -0.00  -0.00  -0.00    -0.01  -0.00  -0.02
     4   6    -0.03   0.00   0.00     0.01   0.00   0.00     0.03  -0.00   0.02
     5   6     0.10  -0.06   0.02    -0.00   0.00   0.00     0.02   0.00   0.01
     6   6    -0.02   0.03   0.03     0.05   0.01  -0.01    -0.01   0.00   0.00
     7   6     0.04  -0.01  -0.02    -0.00   0.00  -0.00    -0.01  -0.00  -0.02
     8   6     0.02   0.02   0.01     0.00  -0.01  -0.00     0.03  -0.08  -0.00
     9   6    -0.01   0.03   0.01    -0.01  -0.01  -0.00    -0.10  -0.06  -0.03
    10   6     0.00  -0.03  -0.01     0.00   0.01   0.00     0.09   0.08   0.03
    11   6    -0.01   0.06   0.02    -0.15  -0.03   0.05     0.01   0.01   0.00
    12   1    -0.19   0.01  -0.00    -0.02   0.01   0.00    -0.07   0.04  -0.01
    13   1    -0.09   0.05  -0.06     0.02  -0.00   0.01     0.01  -0.01   0.03
    14   1     0.04   0.01  -0.04     0.00   0.01  -0.02    -0.01  -0.00  -0.02
    15   1    -0.05   0.01   0.01     0.01  -0.02   0.01     0.05  -0.04   0.02
    16   1    -0.30  -0.05  -0.32     0.02   0.00   0.00    -0.01   0.00   0.01
    17   1     0.16   0.27   0.54    -0.00  -0.01  -0.02     0.02   0.02   0.06
    18   1    -0.15   0.11  -0.02     0.01   0.00   0.01    -0.01   0.00  -0.00
    19   1     0.08  -0.11   0.03     0.04   0.01  -0.01     0.01  -0.03   0.00
    20   1     0.07  -0.02   0.08    -0.02  -0.00   0.00    -0.08  -0.02   0.02
    21   1     0.04   0.04  -0.00     0.00  -0.00  -0.00     0.02   0.02  -0.01
    22   1     0.05  -0.07  -0.00    -0.01   0.02  -0.00    -0.19   0.31  -0.04
    23   1     0.00  -0.04  -0.03    -0.02   0.02   0.00    -0.25   0.31   0.03
    24   1    -0.14   0.04  -0.04     0.03  -0.01   0.00     0.43  -0.10   0.07
    25   1     0.01  -0.02   0.00    -0.01   0.02   0.00    -0.15   0.36  -0.00
    26   1    -0.00  -0.04   0.00    -0.00  -0.01  -0.00    -0.11  -0.36  -0.08
    27   1     0.00  -0.05  -0.00    -0.01   0.02   0.00    -0.17   0.32   0.07
    28   1    -0.04   0.18  -0.30     0.59   0.12  -0.20    -0.05   0.02  -0.04
    29   1     0.05  -0.23   0.05     0.69   0.14  -0.23    -0.04  -0.05   0.03
                     31                     32                     33
                      A                      A                      A
 Frequencies --    977.7891              1017.8156              1029.9295
 Red. masses --      1.9620                 1.2744                 1.9622
 Frc consts  --      1.1052                 0.7778                 1.2263
 IR Inten    --     13.7684                 1.5563                11.8224
 Raman Activ --      3.2496                 0.7334                 1.9258
 Depolar (P) --      0.7349                 0.4642                 0.4823
 Depolar (U) --      0.8472                 0.6341                 0.6507
  Atom  AN      X      Y      Z        X      Y      Z        X      Y      Z
     1   8     0.05   0.04  -0.04    -0.01  -0.00   0.00     0.03   0.02  -0.02
     2   6    -0.00  -0.02   0.13    -0.01   0.00  -0.02     0.02  -0.01   0.07
     3   6    -0.02   0.07   0.07     0.03   0.01  -0.02    -0.13  -0.08   0.09
     4   6    -0.09  -0.02  -0.09    -0.02  -0.01   0.02     0.14   0.06  -0.08
     5   6    -0.03  -0.07  -0.07    -0.00   0.01   0.01     0.02  -0.03  -0.05
     6   6     0.02   0.00   0.00    -0.00  -0.00  -0.00     0.04   0.02   0.01
     7   6     0.04  -0.05   0.06     0.01   0.00  -0.05    -0.02   0.06  -0.01
     8   6     0.06   0.02   0.01     0.01   0.00   0.00    -0.03  -0.02  -0.01
     9   6    -0.04   0.04  -0.02     0.02   0.02  -0.08     0.01  -0.04  -0.03
    10   6     0.06  -0.03   0.02    -0.01  -0.02   0.10    -0.05   0.01   0.02
    11   6    -0.01  -0.03  -0.01     0.00   0.01   0.00    -0.01  -0.03  -0.02
    12   1     0.27  -0.21   0.04     0.00   0.01  -0.01    -0.12  -0.01   0.07
    13   1    -0.22   0.09  -0.18     0.06   0.01  -0.03    -0.29  -0.09   0.20
    14   1     0.09  -0.03   0.16    -0.01  -0.01   0.01     0.12   0.06  -0.10
    15   1    -0.21   0.27  -0.12    -0.08  -0.00   0.03     0.32   0.04  -0.13
    16   1    -0.16  -0.04  -0.32     0.03   0.01   0.04    -0.13  -0.04  -0.13
    17   1     0.00   0.09  -0.05    -0.00  -0.01  -0.03     0.03   0.06   0.14
    18   1    -0.02   0.08   0.03     0.02  -0.00   0.02    -0.10   0.01  -0.09
    19   1    -0.04   0.12  -0.01     0.03  -0.04  -0.01    -0.36   0.11   0.11
    20   1     0.23   0.00  -0.09    -0.08  -0.08   0.44    -0.14   0.03   0.10
    21   1    -0.13  -0.12   0.05     0.02   0.02  -0.01    -0.06  -0.05   0.03
    22   1    -0.10   0.02   0.01    -0.36   0.11   0.05    -0.15   0.13   0.00
    23   1     0.03  -0.03   0.02     0.32  -0.16   0.15     0.05   0.04   0.07
    24   1    -0.14   0.04   0.01    -0.07  -0.02   0.15     0.21  -0.08   0.09
    25   1    -0.09   0.09  -0.05    -0.04  -0.37  -0.20     0.04  -0.19  -0.04
    26   1    -0.07  -0.34  -0.11     0.03  -0.00  -0.21     0.06   0.24  -0.00
    27   1    -0.09   0.19   0.03     0.07   0.44  -0.03     0.08   0.03  -0.03
    28   1     0.04  -0.08   0.14    -0.03   0.02  -0.04     0.23  -0.06   0.11
    29   1     0.02   0.13  -0.04     0.02  -0.04   0.00    -0.22   0.12   0.03
                     34                     35                     36
                      A                      A                      A
 Frequencies --   1034.0554              1038.5463              1053.1377
 Red. masses --      1.1890                 2.5992                 1.7104
 Frc consts  --      0.7490                 1.6517                 1.1177
 IR Inten    --      8.3888                 7.6919                 2.7490
 Raman Activ --      2.3138                 8.1386                 4.8706
 Depolar (P) --      0.7285                 0.3116                 0.6873
 Depolar (U) --      0.8429                 0.4752                 0.8147
  Atom  AN      X      Y      Z        X      Y      Z        X      Y      Z
     1   8     0.01   0.01  -0.01     0.01  -0.01  -0.00     0.01   0.02  -0.00
     2   6     0.00   0.00   0.02    -0.05  -0.02  -0.06     0.06  -0.05   0.05
     3   6    -0.02  -0.01   0.02    -0.06  -0.14   0.15    -0.05  -0.03  -0.10
     4   6     0.04  -0.00  -0.02    -0.00   0.17  -0.15    -0.04   0.06   0.08
     5   6    -0.00  -0.02  -0.01     0.02   0.08   0.03     0.01   0.00  -0.04
     6   6    -0.09  -0.01   0.03    -0.03  -0.02  -0.02    -0.02   0.04   0.08
     7   6    -0.01   0.03  -0.00     0.04  -0.13   0.05     0.04  -0.07  -0.04
     8   6    -0.01  -0.00  -0.00     0.06  -0.03  -0.00     0.03  -0.03   0.01
     9   6     0.01  -0.02  -0.01    -0.03   0.08  -0.01    -0.02   0.05   0.01
    10   6    -0.02   0.00   0.00     0.04   0.02   0.02     0.02   0.02   0.01
    11   6     0.02  -0.00  -0.01     0.00   0.03   0.02    -0.00  -0.05  -0.05
    12   1     0.02  -0.03   0.02    -0.16  -0.08   0.16    -0.22   0.23  -0.10
    13   1    -0.11  -0.01   0.05     0.12  -0.14   0.12     0.27  -0.04   0.10
    14   1     0.04  -0.00   0.02     0.03   0.17  -0.22    -0.17   0.07  -0.18
    15   1     0.10   0.03  -0.04    -0.09   0.06  -0.10     0.03  -0.19   0.11
    16   1    -0.04  -0.01  -0.08     0.12   0.04   0.36    -0.01  -0.01   0.02
    17   1     0.01   0.03   0.02    -0.02  -0.13   0.04    -0.00  -0.04   0.03
    18   1    -0.01   0.03   0.01    -0.05  -0.13  -0.15    -0.05  -0.06  -0.11
    19   1     0.72   0.17  -0.24     0.15  -0.11  -0.05     0.03   0.45  -0.02
    20   1    -0.03   0.03   0.02    -0.03  -0.10  -0.18    -0.11  -0.11   0.04
    21   1    -0.00  -0.03   0.00     0.23   0.19  -0.12    -0.08  -0.06   0.04
    22   1    -0.03   0.05  -0.00    -0.03  -0.10   0.02     0.03  -0.08   0.01
    23   1    -0.00   0.03   0.02     0.08  -0.13  -0.02     0.01  -0.07  -0.03
    24   1     0.11  -0.03   0.03    -0.33   0.10  -0.03    -0.21   0.07  -0.05
    25   1     0.02  -0.06  -0.00    -0.04   0.09  -0.01    -0.01   0.07   0.00
    26   1     0.02   0.08   0.01    -0.03  -0.14  -0.04    -0.01  -0.06  -0.01
    27   1     0.03  -0.02  -0.01    -0.05   0.14   0.02    -0.02   0.06   0.01
    28   1    -0.34  -0.09   0.14    -0.12   0.07  -0.12     0.12  -0.17   0.31
    29   1     0.37   0.10  -0.13     0.10  -0.12   0.01    -0.07   0.36  -0.09
                     37                     38                     39
                      A                      A                      A
 Frequencies --   1105.8737              1115.9742              1138.2940
 Red. masses --      1.6770                 1.4830                 1.8801
 Frc consts  --      1.2084                 1.0882                 1.4353
 IR Inten    --      0.1196                 7.0589                13.6060
 Raman Activ --      1.2737                 7.5208                 6.8893
 Depolar (P) --      0.7417                 0.2613                 0.6726
 Depolar (U) --      0.8517                 0.4143                 0.8042
  Atom  AN      X      Y      Z        X      Y      Z        X      Y      Z
     1   8     0.00  -0.00   0.00     0.00   0.01  -0.01     0.02   0.02   0.01
     2   6     0.00   0.00   0.00    -0.05  -0.09   0.01     0.08   0.04   0.05
     3   6     0.00   0.00  -0.00    -0.01   0.01  -0.00    -0.02  -0.01  -0.02
     4   6     0.00  -0.00   0.00    -0.06  -0.00  -0.02    -0.08   0.08   0.01
     5   6    -0.00  -0.00  -0.00     0.03   0.05  -0.01    -0.04   0.01  -0.02
     6   6    -0.00  -0.00  -0.00     0.01   0.02   0.03    -0.02  -0.05  -0.06
     7   6     0.00   0.00  -0.03     0.07   0.01   0.04     0.14  -0.05   0.02
     8   6    -0.04  -0.03   0.17    -0.00   0.06   0.02     0.08  -0.03   0.02
     9   6     0.03   0.03  -0.12    -0.02  -0.08  -0.03    -0.07  -0.03  -0.02
    10   6     0.03   0.02  -0.11    -0.05  -0.03  -0.02    -0.07   0.03  -0.01
    11   6     0.00   0.00   0.00    -0.01  -0.00  -0.02     0.00   0.04   0.03
    12   1     0.01   0.00  -0.00    -0.10  -0.03   0.04     0.07   0.08  -0.06
    13   1    -0.01  -0.00   0.00     0.34   0.03  -0.13    -0.16  -0.02   0.09
    14   1     0.01  -0.00   0.00     0.15   0.01  -0.01    -0.43   0.07  -0.04
    15   1     0.01   0.01  -0.00    -0.26   0.07   0.02     0.02  -0.05   0.01
    16   1    -0.00  -0.00  -0.00     0.01   0.01   0.20     0.05   0.01  -0.01
    17   1    -0.00   0.00  -0.00     0.01  -0.07   0.11    -0.04  -0.04  -0.15
    18   1     0.00   0.00   0.00    -0.08  -0.09  -0.16     0.04  -0.03  -0.00
    19   1     0.00  -0.01  -0.00    -0.03   0.17   0.01     0.05  -0.23  -0.04
    20   1    -0.02  -0.01   0.03     0.44   0.06   0.08     0.08  -0.06   0.03
    21   1    -0.01  -0.01   0.00     0.18   0.18  -0.11    -0.32  -0.29   0.19
    22   1    -0.44   0.09   0.06    -0.10   0.18  -0.03    -0.12   0.15  -0.03
    23   1     0.40  -0.16   0.20    -0.07   0.15   0.06    -0.12   0.14   0.02
    24   1    -0.08  -0.04   0.24     0.34  -0.12   0.07     0.13  -0.05   0.02
    25   1     0.05   0.39   0.21     0.06  -0.13   0.02     0.12  -0.14   0.05
    26   1    -0.06  -0.07   0.24     0.03   0.14   0.04     0.06   0.31   0.07
    27   1    -0.12  -0.40   0.04     0.06  -0.15  -0.03     0.13  -0.15  -0.04
    28   1    -0.00   0.00  -0.01     0.01  -0.03   0.06    -0.05   0.10  -0.17
    29   1     0.00  -0.01   0.00    -0.01   0.10  -0.03     0.04  -0.19   0.05
                     40                     41                     42
                      A                      A                      A
 Frequencies --   1147.6575              1157.2264              1229.3189
 Red. masses --      2.1264                 1.7197                 2.3689
 Frc consts  --      1.6502                 1.3569                 2.1093
 IR Inten    --     50.9352                24.8399                31.2244
 Raman Activ --      3.0753                 3.0548                 3.2617
 Depolar (P) --      0.7499                 0.7193                 0.4955
 Depolar (U) --      0.8571                 0.8367                 0.6627
  Atom  AN      X      Y      Z        X      Y      Z        X      Y      Z
     1   8     0.04   0.03  -0.03     0.03   0.04   0.01     0.03   0.00   0.01
     2   6    -0.16  -0.09   0.16     0.12  -0.08   0.07    -0.12   0.18   0.02
     3   6     0.00   0.03  -0.04    -0.07   0.00  -0.01     0.04  -0.11  -0.04
     4   6     0.02  -0.03   0.07     0.03  -0.02  -0.01    -0.00   0.09   0.03
     5   6     0.08   0.06  -0.07    -0.05   0.06  -0.03     0.06  -0.06  -0.01
     6   6     0.02  -0.04  -0.06    -0.03  -0.04  -0.03    -0.00  -0.01  -0.03
     7   6    -0.02   0.01  -0.04    -0.06   0.03  -0.01     0.01  -0.07  -0.00
     8   6     0.00  -0.03  -0.00    -0.06   0.05  -0.01    -0.12   0.13  -0.01
     9   6     0.00   0.02   0.01     0.04  -0.01   0.01     0.04  -0.04   0.00
    10   6     0.01   0.01   0.00     0.04  -0.03   0.00     0.05  -0.05   0.00
    11   6    -0.00   0.04   0.03     0.00   0.05   0.02     0.00  -0.02   0.00
    12   1     0.36   0.05  -0.14    -0.32   0.01   0.06    -0.04   0.17  -0.07
    13   1     0.01   0.02   0.01     0.18   0.01  -0.03     0.19  -0.12   0.16
    14   1    -0.10  -0.03   0.02     0.38  -0.00  -0.06     0.02   0.11  -0.21
    15   1     0.30  -0.07  -0.01    -0.08   0.03   0.01    -0.13  -0.11   0.11
    16   1    -0.15  -0.02   0.23     0.16   0.04   0.21    -0.20  -0.05  -0.19
    17   1     0.03  -0.09   0.34    -0.09  -0.18  -0.21     0.09   0.17   0.20
    18   1    -0.27  -0.15  -0.42     0.05  -0.15  -0.11    -0.15   0.14  -0.01
    19   1     0.02  -0.12  -0.04     0.03  -0.07  -0.04     0.05  -0.24   0.00
    20   1    -0.20  -0.02   0.01     0.13   0.05   0.03     0.36  -0.02   0.07
    21   1     0.00   0.01  -0.02    -0.37  -0.33   0.22    -0.25  -0.23   0.15
    22   1     0.04  -0.05   0.01     0.06  -0.05   0.01     0.08  -0.02  -0.01
    23   1     0.00  -0.03  -0.03     0.05  -0.04   0.00     0.07  -0.03   0.04
    24   1    -0.09   0.03  -0.03     0.03  -0.01   0.00     0.20  -0.06   0.03
    25   1    -0.01   0.03   0.00    -0.06   0.05  -0.03    -0.06   0.02  -0.05
    26   1    -0.00  -0.00  -0.00    -0.03  -0.19  -0.04    -0.04  -0.24  -0.06
    27   1    -0.01   0.03   0.01    -0.08   0.06   0.02    -0.08   0.02   0.03
    28   1    -0.15   0.09  -0.14    -0.04   0.12  -0.17    -0.00  -0.05   0.06
    29   1     0.11  -0.16   0.03     0.01  -0.13   0.04     0.03  -0.04   0.00
                     43                     44                     45
                      A                      A                      A
 Frequencies --   1250.9179              1292.1247              1311.8173
 Red. masses --      1.6899                 1.3709                 1.2390
 Frc consts  --      1.5580                 1.3486                 1.2562
 IR Inten    --     13.0254                 3.5119                15.8945
 Raman Activ --      4.8356                 5.7153                10.5225
 Depolar (P) --      0.3391                 0.3594                 0.7495
 Depolar (U) --      0.5065                 0.5287                 0.8568
  Atom  AN      X      Y      Z        X      Y      Z        X      Y      Z
     1   8    -0.03  -0.02  -0.01     0.00  -0.01   0.00     0.02   0.02   0.01
     2   6     0.08  -0.06  -0.00     0.02   0.06  -0.02    -0.04  -0.01  -0.06
     3   6    -0.04   0.02   0.03    -0.08  -0.04   0.04     0.01   0.04   0.06
     4   6    -0.02   0.06   0.04    -0.10  -0.01   0.04    -0.02  -0.03  -0.04
     5   6    -0.05   0.02   0.01    -0.02  -0.02  -0.00     0.01   0.01  -0.00
     6   6    -0.00  -0.00   0.00    -0.01   0.00  -0.00     0.01   0.02   0.04
     7   6     0.03  -0.07  -0.04    -0.00   0.03  -0.03     0.02  -0.02  -0.01
     8   6    -0.12   0.12  -0.00     0.04  -0.05   0.00    -0.03   0.02  -0.00
     9   6     0.03  -0.03   0.01    -0.01   0.01   0.00     0.00  -0.00   0.00
    10   6     0.04  -0.03   0.00    -0.01   0.00  -0.00     0.01   0.01   0.00
    11   6     0.00   0.01   0.01     0.00  -0.00  -0.01    -0.01  -0.01  -0.04
    12   1     0.40  -0.01  -0.09     0.40   0.04  -0.12    -0.27  -0.16   0.18
    13   1    -0.30   0.02   0.05     0.45  -0.00  -0.11     0.31   0.08  -0.21
    14   1    -0.28   0.06  -0.08     0.49   0.03  -0.17    -0.41  -0.07   0.20
    15   1     0.45  -0.04  -0.07     0.45   0.05  -0.13     0.48   0.12  -0.21
    16   1     0.11   0.03   0.04     0.03  -0.00  -0.04     0.01  -0.01   0.08
    17   1    -0.06  -0.07  -0.12    -0.00   0.04  -0.01     0.01   0.00   0.11
    18   1     0.11  -0.06   0.05     0.05   0.03   0.07     0.02   0.02   0.02
    19   1    -0.03   0.11  -0.01     0.03  -0.14   0.02     0.07  -0.20   0.07
    20   1     0.19  -0.06   0.08     0.14   0.03   0.07    -0.06  -0.04   0.01
    21   1     0.26   0.24  -0.16     0.01   0.01  -0.00    -0.21  -0.19   0.13
    22   1     0.08  -0.03  -0.01    -0.02   0.01   0.00     0.02  -0.02  -0.00
    23   1     0.05  -0.03   0.03    -0.04   0.01  -0.02     0.02  -0.02   0.01
    24   1     0.17  -0.05   0.02    -0.06   0.02  -0.02     0.04  -0.01   0.01
    25   1    -0.05   0.01  -0.05     0.00   0.03   0.03     0.01  -0.02  -0.02
    26   1    -0.05  -0.22  -0.06     0.03   0.10   0.03    -0.02  -0.07  -0.03
    27   1    -0.06  -0.01   0.03     0.00   0.04  -0.01     0.01  -0.04   0.01
    28   1     0.00   0.03  -0.04     0.03  -0.01   0.02     0.01  -0.03   0.03
    29   1    -0.01  -0.01   0.01    -0.02  -0.00  -0.00    -0.04   0.14  -0.05
                     46                     47                     48
                      A                      A                      A
 Frequencies --   1334.2830              1367.2951              1387.1551
 Red. masses --      1.3090                 1.4444                 1.3024
 Frc consts  --      1.3730                 1.5909                 1.4766
 IR Inten    --      2.0340                13.9599                16.6516
 Raman Activ --     15.6775                 8.7819                 5.7763
 Depolar (P) --      0.2181                 0.5155                 0.7111
 Depolar (U) --      0.3581                 0.6803                 0.8312
  Atom  AN      X      Y      Z        X      Y      Z        X      Y      Z
     1   8    -0.01  -0.01  -0.00    -0.01  -0.01  -0.01     0.03   0.02   0.02
     2   6    -0.00   0.06   0.01     0.04   0.05   0.04    -0.04  -0.05  -0.11
     3   6     0.01   0.00   0.01    -0.13   0.00   0.02    -0.01  -0.01   0.02
     4   6    -0.02  -0.02  -0.01     0.10  -0.03  -0.02    -0.01   0.00   0.01
     5   6     0.00  -0.02  -0.00    -0.01  -0.01   0.00    -0.02  -0.00  -0.06
     6   6    -0.03  -0.03  -0.10    -0.01  -0.00  -0.01     0.00   0.01   0.01
     7   6     0.00  -0.00  -0.01     0.02  -0.01   0.01     0.02  -0.01   0.01
     8   6    -0.01  -0.00  -0.00    -0.00   0.06   0.01     0.01   0.05   0.01
     9   6     0.00   0.00   0.00    -0.00  -0.01  -0.01    -0.01  -0.01  -0.01
    10   6     0.00   0.00   0.00     0.00   0.02   0.01    -0.00   0.00  -0.00
    11   6     0.04  -0.01   0.10    -0.00   0.00  -0.00     0.01  -0.01   0.02
    12   1    -0.24  -0.01   0.09     0.31   0.04  -0.12     0.32   0.01  -0.09
    13   1     0.23   0.02  -0.11     0.53   0.04  -0.16    -0.11  -0.02   0.02
    14   1    -0.10  -0.03   0.07    -0.28  -0.07   0.15     0.15   0.02  -0.06
    15   1     0.20   0.05  -0.09    -0.34  -0.02   0.10    -0.13  -0.01   0.05
    16   1    -0.02  -0.01  -0.06     0.02   0.00  -0.07     0.15  -0.05   0.37
    17   1     0.02   0.06   0.01     0.00   0.04  -0.09    -0.00   0.08   0.37
    18   1    -0.02   0.04   0.02    -0.02  -0.00  -0.00     0.24   0.17   0.24
    19   1    -0.20   0.69  -0.21     0.02  -0.13   0.00    -0.07   0.28  -0.04
    20   1     0.00  -0.01   0.01    -0.39  -0.05  -0.10    -0.29  -0.04  -0.08
    21   1     0.05   0.03  -0.03     0.11   0.11  -0.07    -0.25  -0.22   0.15
    22   1     0.00  -0.01   0.00     0.03   0.03  -0.02     0.04   0.05  -0.03
    23   1     0.00  -0.01  -0.00     0.03   0.02   0.05     0.02   0.03   0.05
    24   1     0.00   0.00   0.00     0.05  -0.02   0.01     0.04  -0.02   0.01
    25   1     0.00  -0.01  -0.00     0.04  -0.12  -0.06     0.03  -0.08  -0.03
    26   1    -0.01  -0.01  -0.01    -0.06  -0.14  -0.05    -0.04  -0.08  -0.02
    27   1     0.00  -0.01   0.00     0.04  -0.15   0.02     0.01  -0.09   0.01
    28   1     0.01  -0.00   0.04     0.02  -0.00   0.01    -0.00  -0.00  -0.01
    29   1     0.13  -0.41   0.14    -0.00  -0.03   0.01     0.01  -0.02   0.02
                     49                     50                     51
                      A                      A                      A
 Frequencies --   1392.5355              1412.1294              1422.1649
 Red. masses --      1.3396                 1.3656                 1.3483
 Frc consts  --      1.5305                 1.6044                 1.6067
 IR Inten    --      5.4731                 8.6010                 3.6631
 Raman Activ --      3.4393                 6.8142                13.6834
 Depolar (P) --      0.6840                 0.7251                 0.5421
 Depolar (U) --      0.8123                 0.8407                 0.7031
  Atom  AN      X      Y      Z        X      Y      Z        X      Y      Z
     1   8     0.01   0.00   0.00     0.00   0.00   0.00     0.02   0.01   0.01
     2   6    -0.00  -0.01  -0.03    -0.00  -0.00  -0.00    -0.02  -0.03  -0.07
     3   6    -0.05   0.01   0.02     0.00  -0.00  -0.00    -0.02  -0.00   0.02
     4   6     0.09   0.02  -0.01     0.01   0.00   0.00     0.00   0.00  -0.00
     5   6    -0.01  -0.01  -0.03     0.00   0.00   0.00     0.03   0.03   0.07
     6   6    -0.00   0.00   0.00     0.00  -0.00   0.00    -0.01   0.03   0.00
     7   6    -0.05   0.02  -0.00    -0.02   0.02  -0.00     0.01  -0.01   0.00
     8   6    -0.03  -0.10  -0.03     0.02  -0.08  -0.01     0.01   0.04   0.01
     9   6     0.02   0.03   0.01    -0.11   0.07  -0.01    -0.06   0.02  -0.01
    10   6     0.00  -0.02  -0.00     0.00   0.09   0.02    -0.01  -0.10  -0.02
    11   6     0.00  -0.00   0.01     0.00  -0.00   0.00     0.00  -0.01   0.00
    12   1     0.23   0.03  -0.08     0.01   0.01  -0.01     0.18   0.05  -0.06
    13   1     0.11   0.02  -0.08    -0.03  -0.00   0.01    -0.01   0.01  -0.08
    14   1    -0.38  -0.02   0.16     0.01   0.01  -0.02    -0.00  -0.01   0.06
    15   1    -0.17  -0.11   0.10    -0.01   0.01   0.01    -0.03  -0.06   0.02
    16   1     0.08  -0.02   0.16    -0.00   0.00  -0.00    -0.12   0.05  -0.21
    17   1    -0.00   0.06   0.15     0.00  -0.00  -0.01     0.00  -0.13  -0.20
    18   1     0.11   0.08   0.11    -0.00  -0.01  -0.01    -0.12  -0.16  -0.16
    19   1    -0.02   0.08  -0.01    -0.00   0.01  -0.00    -0.02   0.09  -0.01
    20   1     0.60   0.08   0.16     0.23   0.05   0.06    -0.16  -0.02  -0.04
    21   1    -0.07  -0.06   0.04    -0.01  -0.01   0.00    -0.14  -0.13   0.09
    22   1    -0.08  -0.09   0.05     0.40  -0.26  -0.13     0.26  -0.08  -0.10
    23   1    -0.04  -0.06  -0.11     0.32  -0.33   0.19     0.19  -0.12   0.17
    24   1    -0.08   0.03  -0.01     0.41   0.00   0.09     0.25  -0.02   0.06
    25   1    -0.06   0.19   0.08     0.04  -0.25  -0.18    -0.03   0.31   0.25
    26   1     0.08   0.18   0.04    -0.12  -0.19  -0.05     0.14   0.26   0.06
    27   1    -0.02   0.20  -0.03    -0.02  -0.29   0.08     0.06   0.37  -0.12
    28   1    -0.00   0.00  -0.01    -0.00   0.00  -0.00     0.05  -0.05   0.11
    29   1     0.00  -0.01   0.01    -0.00   0.00  -0.00     0.03  -0.10   0.02
                     52                     53                     54
                      A                      A                      A
 Frequencies --   1422.8471              1456.1388              1472.6986
 Red. masses --      1.4402                 1.1801                 1.0467
 Frc consts  --      1.7179                 1.4743                 1.3375
 IR Inten    --     23.9337                12.6752                 0.6174
 Raman Activ --      8.3322                12.1185                10.5700
 Depolar (P) --      0.1200                 0.3666                 0.7499
 Depolar (U) --      0.2143                 0.5365                 0.8571
  Atom  AN      X      Y      Z        X      Y      Z        X      Y      Z
     1   8    -0.02  -0.02  -0.01    -0.01  -0.00  -0.00    -0.00  -0.00  -0.00
     2   6     0.03   0.05   0.10     0.01  -0.02   0.03     0.00   0.00   0.00
     3   6     0.02   0.00  -0.03     0.01   0.01  -0.02     0.00  -0.00   0.00
     4   6    -0.02  -0.01  -0.01    -0.00  -0.00   0.00    -0.01   0.00  -0.00
     5   6    -0.04  -0.04  -0.09    -0.02   0.01  -0.03    -0.00   0.00  -0.00
     6   6     0.01  -0.04  -0.00    -0.03   0.10  -0.03    -0.00   0.00  -0.00
     7   6     0.01  -0.01   0.00    -0.00   0.00   0.00     0.00   0.00  -0.00
     8   6     0.01   0.03   0.01     0.00  -0.00  -0.00     0.00   0.00  -0.00
     9   6    -0.05   0.02  -0.01    -0.00   0.00   0.00     0.01   0.01  -0.04
    10   6    -0.01  -0.07  -0.01     0.00   0.00  -0.00    -0.00  -0.01   0.03
    11   6    -0.00   0.01  -0.01    -0.01   0.01  -0.03    -0.00   0.00  -0.00
    12   1    -0.25  -0.06   0.08    -0.05  -0.13   0.03    -0.01   0.06  -0.01
    13   1     0.07  -0.00   0.07    -0.00  -0.01   0.13    -0.02   0.00  -0.05
    14   1     0.02  -0.01   0.04    -0.00   0.00  -0.02     0.03   0.00   0.04
    15   1     0.04  -0.01  -0.02    -0.02   0.03  -0.00     0.01  -0.05   0.01
    16   1     0.15  -0.07   0.27     0.06   0.02  -0.02    -0.01  -0.00   0.00
    17   1    -0.00   0.17   0.25    -0.04  -0.07   0.22    -0.01  -0.02   0.01
    18   1     0.16   0.21   0.21     0.23  -0.10   0.05     0.02   0.00   0.01
    19   1     0.03  -0.13   0.02     0.07  -0.27   0.03     0.00  -0.01   0.00
    20   1    -0.14  -0.02  -0.04     0.01   0.00   0.00    -0.01  -0.00   0.00
    21   1     0.20   0.18  -0.12     0.04   0.03  -0.03     0.00   0.00  -0.00
    22   1     0.22  -0.07  -0.09     0.00  -0.00   0.00     0.09  -0.38  -0.01
    23   1     0.16  -0.11   0.14     0.00  -0.01  -0.00    -0.10   0.37   0.10
    24   1     0.21  -0.01   0.05     0.01   0.00  -0.00    -0.13  -0.10   0.55
    25   1    -0.02   0.23   0.18     0.00  -0.00   0.00    -0.23   0.19  -0.08
    26   1     0.11   0.19   0.05    -0.00   0.00   0.01     0.09   0.09  -0.40
    27   1     0.04   0.28  -0.09    -0.00   0.01  -0.00     0.18  -0.20  -0.01
    28   1    -0.06   0.06  -0.14     0.23  -0.21   0.57     0.00  -0.00   0.01
    29   1    -0.04   0.13  -0.02     0.12  -0.54   0.03     0.00  -0.01  -0.00
                     55                     56                     57
                      A                      A                      A
 Frequencies --   1479.0110              1486.1901              1491.5810
 Red. masses --      1.0695                 1.0652                 1.0425
 Frc consts  --      1.3784                 1.3862                 1.3665
 IR Inten    --      1.4180                 1.6958                13.2698
 Raman Activ --      8.6218                10.1429                 0.6749
 Depolar (P) --      0.7326                 0.6110                 0.7467
 Depolar (U) --      0.8457                 0.7585                 0.8550
  Atom  AN      X      Y      Z        X      Y      Z        X      Y      Z
     1   8    -0.00  -0.00  -0.00    -0.00  -0.00  -0.00    -0.00  -0.00  -0.00
     2   6     0.01   0.00   0.01     0.01   0.00   0.01     0.00   0.00   0.00
     3   6     0.01  -0.03   0.03     0.02  -0.03   0.03    -0.00  -0.00   0.00
     4   6    -0.02   0.03  -0.03    -0.00   0.00  -0.00    -0.00   0.00  -0.00
     5   6     0.00   0.01  -0.01     0.00   0.01  -0.02     0.00   0.00  -0.00
     6   6    -0.00   0.01  -0.00    -0.00   0.00   0.00    -0.00  -0.00   0.00
     7   6     0.01   0.00  -0.00    -0.00  -0.00  -0.00     0.00  -0.00   0.00
     8   6     0.00   0.00   0.00     0.00   0.01   0.00     0.00   0.01  -0.03
     9   6    -0.01  -0.02   0.00     0.01   0.02   0.01     0.01   0.01  -0.03
    10   6     0.03  -0.01   0.00    -0.03   0.01  -0.00     0.01   0.01  -0.04
    11   6    -0.00   0.00  -0.01    -0.00   0.00  -0.01     0.00  -0.00   0.00
    12   1    -0.07   0.34  -0.04    -0.08   0.42  -0.05    -0.00   0.02  -0.00
    13   1    -0.10   0.02  -0.34    -0.13   0.02  -0.40     0.00   0.00  -0.02
    14   1     0.11  -0.01   0.36     0.05  -0.00   0.03    -0.00  -0.00   0.03
    15   1     0.06  -0.36   0.05     0.01  -0.03   0.00     0.01  -0.02   0.00
    16   1    -0.14  -0.02   0.03    -0.17  -0.02   0.02    -0.02  -0.00  -0.00
    17   1    -0.03  -0.15   0.04    -0.05  -0.20   0.07    -0.00  -0.02   0.00
    18   1     0.08   0.04   0.07     0.13   0.04   0.09     0.01   0.00   0.01
    19   1     0.02  -0.05   0.01     0.01  -0.04   0.01     0.00  -0.00   0.00
    20   1    -0.02  -0.00   0.00    -0.03  -0.00  -0.01    -0.01  -0.00   0.02
    21   1     0.03   0.03  -0.02     0.03   0.03  -0.02     0.00   0.00  -0.00
    22   1     0.10   0.19  -0.06    -0.19  -0.17   0.10     0.07  -0.29  -0.00
    23   1     0.08   0.03   0.13    -0.11  -0.15  -0.23    -0.09   0.27   0.04
    24   1    -0.09   0.02  -0.12     0.19   0.00   0.01    -0.08  -0.07   0.40
    25   1    -0.22  -0.05  -0.27     0.23   0.00   0.25     0.28  -0.28   0.05
    26   1     0.10   0.18   0.09    -0.12  -0.22  -0.08    -0.11  -0.10   0.55
    27   1    -0.34  -0.09   0.14     0.32   0.06  -0.13    -0.29   0.28   0.03
    28   1     0.02  -0.01   0.04     0.01  -0.01   0.03    -0.00   0.00  -0.00
    29   1     0.01  -0.03  -0.00     0.01  -0.02  -0.00    -0.00   0.00  -0.00
                     58                     59                     60
                      A                      A                      A
 Frequencies --   1494.5906              1495.5768              1504.3894
 Red. masses --      1.0662                 1.0697                 1.0787
 Frc consts  --      1.4033                 1.4097                 1.4384
 IR Inten    --      4.2451                 3.3524                 2.3587
 Raman Activ --      8.6495                24.2845                 5.3227
 Depolar (P) --      0.3414                 0.5984                 0.5401
 Depolar (U) --      0.5090                 0.7488                 0.7014
  Atom  AN      X      Y      Z        X      Y      Z        X      Y      Z
     1   8    -0.00  -0.00   0.00    -0.00  -0.00  -0.00    -0.00  -0.00  -0.00
     2   6     0.02  -0.02  -0.01     0.02  -0.01   0.00     0.01   0.02   0.00
     3   6    -0.01   0.02  -0.01    -0.00  -0.00   0.01    -0.00  -0.01   0.01
     4   6    -0.01   0.01  -0.01     0.02  -0.01   0.02     0.02  -0.04   0.03
     5   6     0.04  -0.01  -0.01     0.03  -0.00  -0.01     0.01   0.02  -0.01
     6   6    -0.01   0.02  -0.00    -0.00   0.01  -0.00     0.00  -0.01   0.00
     7   6     0.02   0.00   0.00    -0.04  -0.01  -0.01     0.02   0.01   0.01
     8   6    -0.00   0.01   0.00     0.00  -0.01  -0.00    -0.01  -0.00  -0.00
     9   6     0.00   0.02   0.01    -0.00  -0.04  -0.01    -0.00   0.01   0.00
    10   6     0.01  -0.01   0.00    -0.02   0.01  -0.00     0.02  -0.02   0.00
    11   6    -0.00   0.00  -0.00    -0.00   0.00  -0.00     0.00  -0.00   0.00
    12   1     0.05  -0.19   0.02    -0.00   0.05  -0.01    -0.01   0.06  -0.01
    13   1     0.04  -0.01   0.18    -0.03   0.00  -0.04     0.02   0.01  -0.07
    14   1     0.07  -0.00   0.12    -0.09   0.01  -0.15    -0.17   0.00  -0.44
    15   1     0.02  -0.12   0.01     0.00   0.15  -0.02    -0.10   0.47  -0.07
    16   1    -0.31  -0.11   0.35    -0.30  -0.08   0.23    -0.30  -0.02  -0.04
    17   1     0.02  -0.06  -0.33    -0.01  -0.16  -0.18    -0.07  -0.36   0.09
    18   1    -0.29   0.44   0.11    -0.12   0.30   0.12     0.21   0.01   0.11
    19   1     0.00  -0.03   0.00     0.01  -0.03   0.00    -0.01   0.02  -0.00
    20   1    -0.07  -0.00  -0.01     0.13   0.01   0.03    -0.06   0.01  -0.03
    21   1    -0.01   0.00   0.00     0.01   0.02  -0.01     0.01   0.01  -0.01
    22   1    -0.18  -0.20   0.09     0.28   0.29  -0.14    -0.04  -0.08   0.03
    23   1    -0.11  -0.15  -0.22     0.16   0.23   0.34    -0.03  -0.05  -0.06
    24   1     0.20  -0.00   0.04    -0.31   0.01  -0.05     0.07  -0.00   0.02
    25   1    -0.07   0.00  -0.07     0.14  -0.00   0.15    -0.19   0.03  -0.18
    26   1     0.03   0.06   0.01    -0.07  -0.13  -0.04     0.11   0.21   0.06
    27   1    -0.09  -0.03   0.04     0.19   0.04  -0.07    -0.25  -0.02   0.09
    28   1     0.04  -0.03   0.09     0.03  -0.02   0.06    -0.02   0.02  -0.06
    29   1     0.02  -0.09   0.01     0.02  -0.06   0.00    -0.01   0.05  -0.00
                     61                     62                     63
                      A                      A                      A
 Frequencies --   1506.8751              1706.4003              1731.7770
 Red. masses --      1.0764                 4.6626                 6.3768
 Frc consts  --      1.4400                 7.9990                11.2677
 IR Inten    --      4.0917                 5.9389                 1.4409
 Raman Activ --      5.7672                35.4634                79.4870
 Depolar (P) --      0.4710                 0.0932                 0.2175
 Depolar (U) --      0.6404                 0.1705                 0.3573
  Atom  AN      X      Y      Z        X      Y      Z        X      Y      Z
     1   8     0.00   0.00  -0.00    -0.01  -0.01   0.00     0.00   0.00   0.00
     2   6    -0.00  -0.03   0.01     0.03  -0.05   0.03     0.00   0.00  -0.00
     3   6     0.01  -0.02   0.03     0.01  -0.01  -0.00    -0.01  -0.00  -0.00
     4   6     0.01  -0.02   0.02    -0.00  -0.00  -0.00    -0.07  -0.01  -0.02
     5   6    -0.01  -0.03   0.01    -0.01   0.01  -0.01    -0.00   0.00   0.00
     6   6    -0.00   0.02  -0.00    -0.14   0.35  -0.19     0.00  -0.01   0.01
     7   6     0.01   0.00   0.00     0.01   0.00   0.00     0.42   0.19   0.13
     8   6    -0.00  -0.00  -0.00    -0.01  -0.01  -0.00    -0.41  -0.25  -0.14
     9   6    -0.00   0.00   0.00     0.00   0.00   0.00     0.04   0.01   0.01
    10   6     0.01  -0.01  -0.00     0.00   0.00   0.00     0.03   0.04   0.01
    11   6    -0.01   0.01  -0.01     0.13  -0.29   0.21    -0.00   0.01  -0.01
    12   1    -0.04   0.33  -0.04    -0.03   0.03   0.00     0.03   0.00  -0.02
    13   1    -0.14   0.02  -0.33    -0.03  -0.00  -0.02     0.02  -0.00  -0.01
    14   1    -0.08   0.00  -0.25     0.00   0.00  -0.00     0.20  -0.00   0.02
    15   1    -0.02   0.25  -0.04    -0.00   0.00   0.00    -0.16   0.03   0.01
    16   1     0.34  -0.01   0.17     0.04   0.00   0.06    -0.00   0.00  -0.00
    17   1     0.10   0.47  -0.17    -0.01   0.00  -0.00    -0.00  -0.00   0.00
    18   1    -0.32   0.11  -0.10     0.00  -0.01  -0.01     0.01  -0.00   0.00
    19   1     0.02  -0.07   0.01     0.04  -0.39  -0.12    -0.00   0.01   0.00
    20   1    -0.03   0.00  -0.01    -0.01   0.00  -0.00    -0.38   0.16  -0.06
    21   1    -0.00   0.01   0.00     0.02   0.02  -0.01    -0.00  -0.00   0.00
    22   1    -0.01  -0.03   0.01     0.01   0.00  -0.00     0.19   0.01  -0.05
    23   1    -0.01  -0.01  -0.02     0.00  -0.00   0.00     0.15  -0.03   0.13
    24   1     0.02  -0.00   0.01    -0.01   0.00  -0.00    -0.19   0.02  -0.04
    25   1    -0.07   0.01  -0.07     0.00   0.00   0.00     0.07   0.14   0.15
    26   1     0.05   0.09   0.04    -0.00  -0.01  -0.00    -0.09  -0.22  -0.06
    27   1    -0.11   0.00   0.04     0.00   0.00  -0.00     0.11   0.18  -0.05
    28   1     0.05  -0.04   0.13    -0.11  -0.12  -0.43     0.00   0.00   0.01
    29   1     0.02  -0.12   0.00    -0.04   0.50   0.18    -0.00  -0.02  -0.01
                     64                     65                     66
                      A                      A                      A
 Frequencies --   3001.5253              3008.1452              3015.7672
 Red. masses --      1.0656                 1.0389                 1.0422
 Frc consts  --      5.6562                 5.5391                 5.5847
 IR Inten    --     10.6302                27.4592                62.8894
 Raman Activ --    109.4639               106.8090               307.9445
 Depolar (P) --      0.0849                 0.1463                 0.0455
 Depolar (U) --      0.1565                 0.2553                 0.0869
  Atom  AN      X      Y      Z        X      Y      Z        X      Y      Z
     1   8    -0.00  -0.00   0.00    -0.00  -0.00   0.00    -0.00  -0.00   0.00
     2   6     0.00   0.00  -0.00     0.00  -0.00   0.00     0.00   0.00  -0.00
     3   6    -0.02   0.01  -0.06     0.00  -0.00  -0.00    -0.00   0.00  -0.01
     4   6     0.01   0.00   0.03     0.00  -0.00   0.00    -0.00   0.00  -0.01
     5   6    -0.00  -0.00  -0.00    -0.00   0.00  -0.00    -0.00  -0.00   0.00
     6   6     0.00   0.00   0.00    -0.00  -0.00  -0.00     0.00   0.00   0.00
     7   6     0.00  -0.00  -0.00     0.00  -0.00   0.00     0.00  -0.00   0.00
     8   6     0.00  -0.00   0.00    -0.00  -0.00  -0.00    -0.00  -0.00  -0.00
     9   6     0.00   0.00   0.00    -0.05   0.00  -0.01    -0.02   0.00  -0.00
    10   6     0.00   0.00   0.00     0.01   0.02   0.01    -0.03  -0.04  -0.01
    11   6    -0.00   0.00   0.00    -0.00   0.00  -0.00    -0.00   0.00   0.00
    12   1     0.24   0.18   0.80    -0.00  -0.00  -0.00     0.03   0.02   0.09
    13   1     0.00  -0.32  -0.06    -0.00   0.00   0.00     0.00  -0.06  -0.01
    14   1    -0.00   0.07   0.01    -0.00   0.01   0.00     0.00  -0.07  -0.01
    15   1    -0.10  -0.09  -0.36    -0.01  -0.01  -0.02     0.04   0.04   0.16
    16   1    -0.00   0.02   0.00    -0.00   0.00   0.00     0.00  -0.00  -0.00
    17   1     0.02  -0.00  -0.00     0.00  -0.00  -0.00     0.00  -0.00   0.00
    18   1    -0.01  -0.02   0.02    -0.00  -0.00   0.00     0.00   0.00  -0.01
    19   1    -0.01  -0.00  -0.03     0.00   0.00   0.00    -0.00  -0.00  -0.01
    20   1    -0.00   0.02   0.00    -0.00   0.01   0.00    -0.00   0.03   0.00
    21   1    -0.00  -0.00   0.00     0.00   0.00   0.00    -0.00   0.00   0.00
    22   1    -0.01  -0.00  -0.02     0.19   0.07   0.57     0.08   0.03   0.24
    23   1    -0.01  -0.00   0.01     0.41   0.24  -0.38     0.17   0.10  -0.15
    24   1     0.00   0.01   0.00    -0.03  -0.32  -0.07    -0.01  -0.14  -0.03
    25   1    -0.01  -0.01   0.01    -0.17  -0.12   0.17     0.39   0.27  -0.39
    26   1     0.01  -0.00   0.00     0.10  -0.04   0.01    -0.24   0.10  -0.03
    27   1    -0.01  -0.00  -0.02    -0.08  -0.04  -0.24     0.19   0.09   0.56
    28   1     0.00   0.00   0.00     0.00  -0.00  -0.00     0.00  -0.00  -0.00
    29   1    -0.00  -0.00  -0.00     0.00   0.00   0.00     0.00  -0.00  -0.00
                     67                     68                     69
                      A                      A                      A
 Frequencies --   3018.0855              3046.3194              3049.9611
 Red. masses --      1.0676                 1.0992                 1.0985
 Frc consts  --      5.7298                 6.0101                 6.0203
 IR Inten    --     29.4578                 8.0362                34.9262
 Raman Activ --     96.5302                44.1068               151.4959
 Depolar (P) --      0.1961                 0.7487                 0.7491
 Depolar (U) --      0.3280                 0.8563                 0.8566
  Atom  AN      X      Y      Z        X      Y      Z        X      Y      Z
     1   8     0.00  -0.00   0.00    -0.00   0.00   0.00    -0.00  -0.00  -0.00
     2   6    -0.00   0.00  -0.00    -0.00  -0.00  -0.00     0.00   0.00   0.00
     3   6    -0.01   0.02  -0.02    -0.00  -0.00  -0.00     0.00   0.01   0.00
     4   6    -0.02  -0.00  -0.06     0.00   0.00   0.00     0.00  -0.00   0.00
     5   6    -0.00  -0.00   0.00     0.00   0.00   0.00    -0.00  -0.00  -0.00
     6   6     0.00   0.00   0.00    -0.00   0.00  -0.00    -0.00   0.00  -0.00
     7   6    -0.00   0.00  -0.00     0.00   0.00  -0.00     0.00  -0.00  -0.00
     8   6     0.00   0.00   0.00     0.00   0.00  -0.00     0.00   0.00  -0.00
     9   6     0.00  -0.00   0.00     0.02   0.01  -0.08     0.01   0.01  -0.03
    10   6     0.01   0.01   0.00    -0.01  -0.01   0.03     0.02   0.01  -0.08
    11   6    -0.00   0.00   0.00     0.00  -0.00  -0.00     0.00  -0.00   0.00
    12   1     0.08   0.07   0.29     0.00   0.00   0.00    -0.01  -0.00  -0.03
    13   1     0.01  -0.26  -0.04    -0.00   0.01   0.00     0.00  -0.08  -0.01
    14   1     0.00  -0.19  -0.03     0.00  -0.00   0.00    -0.00   0.02   0.00
    15   1     0.23   0.20   0.81    -0.00  -0.00  -0.01    -0.00  -0.00  -0.01
    16   1     0.00  -0.01  -0.00     0.00  -0.00  -0.00    -0.00   0.03   0.00
    17   1    -0.01   0.00   0.00    -0.00   0.00  -0.00     0.03  -0.01   0.00
    18   1     0.02   0.03  -0.04     0.00   0.00  -0.00    -0.01  -0.01   0.02
    19   1    -0.01  -0.00  -0.02     0.00   0.00   0.00     0.00  -0.00   0.00
    20   1     0.00  -0.03  -0.00     0.00  -0.00  -0.00     0.00   0.00  -0.00
    21   1    -0.00   0.00   0.00    -0.00   0.00   0.00     0.00   0.00  -0.00
    22   1    -0.01  -0.00  -0.03     0.22   0.09   0.61     0.09   0.03   0.24
    23   1    -0.03  -0.02   0.03    -0.46  -0.27   0.39    -0.18  -0.10   0.15
    24   1     0.00   0.02   0.00     0.00   0.00  -0.02     0.00  -0.00  -0.01
    25   1    -0.09  -0.06   0.09     0.17   0.12  -0.16    -0.42  -0.29   0.39
    26   1     0.05  -0.02   0.01     0.00  -0.00   0.01    -0.00   0.01  -0.02
    27   1    -0.04  -0.02  -0.13    -0.09  -0.05  -0.24     0.23   0.12   0.61
    28   1    -0.00   0.00   0.00     0.00   0.00   0.00    -0.00   0.00   0.00
    29   1     0.00  -0.00  -0.00    -0.00  -0.00   0.00    -0.00  -0.00  -0.00
                     70                     71                     72
                      A                      A                      A
 Frequencies --   3050.5901              3053.1897              3088.2303
 Red. masses --      1.0677                 1.0611                 1.0908
 Frc consts  --      5.8543                 5.8279                 6.1294
 IR Inten    --      2.4685                27.1819                 9.8227
 Raman Activ --     40.9385               201.3777                31.8679
 Depolar (P) --      0.4230                 0.0730                 0.1953
 Depolar (U) --      0.5946                 0.1360                 0.3267
  Atom  AN      X      Y      Z        X      Y      Z        X      Y      Z
     1   8     0.00   0.00   0.00     0.00   0.00   0.00    -0.00   0.00   0.00
     2   6    -0.00  -0.00  -0.00    -0.00  -0.00  -0.00    -0.00  -0.00  -0.00
     3   6    -0.01  -0.06  -0.03    -0.00  -0.05  -0.02    -0.00  -0.02  -0.01
     4   6    -0.00   0.01  -0.00    -0.00   0.01  -0.01     0.00  -0.07  -0.02
     5   6     0.01   0.02   0.03    -0.02  -0.01  -0.03    -0.00  -0.00   0.00
     6   6     0.00   0.00   0.00    -0.00   0.00  -0.00     0.00   0.00   0.00
     7   6     0.00   0.00   0.00     0.00   0.00   0.00    -0.00   0.03   0.00
     8   6    -0.00   0.00  -0.00     0.00   0.00   0.00    -0.00  -0.00  -0.00
     9   6     0.00   0.00  -0.00     0.00  -0.00  -0.00    -0.00  -0.00  -0.00
    10   6     0.00   0.00  -0.01     0.00   0.00  -0.00    -0.02   0.00  -0.00
    11   6    -0.00   0.00  -0.00     0.00  -0.00   0.00     0.00  -0.00  -0.00
    12   1     0.08   0.05   0.27     0.07   0.04   0.22     0.03   0.02   0.10
    13   1    -0.02   0.63   0.07    -0.02   0.58   0.06    -0.00   0.19   0.02
    14   1     0.01  -0.16  -0.02     0.01  -0.20  -0.02    -0.04   0.85   0.08
    15   1     0.00   0.01   0.02     0.02   0.02   0.08     0.05   0.03   0.18
    16   1     0.06  -0.44  -0.06    -0.06   0.45   0.07    -0.00   0.01   0.00
    17   1    -0.37   0.08  -0.00     0.42  -0.09   0.00     0.04  -0.01   0.00
    18   1     0.16   0.18  -0.25    -0.18  -0.20   0.29     0.00   0.00  -0.00
    19   1    -0.01  -0.01  -0.03     0.00   0.00   0.01    -0.01  -0.00  -0.02
    20   1    -0.00  -0.00  -0.00    -0.00  -0.00  -0.00     0.04  -0.36  -0.05
    21   1    -0.00  -0.00   0.00    -0.00  -0.00   0.00     0.00  -0.00   0.00
    22   1     0.01   0.00   0.02    -0.00   0.00  -0.00     0.01   0.00   0.02
    23   1    -0.01  -0.01   0.01    -0.00  -0.00   0.00     0.01   0.01  -0.01
    24   1     0.00   0.00  -0.00     0.00   0.00   0.00     0.00   0.04   0.01
    25   1    -0.05  -0.03   0.04    -0.02  -0.01   0.02     0.03   0.03  -0.04
    26   1    -0.01   0.01  -0.00    -0.01   0.01  -0.00     0.13  -0.06   0.01
    27   1     0.02   0.01   0.05     0.00   0.00   0.01     0.02   0.01   0.06
    28   1    -0.00   0.00  -0.00     0.00   0.00   0.00     0.00   0.00   0.00
    29   1     0.00   0.00   0.01    -0.00  -0.00  -0.01    -0.00  -0.00  -0.00
                     73                     74                     75
                      A                      A                      A
 Frequencies --   3101.1646              3101.5332              3111.9958
 Red. masses --      1.0978                 1.0857                 1.0885
 Frc consts  --      6.2205                 6.1531                 6.2112
 IR Inten    --      8.8621                19.1635                40.8758
 Raman Activ --     41.0977                61.2227                87.1580
 Depolar (P) --      0.7108                 0.3074                 0.2908
 Depolar (U) --      0.8309                 0.4702                 0.4505
  Atom  AN      X      Y      Z        X      Y      Z        X      Y      Z
     1   8    -0.00  -0.00   0.00    -0.00  -0.00   0.00     0.00   0.00   0.00
     2   6    -0.00   0.00  -0.00    -0.00   0.00  -0.00    -0.00   0.00  -0.00
     3   6     0.00   0.00   0.00    -0.00  -0.00  -0.00    -0.00  -0.01  -0.00
     4   6     0.00   0.01   0.00    -0.00  -0.00  -0.00    -0.00  -0.03  -0.01
     5   6     0.00  -0.00   0.00     0.00  -0.00   0.00    -0.00   0.00  -0.00
     6   6    -0.00  -0.00  -0.01    -0.02  -0.02  -0.08    -0.00  -0.00  -0.00
     7   6    -0.00   0.03   0.00     0.00  -0.00  -0.00     0.01  -0.07  -0.01
     8   6    -0.00  -0.00  -0.00     0.00   0.00   0.00     0.00  -0.00   0.00
     9   6    -0.02  -0.08  -0.02     0.00   0.01   0.00    -0.01  -0.03  -0.01
    10   6     0.00  -0.00   0.00    -0.00   0.00  -0.00    -0.01   0.01  -0.00
    11   6    -0.00   0.00   0.00    -0.00   0.01   0.00     0.00   0.00   0.00
    12   1    -0.00  -0.00  -0.01     0.01   0.01   0.04     0.01   0.00   0.02
    13   1     0.00  -0.04  -0.00     0.00   0.01   0.00     0.00   0.07   0.01
    14   1     0.01  -0.14  -0.01    -0.00   0.02   0.00    -0.01   0.28   0.03
    15   1    -0.01  -0.01  -0.04     0.00   0.00   0.01     0.03   0.02   0.09
    16   1    -0.00   0.00   0.00    -0.00   0.00  -0.00     0.00  -0.04  -0.01
    17   1    -0.01   0.00  -0.00    -0.03   0.01  -0.00     0.05  -0.01   0.00
    18   1     0.00   0.00  -0.00     0.01   0.02  -0.02    -0.00  -0.00   0.01
    19   1     0.02   0.02   0.08     0.26   0.21   0.92     0.00   0.00   0.01
    20   1     0.04  -0.29  -0.04    -0.00   0.01   0.00    -0.11   0.86   0.13
    21   1     0.00  -0.00   0.00    -0.00  -0.00   0.00    -0.00  -0.00   0.00
    22   1     0.07   0.01   0.22    -0.01  -0.00  -0.02     0.02   0.00   0.07
    23   1     0.16   0.08  -0.15    -0.01  -0.01   0.01     0.05   0.03  -0.05
    24   1     0.06   0.86   0.17    -0.00  -0.08  -0.02     0.02   0.31   0.06
    25   1    -0.00  -0.00   0.00     0.00   0.00  -0.00     0.01   0.01  -0.02
    26   1    -0.04   0.02  -0.01     0.01  -0.00   0.00     0.14  -0.06   0.02
    27   1     0.00   0.00  -0.00     0.00   0.00   0.00     0.00   0.00   0.02
    28   1     0.00  -0.01  -0.01     0.01  -0.14  -0.06     0.00  -0.00  -0.00
    29   1     0.00   0.00   0.00     0.01   0.01   0.03    -0.00  -0.00  -0.00
                     76                     77                     78
                      A                      A                      A
 Frequencies --   3116.6050              3125.6643              3126.0580
 Red. masses --      1.1021                 1.1010                 1.0943
 Frc consts  --      6.3069                 6.3373                 6.3007
 IR Inten    --     21.6710                13.4690                35.8106
 Raman Activ --     74.8568                23.6166                60.6878
 Depolar (P) --      0.7481                 0.7435                 0.5813
 Depolar (U) --      0.8559                 0.8529                 0.7353
  Atom  AN      X      Y      Z        X      Y      Z        X      Y      Z
     1   8    -0.00   0.00  -0.00    -0.00  -0.00   0.00     0.00   0.00  -0.00
     2   6     0.00  -0.00  -0.00     0.00   0.00  -0.00    -0.00  -0.00   0.00
     3   6    -0.00  -0.00  -0.00    -0.00   0.00  -0.00     0.00   0.00   0.00
     4   6    -0.00  -0.00   0.00    -0.00   0.00  -0.00    -0.00   0.02   0.01
     5   6     0.05  -0.08   0.01     0.07   0.04  -0.04    -0.02  -0.01   0.01
     6   6     0.00   0.00   0.00    -0.00  -0.00  -0.00     0.00   0.00   0.00
     7   6     0.00  -0.00  -0.00    -0.00   0.00   0.00    -0.00   0.01   0.00
     8   6     0.00  -0.00   0.00    -0.00  -0.00  -0.00    -0.00  -0.00  -0.00
     9   6    -0.00  -0.00  -0.00     0.00   0.00   0.00     0.00   0.00   0.00
    10   6    -0.00   0.00  -0.00    -0.03   0.01  -0.00    -0.08   0.02  -0.01
    11   6    -0.00   0.00  -0.00     0.00  -0.00   0.00    -0.00   0.00  -0.00
    12   1     0.00   0.00   0.01     0.00   0.00   0.00    -0.00  -0.00  -0.01
    13   1    -0.00   0.03   0.00     0.00  -0.02  -0.00    -0.00  -0.03  -0.00
    14   1    -0.00   0.03   0.00     0.00  -0.04  -0.00     0.01  -0.20  -0.02
    15   1    -0.00  -0.00  -0.00     0.01   0.01   0.03    -0.01  -0.01  -0.05
    16   1    -0.09   0.73   0.12     0.04  -0.16  -0.03    -0.01   0.04   0.01
    17   1    -0.59   0.11  -0.01    -0.51   0.12  -0.02     0.17  -0.04   0.01
    18   1     0.13   0.12  -0.19    -0.35  -0.39   0.56     0.11   0.13  -0.18
    19   1    -0.01  -0.01  -0.03     0.00   0.00   0.01    -0.00  -0.00  -0.01
    20   1    -0.01   0.05   0.01     0.00  -0.03  -0.00     0.01  -0.09  -0.01
    21   1    -0.00   0.00   0.00    -0.00  -0.00  -0.00     0.00   0.00   0.00
    22   1     0.00   0.00   0.00     0.00  -0.00   0.00     0.00  -0.00  -0.00
    23   1     0.00   0.00  -0.00     0.00  -0.00  -0.00    -0.00  -0.00   0.00
    24   1     0.00   0.01   0.00    -0.00  -0.00  -0.00    -0.00  -0.02  -0.00
    25   1     0.00   0.00  -0.00     0.03   0.03  -0.04     0.10   0.08  -0.11
    26   1     0.02  -0.01   0.00     0.27  -0.12   0.03     0.80  -0.37   0.10
    27   1     0.00   0.00   0.00     0.01   0.01   0.06     0.04   0.03   0.17
    28   1    -0.00  -0.00  -0.00    -0.00   0.01   0.01     0.00  -0.00  -0.00
    29   1     0.01   0.00   0.02    -0.01  -0.01  -0.03     0.00   0.00   0.01
                     79                     80                     81
                      A                      A                      A
 Frequencies --   3145.2684              3221.0505              3780.8378
 Red. masses --      1.0620                 1.1154                 1.0660
 Frc consts  --      6.1898                 6.8182                 8.9779
 IR Inten    --      5.9305                10.1135                15.7655
 Raman Activ --    127.0631                61.0780                83.3256
 Depolar (P) --      0.1248                 0.6888                 0.2048
 Depolar (U) --      0.2219                 0.8157                 0.3399
  Atom  AN      X      Y      Z        X      Y      Z        X      Y      Z
     1   8    -0.00  -0.00   0.00    -0.00   0.00   0.00    -0.02  -0.01  -0.06
     2   6     0.00   0.00   0.00    -0.00   0.00  -0.00    -0.00  -0.00  -0.00
     3   6    -0.00   0.00  -0.00    -0.00  -0.00  -0.00     0.00  -0.00   0.00
     4   6     0.00   0.00   0.00    -0.00  -0.00  -0.00    -0.00   0.00  -0.00
     5   6    -0.00  -0.00   0.00     0.00   0.00  -0.00     0.00   0.00   0.00
     6   6    -0.01   0.00  -0.01    -0.00  -0.00  -0.01    -0.00   0.00   0.00
     7   6    -0.00   0.00  -0.00    -0.00   0.00   0.00     0.00  -0.00   0.00
     8   6    -0.00  -0.00  -0.00    -0.00  -0.00  -0.00    -0.00   0.00  -0.00
     9   6    -0.00  -0.00  -0.00    -0.00  -0.00  -0.00     0.00  -0.00  -0.00
    10   6     0.00  -0.00   0.00     0.00  -0.00  -0.00     0.00   0.00   0.00
    11   6     0.02  -0.05   0.04    -0.01  -0.06  -0.08    -0.00  -0.00  -0.00
    12   1     0.00   0.00   0.00     0.00   0.00   0.00     0.00  -0.00  -0.00
    13   1     0.00  -0.00  -0.00     0.00   0.00   0.00     0.00  -0.00  -0.00
    14   1     0.00  -0.00   0.00    -0.00  -0.00  -0.00     0.00  -0.00  -0.00
    15   1    -0.00  -0.00  -0.00     0.00   0.00   0.00     0.00   0.00   0.00
    16   1    -0.00   0.01   0.00     0.00  -0.01  -0.00    -0.00  -0.00   0.00
    17   1    -0.00   0.00   0.00     0.01  -0.00  -0.00    -0.00  -0.00   0.00
    18   1     0.02   0.02  -0.03    -0.01  -0.01   0.01    -0.00  -0.00  -0.00
    19   1     0.03   0.02   0.12     0.02   0.02   0.08    -0.00   0.00  -0.00
    20   1     0.00  -0.00  -0.00     0.00  -0.00  -0.00    -0.00   0.00   0.00
    21   1     0.00  -0.00   0.00    -0.00  -0.00   0.00     0.35   0.15   0.92
    22   1     0.00   0.00   0.00     0.00   0.00   0.00    -0.00   0.00  -0.00
    23   1     0.00   0.00  -0.00     0.00   0.00  -0.00    -0.00  -0.00   0.00
    24   1     0.00   0.00   0.00    -0.00   0.00   0.00     0.00   0.00   0.00
    25   1     0.00   0.00  -0.00    -0.00   0.00   0.00    -0.00  -0.00   0.00
    26   1    -0.00   0.00  -0.00    -0.00   0.00  -0.00    -0.00   0.00   0.00
    27   1    -0.00   0.00  -0.00     0.00   0.00   0.00    -0.00  -0.00  -0.00
    28   1    -0.05   0.66   0.26    -0.05   0.64   0.23     0.00  -0.00   0.00
    29   1    -0.19  -0.11  -0.65     0.20   0.10   0.68     0.00  -0.00   0.00

 -------------------
 - Thermochemistry -
 -------------------
 Temperature   298.150 Kelvin.  Pressure   1.00000 Atm.
 Atom     1 has atomic number  8 and mass  15.99491
 Atom     2 has atomic number  6 and mass  12.00000
 Atom     3 has atomic number  6 and mass  12.00000
 Atom     4 has atomic number  6 and mass  12.00000
 Atom     5 has atomic number  6 and mass  12.00000
 Atom     6 has atomic number  6 and mass  12.00000
 Atom     7 has atomic number  6 and mass  12.00000
 Atom     8 has atomic number  6 and mass  12.00000
 Atom     9 has atomic number  6 and mass  12.00000
 Atom    10 has atomic number  6 and mass  12.00000
 Atom    11 has atomic number  6 and mass  12.00000
 Atom    12 has atomic number  1 and mass   1.00783
 Atom    13 has atomic number  1 and mass   1.00783
 Atom    14 has atomic number  1 and mass   1.00783
 Atom    15 has atomic number  1 and mass   1.00783
 Atom    16 has atomic number  1 and mass   1.00783
 Atom    17 has atomic number  1 and mass   1.00783
 Atom    18 has atomic number  1 and mass   1.00783
 Atom    19 has atomic number  1 and mass   1.00783
 Atom    20 has atomic number  1 and mass   1.00783
 Atom    21 has atomic number  1 and mass   1.00783
 Atom    22 has atomic number  1 and mass   1.00783
 Atom    23 has atomic number  1 and mass   1.00783
 Atom    24 has atomic number  1 and mass   1.00783
 Atom    25 has atomic number  1 and mass   1.00783
 Atom    26 has atomic number  1 and mass   1.00783
 Atom    27 has atomic number  1 and mass   1.00783
 Atom    28 has atomic number  1 and mass   1.00783
 Atom    29 has atomic number  1 and mass   1.00783
 Molecular mass:   154.13577 amu.
 Principal axes and moments of inertia in atomic units:
                           1         2         3
     Eigenvalues --   918.570223895.874354284.53463
           X            0.99993  -0.00316   0.01139
           Y            0.00289   0.99972   0.02349
           Z           -0.01146  -0.02346   0.99966
 This molecule is an asymmetric top.
 Rotational symmetry number  1.
 Warning -- assumption of classical behavior for rotation
           may cause significant error
 Rotational temperatures (Kelvin)      0.09429     0.02223     0.02022
 Rotational constants (GHZ):           1.96473     0.46324     0.42122
 Zero-point vibrational energy     676867.1 (Joules/Mol)
                                  161.77512 (Kcal/Mol)
 Warning -- explicit consideration of  21 degrees of freedom as
           vibrations may cause significant error
 Vibrational temperatures:     36.40    57.84   103.61   142.32   164.08
          (Kelvin)            206.45   272.83   303.79   337.71   381.97
                              409.63   421.49   434.84   471.56   570.31
                              581.86   624.80   642.31   679.74   788.52
                              798.05  1024.28  1063.49  1102.87  1170.09
                             1246.13  1310.45  1364.24  1380.49  1384.91
                             1406.82  1464.41  1481.84  1487.78  1494.24
                             1515.23  1591.11  1605.64  1637.75  1651.22
                             1664.99  1768.72  1799.79  1859.08  1887.41
                             1919.74  1967.23  1995.81  2003.55  2031.74
                             2046.18  2047.16  2095.06  2118.88  2127.97
                             2138.30  2146.05  2150.38  2151.80  2164.48
                             2168.06  2455.13  2491.64  4318.53  4328.05
                             4339.02  4342.35  4382.97  4388.21  4389.12
                             4392.86  4443.27  4461.88  4462.41  4477.47
                             4484.10  4497.13  4497.70  4525.34  4634.37
                             5439.78
 
 Zero-point correction=                           0.257805 (Hartree/Particle)
 Thermal correction to Energy=                    0.271902
 Thermal correction to Enthalpy=                  0.272846
 Thermal correction to Gibbs Free Energy=         0.216498
 Sum of electronic and zero-point Energies=           -467.015960
 Sum of electronic and thermal Energies=              -467.001863
 Sum of electronic and thermal Enthalpies=            -467.000919
 Sum of electronic and thermal Free Energies=         -467.057267
 
                     E (Thermal)             CV                S
                      KCal/Mol        Cal/Mol-Kelvin    Cal/Mol-Kelvin
 Total                  170.621             51.645            118.594
 Electronic               0.000              0.000              0.000
 Translational            0.889              2.981             41.008
 Rotational               0.889              2.981             31.106
 Vibrational            168.843             45.683             46.480
 Vibration     1          0.593              1.985              6.168
 Vibration     2          0.594              1.981              5.249
 Vibration     3          0.598              1.967              4.098
 Vibration     4          0.604              1.950              3.476
 Vibration     5          0.607              1.938              3.199
 Vibration     6          0.616              1.910              2.757
 Vibration     7          0.633              1.854              2.232
 Vibration     8          0.643              1.824              2.034
 Vibration     9          0.655              1.788              1.843
 Vibration    10          0.671              1.736              1.625
 Vibration    11          0.683              1.702              1.505
 Vibration    12          0.688              1.687              1.457
 Vibration    13          0.694              1.669              1.405
 Vibration    14          0.711              1.620              1.271
 Vibration    15          0.763              1.478              0.976
 Vibration    16          0.770              1.461              0.947
 Vibration    17          0.795              1.396              0.845
 Vibration    18          0.806              1.369              0.807
 Vibration    19          0.829              1.311              0.731
 Vibration    20          0.903              1.144              0.548
 Vibration    21          0.910              1.129              0.535
                       Q            Log10(Q)             Ln(Q)
 Total Bot       0.261717D-99        -99.582168       -229.296415
 Total V=0       0.999591D+19         18.999822         43.748708
 Vib (Bot)       0.248237-113       -113.605133       -261.585485
 Vib (Bot)    1  0.818593D+01          0.913068          2.102417
 Vib (Bot)    2  0.514677D+01          0.711535          1.638370
 Vib (Bot)    3  0.286318D+01          0.456849          1.051934
 Vib (Bot)    4  0.207523D+01          0.317067          0.730074
 Vib (Bot)    5  0.179440D+01          0.253919          0.584670
 Vib (Bot)    6  0.141571D+01          0.150973          0.347629
 Vib (Bot)    7  0.105561D+01          0.023502          0.054114
 Vib (Bot)    8  0.940227D+00         -0.026767         -0.061634
 Vib (Bot)    9  0.837384D+00         -0.077075         -0.177473
 Vib (Bot)   10  0.729627D+00         -0.136899         -0.315222
 Vib (Bot)   11  0.673607D+00         -0.171594         -0.395109
 Vib (Bot)   12  0.651730D+00         -0.185932         -0.428125
 Vib (Bot)   13  0.628453D+00         -0.201727         -0.464495
 Vib (Bot)   14  0.570873D+00         -0.243461         -0.560589
 Vib (Bot)   15  0.450844D+00         -0.345974         -0.796634
 Vib (Bot)   16  0.439296D+00         -0.357243         -0.822582
 Vib (Bot)   17  0.399896D+00         -0.398053         -0.916550
 Vib (Bot)   18  0.385240D+00         -0.414269         -0.953890
 Vib (Bot)   19  0.356286D+00         -0.448201         -1.032020
 Vib (Bot)   20  0.286883D+00         -0.542295         -1.248680
 Vib (Bot)   21  0.281659D+00         -0.550277         -1.267059
 Vib (V=0)       0.948107D+05          4.976857         11.459637
 Vib (V=0)    1  0.870119D+01          0.939579          2.163460
 Vib (V=0)    2  0.567100D+01          0.753660          1.735366
 Vib (V=0)    3  0.340651D+01          0.532310          1.225690
 Vib (V=0)    4  0.263462D+01          0.420718          0.968739
 Vib (V=0)    5  0.236276D+01          0.373419          0.859829
 Vib (V=0)    6  0.200141D+01          0.301336          0.693851
 Vib (V=0)    7  0.166803D+01          0.222205          0.511645
 Vib (V=0)    8  0.156491D+01          0.194489          0.447827
 Vib (V=0)    9  0.147530D+01          0.168881          0.388862
 Vib (V=0)   10  0.138451D+01          0.141296          0.325345
 Vib (V=0)   11  0.133890D+01          0.126747          0.291845
 Vib (V=0)   12  0.132143D+01          0.121045          0.278717
 Vib (V=0)   13  0.130309D+01          0.114974          0.264738
 Vib (V=0)   14  0.125888D+01          0.099984          0.230221
 Vib (V=0)   15  0.117325D+01          0.069389          0.159774
 Vib (V=0)   16  0.116557D+01          0.066538          0.153209
 Vib (V=0)   17  0.114025D+01          0.056999          0.131246
 Vib (V=0)   18  0.113120D+01          0.053538          0.123276
 Vib (V=0)   19  0.111395D+01          0.046867          0.107916
 Vib (V=0)   20  0.107646D+01          0.031996          0.073675
 Vib (V=0)   21  0.107387D+01          0.030953          0.071273
 Electronic      0.100000D+01          0.000000          0.000000
 Translational   0.752158D+08          7.876309         18.135872
 Rotational      0.140170D+07          6.146656         14.153199
 
                                                               Linalool
                                                             IR Spectrum
 
     3          33333333333333333                                 11111111111111111111111111111111                                   
     7          21111111000000000                                 77554444444444333332221111100000999998 8 777  55444433322222111    
     8          24221100855541100                                 30009998775221986319525431053331765416 1 631  547430920986319419742
     1          15667221831068682                                 26746526936322377422197886639408839816 3 792  582644682355510349205
 
     X          XXXXXXXXXXXXXXXXX                                 XXXXXXXXXXXXXXXXXXXXXXXXXXXXXXXXXXXXXX X XXX  XXXXXXXXXXXXXXXXXXXX 
     X          XXXXXXXXXX XXXXXX                                  X    X   XX XXXX X XXXXXX  XXX X XXXX     X  X  X X  XXXXX        
     X          X XXXXXXXX XXXXXX                                       X   XX X XX X XXXXX    XX X XXXX        X       X XXX        
     X            XXXXX  X X XXX                                        X   XX   XX X XXXXX     X X X XX                X XXX        
     X            X XXX  X X XXX                                             X   X  X  XXX          X X                   X X        
                  X XXX  X X XXX                                             X         XXX          X X                   X X        
                  X XX   X X XXX                                             X         XXX          X X                   X X        
                  X  X   X X XXX                                             X         XXX          X X                   X X        
                  X  X   X X XXX                                                       X X          X X                   X X        
                  X  X     X  X                                                        X X          X X                   X X        
                  X  X     X  X                                                          X          X X                   X X        
                     X        X                                                          X          X                       X        
                     X        X                                                          X          X                       X        
                              X                                                          X                                  X        
                              X                                                          X                                  X        
                              X                                                          X                                  X        
                              X                                                                                             X        
                              X                                                                                                      
                              X                                                                                                      
                              X                                                                                                      
 
 
                                                               Linalool
                                                            Raman Spectrum
 
     3          33333333333333333                                 11111111111111111111111111111111                                   
     7          21111111000000000                                 77554444444444333332221111100000999998 8 777  55444433322222111    
     8          24221100855541100                                 30009998775221986319525431053331765416 1 631  547430920986319419742
     1          15667221831068682                                 26746526936322377422197886639408839816 3 792  582644682355510349205
 
     X          XXXXXXXXXXXXXXXXX                                 XXXXXXXXXXXXXXXXXXXXXXXXXXXXXXXXXXXXXX X XXX  XXXXXXXXXXXXXXXXXXXXX
     X          XXXXXXXXXXXXXXXXX                                 XX  X                                                              
     X          XXX XXXX XXXXXXXX                                 X                                                                  
     X          XXX XXX  X X XXXX                                 X                                                                  
     X           X  XX   X X XXXX                                 X                                                                  
                 X   X   X X XXXX                                                                                                    
                 X       X X  XXX                                                                                                    
                 X       X X  X                                                                                                      
                         X X  X                                                                                                      
                         X X  X                                                                                                      
                         X    X                                                                                                      
                         X    X                                                                                                      
                         X    X                                                                                                      
                              X                                                                                                      
                              X                                                                                                      
                              X                                                                                                      
                              X                                                                                                      
                              X                                                                                                      
                              X                                                                                                      
                              X                                                                                                      
 
 ***** Axes restored to original set *****
 -------------------------------------------------------------------
 Center     Atomic                   Forces (Hartrees/Bohr)
 Number     Number              X              Y              Z
 -------------------------------------------------------------------
      1        8          -0.000004492    0.000003931    0.000004353
      2        6           0.000012932   -0.000003674   -0.000007717
      3        6          -0.000010359    0.000003213    0.000005258
      4        6           0.000004429   -0.000005440   -0.000009571
      5        6           0.000000797   -0.000000489    0.000002664
      6        6          -0.000002453   -0.000001118    0.000002806
      7        6          -0.000002716    0.000002226    0.000002124
      8        6          -0.000000416   -0.000001470    0.000005850
      9        6           0.000005403   -0.000003266   -0.000001048
     10        6           0.000001485    0.000004422   -0.000000669
     11        6          -0.000001733    0.000001776   -0.000000514
     12        1           0.000001179    0.000000436   -0.000000183
     13        1           0.000001415   -0.000000096   -0.000001225
     14        1          -0.000000739    0.000000463    0.000001427
     15        1          -0.000002133    0.000002021    0.000002089
     16        1           0.000000599    0.000002064   -0.000001119
     17        1           0.000000325    0.000001416    0.000000825
     18        1          -0.000000371    0.000001805   -0.000000024
     19        1           0.000000249    0.000000299   -0.000001283
     20        1           0.000002175   -0.000000788   -0.000000125
     21        1           0.000000691   -0.000000078   -0.000000445
     22        1          -0.000002280   -0.000001439   -0.000001191
     23        1          -0.000000270    0.000000103   -0.000000274
     24        1          -0.000000326   -0.000000340    0.000000225
     25        1          -0.000001371   -0.000002115   -0.000000653
     26        1          -0.000001047   -0.000002220   -0.000000317
     27        1          -0.000001111   -0.000002010   -0.000000476
     28        1          -0.000000323    0.000000234   -0.000000838
     29        1           0.000000462    0.000000133    0.000000055
 -------------------------------------------------------------------
 Cartesian Forces:  Max     0.000012932 RMS     0.000003026
 FormGI is forming the generalized inverse of G from B-inverse, IUseBI=4.
 Leave Link  716 at Sat May  4 11:03:07 2024, MaxMem= 13421772800 cpu:               1.9 elap:               0.1
 (Enter /tmpu/scunam/7/gaussian-2016.03/g1/g16/l103.exe)

 GradGradGradGradGradGradGradGradGradGradGradGradGradGradGradGradGradGrad
 Berny optimization.
 Red2BG is reusing G-inverse.
 Internal  Forces:  Max     0.000006273 RMS     0.000001305
 Search for a local minimum.
 Step number   1 out of a maximum of    2
 All quantities printed in internal units (Hartrees-Bohrs-Radians)
 Second derivative matrix not updated -- analytic derivatives used.
 ITU=  0
     Eigenvalues ---    0.00105   0.00141   0.00192   0.00203   0.00236
     Eigenvalues ---    0.00269   0.00296   0.00463   0.01449   0.01852
     Eigenvalues ---    0.01939   0.02712   0.03087   0.03517   0.03792
     Eigenvalues ---    0.04006   0.04164   0.04345   0.04475   0.04564
     Eigenvalues ---    0.04594   0.05577   0.05669   0.05816   0.05959
     Eigenvalues ---    0.06491   0.07262   0.07756   0.07930   0.10086
     Eigenvalues ---    0.10529   0.11271   0.11861   0.12031   0.12233
     Eigenvalues ---    0.12342   0.13151   0.13321   0.13576   0.13942
     Eigenvalues ---    0.14102   0.14234   0.14325   0.14449   0.15899
     Eigenvalues ---    0.17047   0.17477   0.17857   0.18210   0.18701
     Eigenvalues ---    0.21080   0.21859   0.25169   0.25597   0.27713
     Eigenvalues ---    0.27983   0.28163   0.30799   0.31286   0.31974
     Eigenvalues ---    0.32158   0.32341   0.32451   0.32885   0.33207
     Eigenvalues ---    0.33406   0.33739   0.33766   0.34026   0.34173
     Eigenvalues ---    0.34277   0.34370   0.34617   0.34753   0.35213
     Eigenvalues ---    0.35776   0.36263   0.36392   0.51477   0.61997
     Eigenvalues ---    0.62866
 Angle between quadratic step and forces=  73.38 degrees.
 Linear search not attempted -- first point.
 Iteration  1 RMS(Cart)=  0.00022909 RMS(Int)=  0.00000001
 Iteration  2 RMS(Cart)=  0.00000002 RMS(Int)=  0.00000000
 ITry= 1 IFail=0 DXMaxC= 7.56D-04 DCOld= 1.00D+10 DXMaxT= 3.00D-01 DXLimC= 3.00D+00 Rises=F
 Variable       Old X    -DE/DX   Delta X   Delta X   Delta X     New X
                                 (Linear)    (Quad)   (Total)
    R1        2.73210  -0.00001   0.00000  -0.00004  -0.00004   2.73206
    R2        1.82290   0.00000   0.00000   0.00000   0.00000   1.82290
    R3        2.91822   0.00001   0.00000   0.00004   0.00004   2.91826
    R4        2.87769   0.00000   0.00000   0.00001   0.00001   2.87770
    R5        2.85994  -0.00000   0.00000  -0.00001  -0.00001   2.85993
    R6        2.90429  -0.00000   0.00000  -0.00003  -0.00003   2.90426
    R7        2.07199   0.00000   0.00000   0.00000   0.00000   2.07199
    R8        2.06683   0.00000   0.00000   0.00000   0.00000   2.06683
    R9        2.83718  -0.00000   0.00000   0.00000   0.00000   2.83718
   R10        2.05964   0.00000   0.00000   0.00000   0.00000   2.05964
   R11        2.06990   0.00000   0.00000   0.00000   0.00000   2.06991
   R12        2.06061  -0.00000   0.00000  -0.00000  -0.00000   2.06061
   R13        2.05929   0.00000   0.00000   0.00000   0.00000   2.05929
   R14        2.05829   0.00000   0.00000   0.00000   0.00000   2.05829
   R15        2.50565  -0.00000   0.00000  -0.00000  -0.00000   2.50565
   R16        2.05872   0.00000   0.00000   0.00000   0.00000   2.05873
   R17        2.52433  -0.00000   0.00000  -0.00001  -0.00001   2.52432
   R18        2.05682   0.00000   0.00000   0.00000   0.00000   2.05682
   R19        2.84575  -0.00000   0.00000  -0.00001  -0.00001   2.84575
   R20        2.84309   0.00000   0.00000   0.00001   0.00001   2.84309
   R21        2.06928   0.00000   0.00000   0.00001   0.00001   2.06929
   R22        2.06934   0.00000   0.00000   0.00000   0.00000   2.06934
   R23        2.06003  -0.00000   0.00000  -0.00000  -0.00000   2.06003
   R24        2.06906  -0.00000   0.00000  -0.00000  -0.00000   2.06906
   R25        2.05573  -0.00000   0.00000  -0.00000  -0.00000   2.05572
   R26        2.06881   0.00000   0.00000   0.00000   0.00000   2.06881
   R27        2.04617  -0.00000   0.00000  -0.00000  -0.00000   2.04617
   R28        2.04582   0.00000   0.00000   0.00000   0.00000   2.04582
    A1        1.89549   0.00000   0.00000   0.00002   0.00002   1.89551
    A2        1.88358  -0.00000   0.00000  -0.00000  -0.00000   1.88357
    A3        1.82194   0.00000   0.00000   0.00002   0.00002   1.82196
    A4        1.88391   0.00000   0.00000   0.00002   0.00002   1.88393
    A5        1.95857  -0.00000   0.00000  -0.00001  -0.00001   1.95856
    A6        1.92308  -0.00000   0.00000  -0.00002  -0.00002   1.92306
    A7        1.98587  -0.00000   0.00000  -0.00001  -0.00001   1.98586
    A8        2.03272   0.00000   0.00000   0.00003   0.00003   2.03276
    A9        1.88437  -0.00000   0.00000  -0.00002  -0.00002   1.88435
   A10        1.86995  -0.00000   0.00000  -0.00002  -0.00002   1.86993
   A11        1.89388  -0.00000   0.00000   0.00000   0.00000   1.89388
   A12        1.91812   0.00000   0.00000   0.00002   0.00002   1.91813
   A13        1.85695   0.00000   0.00000  -0.00001  -0.00001   1.85694
   A14        1.95396   0.00000   0.00000   0.00000   0.00000   1.95396
   A15        1.91335   0.00000   0.00000   0.00002   0.00002   1.91336
   A16        1.89966   0.00000   0.00000   0.00003   0.00003   1.89969
   A17        1.94446   0.00000   0.00000   0.00000   0.00000   1.94446
   A18        1.89395  -0.00000   0.00000  -0.00003  -0.00003   1.89392
   A19        1.85522  -0.00000   0.00000  -0.00003  -0.00003   1.85519
   A20        1.90954  -0.00000   0.00000  -0.00001  -0.00001   1.90953
   A21        1.92069   0.00000   0.00000   0.00001   0.00001   1.92070
   A22        1.95224  -0.00000   0.00000  -0.00001  -0.00001   1.95223
   A23        1.88799   0.00000   0.00000   0.00000   0.00000   1.88800
   A24        1.89451   0.00000   0.00000   0.00001   0.00001   1.89452
   A25        1.89758  -0.00000   0.00000  -0.00000  -0.00000   1.89758
   A26        2.23366  -0.00000   0.00000   0.00000   0.00000   2.23366
   A27        1.98171   0.00000   0.00000   0.00000   0.00000   1.98171
   A28        2.06780   0.00000   0.00000  -0.00000  -0.00000   2.06780
   A29        2.24559   0.00000   0.00000   0.00002   0.00002   2.24561
   A30        1.99597  -0.00000   0.00000  -0.00003  -0.00003   1.99595
   A31        2.04158   0.00000   0.00000   0.00001   0.00001   2.04159
   A32        2.10801  -0.00000   0.00000  -0.00000  -0.00000   2.10801
   A33        2.18060   0.00000   0.00000   0.00000   0.00000   2.18060
   A34        1.99456  -0.00000   0.00000   0.00000   0.00000   1.99456
   A35        1.93737   0.00000   0.00000   0.00001   0.00001   1.93738
   A36        1.93693  -0.00000   0.00000  -0.00000  -0.00000   1.93693
   A37        1.95191   0.00000   0.00000   0.00001   0.00001   1.95192
   A38        1.85790  -0.00000   0.00000  -0.00002  -0.00002   1.85789
   A39        1.88843  -0.00000   0.00000  -0.00001  -0.00001   1.88842
   A40        1.88782   0.00000   0.00000   0.00000   0.00000   1.88782
   A41        1.92849  -0.00000   0.00000  -0.00001  -0.00001   1.92848
   A42        1.97942  -0.00000   0.00000  -0.00001  -0.00001   1.97941
   A43        1.92750  -0.00000   0.00000  -0.00001  -0.00001   1.92749
   A44        1.88313   0.00000   0.00000   0.00002   0.00002   1.88315
   A45        1.85602   0.00000   0.00000   0.00000   0.00000   1.85602
   A46        1.88437   0.00000   0.00000   0.00001   0.00001   1.88438
   A47        2.11312  -0.00000   0.00000  -0.00000  -0.00000   2.11312
   A48        2.13742  -0.00000   0.00000  -0.00000  -0.00000   2.13742
   A49        2.03264   0.00000   0.00000   0.00000   0.00000   2.03264
    D1        1.00320  -0.00000   0.00000   0.00005   0.00005   1.00325
    D2        3.08982   0.00000   0.00000   0.00005   0.00005   3.08987
    D3       -1.07495   0.00000   0.00000   0.00006   0.00006  -1.07489
    D4        3.09179   0.00000   0.00000   0.00002   0.00002   3.09181
    D5       -1.05694   0.00000   0.00000   0.00003   0.00003  -1.05692
    D6        0.93689  -0.00000   0.00000  -0.00001  -0.00001   0.93689
    D7        1.09390  -0.00000   0.00000   0.00001   0.00001   1.09391
    D8       -3.05483  -0.00000   0.00000   0.00001   0.00001  -3.05482
    D9       -1.06100  -0.00000   0.00000  -0.00002  -0.00002  -1.06102
   D10       -1.13833   0.00000   0.00000   0.00004   0.00004  -1.13829
   D11        0.99612   0.00000   0.00000   0.00005   0.00005   0.99617
   D12        2.98996  -0.00000   0.00000   0.00001   0.00001   2.98997
   D13       -1.07291   0.00000   0.00000   0.00007   0.00007  -1.07284
   D14        0.99921   0.00000   0.00000   0.00007   0.00007   0.99929
   D15        3.11046   0.00000   0.00000   0.00007   0.00007   3.11053
   D16        0.96235   0.00000   0.00000   0.00007   0.00007   0.96242
   D17        3.03447   0.00000   0.00000   0.00008   0.00008   3.03455
   D18       -1.13747   0.00000   0.00000   0.00007   0.00007  -1.13739
   D19       -3.12234  -0.00000   0.00000   0.00003   0.00003  -3.12230
   D20       -1.05021  -0.00000   0.00000   0.00004   0.00004  -1.05017
   D21        1.06104  -0.00000   0.00000   0.00004   0.00004   1.06107
   D22       -2.13313  -0.00000   0.00000  -0.00004  -0.00004  -2.13317
   D23        1.00258  -0.00000   0.00000  -0.00005  -0.00005   1.00253
   D24        2.09719  -0.00000   0.00000  -0.00004  -0.00004   2.09715
   D25       -1.05028  -0.00000   0.00000  -0.00005  -0.00005  -1.05033
   D26       -0.11991   0.00000   0.00000  -0.00001  -0.00001  -0.11992
   D27        3.01580   0.00000   0.00000  -0.00002  -0.00002   3.01578
   D28       -3.14004   0.00000   0.00000   0.00025   0.00025  -3.13979
   D29        0.97605   0.00000   0.00000   0.00024   0.00024   0.97628
   D30       -1.04643   0.00000   0.00000   0.00024   0.00024  -1.04618
   D31        1.01367   0.00000   0.00000   0.00026   0.00026   1.01393
   D32       -1.15342   0.00000   0.00000   0.00024   0.00024  -1.15318
   D33        3.10729  -0.00000   0.00000   0.00025   0.00025   3.10754
   D34       -1.01024   0.00000   0.00000   0.00026   0.00026  -1.00997
   D35        3.10585   0.00000   0.00000   0.00025   0.00025   3.10610
   D36        1.08338  -0.00000   0.00000   0.00025   0.00025   1.08363
   D37       -2.05851   0.00000   0.00000   0.00000   0.00000  -2.05850
   D38        1.07371  -0.00000   0.00000  -0.00003  -0.00003   1.07368
   D39        0.09111   0.00000   0.00000   0.00003   0.00003   0.09114
   D40       -3.05986   0.00000   0.00000  -0.00001  -0.00001  -3.05986
   D41        2.12772  -0.00000   0.00000  -0.00002  -0.00002   2.12770
   D42       -1.02324  -0.00000   0.00000  -0.00005  -0.00005  -1.02330
   D43        3.12831  -0.00000   0.00000  -0.00001  -0.00001   3.12831
   D44       -0.00894   0.00000   0.00000   0.00002   0.00002  -0.00893
   D45       -0.00715  -0.00000   0.00000   0.00000   0.00000  -0.00714
   D46        3.13878   0.00000   0.00000   0.00003   0.00003   3.13881
   D47        3.13899  -0.00000   0.00000  -0.00007  -0.00007   3.13892
   D48       -0.00726  -0.00000   0.00000   0.00001   0.00001  -0.00725
   D49        0.00698  -0.00000   0.00000  -0.00003  -0.00003   0.00695
   D50       -3.13927   0.00000   0.00000   0.00004   0.00004  -3.13923
   D51       -2.11293   0.00000   0.00000   0.00015   0.00015  -2.11277
   D52        2.10782   0.00000   0.00000   0.00017   0.00017   2.10799
   D53       -0.00201   0.00000   0.00000   0.00016   0.00016  -0.00185
   D54        1.03285  -0.00000   0.00000   0.00009   0.00009   1.03294
   D55       -1.02958   0.00000   0.00000   0.00010   0.00010  -1.02948
   D56       -3.13942   0.00000   0.00000   0.00010   0.00010  -3.13932
   D57       -2.08672  -0.00000   0.00000  -0.00012  -0.00012  -2.08683
   D58        0.03013  -0.00000   0.00000  -0.00011  -0.00011   0.03002
   D59        2.14785  -0.00000   0.00000  -0.00011  -0.00011   2.14775
   D60        1.05048  -0.00000   0.00000  -0.00005  -0.00005   1.05044
   D61       -3.11586   0.00000   0.00000  -0.00004  -0.00004  -3.11589
   D62       -0.99813   0.00000   0.00000  -0.00004  -0.00004  -0.99817
         Item               Value     Threshold  Converged?
 Maximum Force            0.000006     0.000450     YES
 RMS     Force            0.000001     0.000300     YES
 Maximum Displacement     0.000756     0.001800     YES
 RMS     Displacement     0.000229     0.001200     YES
 Predicted change in Energy=-1.955434D-09
 Optimization completed.
    -- Stationary point found.
                           ----------------------------
                           !   Optimized Parameters   !
                           ! (Angstroms and Degrees)  !
 --------------------------                            --------------------------
 ! Name  Definition              Value          Derivative Info.                !
 --------------------------------------------------------------------------------
 ! R1    R(1,2)                  1.4458         -DE/DX =    0.0                 !
 ! R2    R(1,21)                 0.9646         -DE/DX =    0.0                 !
 ! R3    R(2,3)                  1.5443         -DE/DX =    0.0                 !
 ! R4    R(2,5)                  1.5228         -DE/DX =    0.0                 !
 ! R5    R(2,6)                  1.5134         -DE/DX =    0.0                 !
 ! R6    R(3,4)                  1.5369         -DE/DX =    0.0                 !
 ! R7    R(3,12)                 1.0964         -DE/DX =    0.0                 !
 ! R8    R(3,13)                 1.0937         -DE/DX =    0.0                 !
 ! R9    R(4,7)                  1.5014         -DE/DX =    0.0                 !
 ! R10   R(4,14)                 1.0899         -DE/DX =    0.0                 !
 ! R11   R(4,15)                 1.0953         -DE/DX =    0.0                 !
 ! R12   R(5,16)                 1.0904         -DE/DX =    0.0                 !
 ! R13   R(5,17)                 1.0897         -DE/DX =    0.0                 !
 ! R14   R(5,18)                 1.0892         -DE/DX =    0.0                 !
 ! R15   R(6,11)                 1.3259         -DE/DX =    0.0                 !
 ! R16   R(6,19)                 1.0894         -DE/DX =    0.0                 !
 ! R17   R(7,8)                  1.3358         -DE/DX =    0.0                 !
 ! R18   R(7,20)                 1.0884         -DE/DX =    0.0                 !
 ! R19   R(8,9)                  1.5059         -DE/DX =    0.0                 !
 ! R20   R(8,10)                 1.5045         -DE/DX =    0.0                 !
 ! R21   R(9,22)                 1.095          -DE/DX =    0.0                 !
 ! R22   R(9,23)                 1.095          -DE/DX =    0.0                 !
 ! R23   R(9,24)                 1.0901         -DE/DX =    0.0                 !
 ! R24   R(10,25)                1.0949         -DE/DX =    0.0                 !
 ! R25   R(10,26)                1.0878         -DE/DX =    0.0                 !
 ! R26   R(10,27)                1.0948         -DE/DX =    0.0                 !
 ! R27   R(11,28)                1.0828         -DE/DX =    0.0                 !
 ! R28   R(11,29)                1.0826         -DE/DX =    0.0                 !
 ! A1    A(2,1,21)             108.6036         -DE/DX =    0.0                 !
 ! A2    A(1,2,3)              107.9209         -DE/DX =    0.0                 !
 ! A3    A(1,2,5)              104.3898         -DE/DX =    0.0                 !
 ! A4    A(1,2,6)              107.9398         -DE/DX =    0.0                 !
 ! A5    A(3,2,5)              112.2176         -DE/DX =    0.0                 !
 ! A6    A(3,2,6)              110.1843         -DE/DX =    0.0                 !
 ! A7    A(5,2,6)              113.7817         -DE/DX =    0.0                 !
 ! A8    A(2,3,4)              116.4665         -DE/DX =    0.0                 !
 ! A9    A(2,3,12)             107.9664         -DE/DX =    0.0                 !
 ! A10   A(2,3,13)             107.1405         -DE/DX =    0.0                 !
 ! A11   A(4,3,12)             108.5113         -DE/DX =    0.0                 !
 ! A12   A(4,3,13)             109.9001         -DE/DX =    0.0                 !
 ! A13   A(12,3,13)            106.3952         -DE/DX =    0.0                 !
 ! A14   A(3,4,7)              111.9536         -DE/DX =    0.0                 !
 ! A15   A(3,4,14)             109.6268         -DE/DX =    0.0                 !
 ! A16   A(3,4,15)             108.8424         -DE/DX =    0.0                 !
 ! A17   A(7,4,14)             111.4092         -DE/DX =    0.0                 !
 ! A18   A(7,4,15)             108.5152         -DE/DX =    0.0                 !
 ! A19   A(14,4,15)            106.2961         -DE/DX =    0.0                 !
 ! A20   A(2,5,16)             109.4086         -DE/DX =    0.0                 !
 ! A21   A(2,5,17)             110.0475         -DE/DX =    0.0                 !
 ! A22   A(2,5,18)             111.8551         -DE/DX =    0.0                 !
 ! A23   A(16,5,17)            108.1739         -DE/DX =    0.0                 !
 ! A24   A(16,5,18)            108.5474         -DE/DX =    0.0                 !
 ! A25   A(17,5,18)            108.7233         -DE/DX =    0.0                 !
 ! A26   A(2,6,11)             127.9794         -DE/DX =    0.0                 !
 ! A27   A(2,6,19)             113.5434         -DE/DX =    0.0                 !
 ! A28   A(11,6,19)            118.4764         -DE/DX =    0.0                 !
 ! A29   A(4,7,8)              128.6631         -DE/DX =    0.0                 !
 ! A30   A(4,7,20)             114.3609         -DE/DX =    0.0                 !
 ! A31   A(8,7,20)             116.974          -DE/DX =    0.0                 !
 ! A32   A(7,8,9)              120.7803         -DE/DX =    0.0                 !
 ! A33   A(7,8,10)             124.9391         -DE/DX =    0.0                 !
 ! A34   A(9,8,10)             114.2801         -DE/DX =    0.0                 !
 ! A35   A(8,9,22)             111.0029         -DE/DX =    0.0                 !
 ! A36   A(8,9,23)             110.9779         -DE/DX =    0.0                 !
 ! A37   A(8,9,24)             111.8361         -DE/DX =    0.0                 !
 ! A38   A(22,9,23)            106.4501         -DE/DX =    0.0                 !
 ! A39   A(22,9,24)            108.1989         -DE/DX =    0.0                 !
 ! A40   A(23,9,24)            108.1641         -DE/DX =    0.0                 !
 ! A41   A(8,10,25)            110.4942         -DE/DX =    0.0                 !
 ! A42   A(8,10,26)            113.4126         -DE/DX =    0.0                 !
 ! A43   A(8,10,27)            110.4377         -DE/DX =    0.0                 !
 ! A44   A(25,10,26)           107.8953         -DE/DX =    0.0                 !
 ! A45   A(25,10,27)           106.342          -DE/DX =    0.0                 !
 ! A46   A(26,10,27)           107.9662         -DE/DX =    0.0                 !
 ! A47   A(6,11,28)            121.0729         -DE/DX =    0.0                 !
 ! A48   A(6,11,29)            122.4652         -DE/DX =    0.0                 !
 ! A49   A(28,11,29)           116.4615         -DE/DX =    0.0                 !
 ! D1    D(21,1,2,3)            57.4792         -DE/DX =    0.0                 !
 ! D2    D(21,1,2,5)           177.0336         -DE/DX =    0.0                 !
 ! D3    D(21,1,2,6)           -61.5902         -DE/DX =    0.0                 !
 ! D4    D(1,2,3,4)            177.1464         -DE/DX =    0.0                 !
 ! D5    D(1,2,3,12)           -60.5584         -DE/DX =    0.0                 !
 ! D6    D(1,2,3,13)            53.6799         -DE/DX =    0.0                 !
 ! D7    D(5,2,3,4)             62.6757         -DE/DX =    0.0                 !
 ! D8    D(5,2,3,12)          -175.029          -DE/DX =    0.0                 !
 ! D9    D(5,2,3,13)           -60.7907         -DE/DX =    0.0                 !
 ! D10   D(6,2,3,4)            -65.2216         -DE/DX =    0.0                 !
 ! D11   D(6,2,3,12)            57.0736         -DE/DX =    0.0                 !
 ! D12   D(6,2,3,13)           171.3119         -DE/DX =    0.0                 !
 ! D13   D(1,2,5,16)           -61.4733         -DE/DX =    0.0                 !
 ! D14   D(1,2,5,17)            57.2507         -DE/DX =    0.0                 !
 ! D15   D(1,2,5,18)           178.2163         -DE/DX =    0.0                 !
 ! D16   D(3,2,5,16)            55.1384         -DE/DX =    0.0                 !
 ! D17   D(3,2,5,17)           173.8624         -DE/DX =    0.0                 !
 ! D18   D(3,2,5,18)           -65.172          -DE/DX =    0.0                 !
 ! D19   D(6,2,5,16)          -178.8967         -DE/DX =    0.0                 !
 ! D20   D(6,2,5,17)           -60.1727         -DE/DX =    0.0                 !
 ! D21   D(6,2,5,18)            60.7929         -DE/DX =    0.0                 !
 ! D22   D(1,2,6,11)          -122.2193         -DE/DX =    0.0                 !
 ! D23   D(1,2,6,19)            57.4437         -DE/DX =    0.0                 !
 ! D24   D(3,2,6,11)           120.1604         -DE/DX =    0.0                 !
 ! D25   D(3,2,6,19)           -60.1766         -DE/DX =    0.0                 !
 ! D26   D(5,2,6,11)            -6.8706         -DE/DX =    0.0                 !
 ! D27   D(5,2,6,19)           172.7924         -DE/DX =    0.0                 !
 ! D28   D(2,3,4,7)           -179.9112         -DE/DX =    0.0                 !
 ! D29   D(2,3,4,14)            55.9233         -DE/DX =    0.0                 !
 ! D30   D(2,3,4,15)           -59.9558         -DE/DX =    0.0                 !
 ! D31   D(12,3,4,7)            58.0793         -DE/DX =    0.0                 !
 ! D32   D(12,3,4,14)          -66.0862         -DE/DX =    0.0                 !
 ! D33   D(12,3,4,15)          178.0347         -DE/DX =    0.0                 !
 ! D34   D(13,3,4,7)           -57.8822         -DE/DX =    0.0                 !
 ! D35   D(13,3,4,14)          177.9523         -DE/DX =    0.0                 !
 ! D36   D(13,3,4,15)           62.0732         -DE/DX =    0.0                 !
 ! D37   D(3,4,7,8)           -117.9439         -DE/DX =    0.0                 !
 ! D38   D(3,4,7,20)            61.5192         -DE/DX =    0.0                 !
 ! D39   D(14,4,7,8)             5.22           -DE/DX =    0.0                 !
 ! D40   D(14,4,7,20)         -175.3169         -DE/DX =    0.0                 !
 ! D41   D(15,4,7,8)           121.9095         -DE/DX =    0.0                 !
 ! D42   D(15,4,7,20)          -58.6274         -DE/DX =    0.0                 !
 ! D43   D(2,6,11,28)          179.239          -DE/DX =    0.0                 !
 ! D44   D(2,6,11,29)           -0.5124         -DE/DX =    0.0                 !
 ! D45   D(19,6,11,28)          -0.4095         -DE/DX =    0.0                 !
 ! D46   D(19,6,11,29)         179.839          -DE/DX =    0.0                 !
 ! D47   D(4,7,8,9)            179.851          -DE/DX =    0.0                 !
 ! D48   D(4,7,8,10)            -0.416          -DE/DX =    0.0                 !
 ! D49   D(20,7,8,9)             0.3998         -DE/DX =    0.0                 !
 ! D50   D(20,7,8,10)         -179.8671         -DE/DX =    0.0                 !
 ! D51   D(7,8,9,22)          -121.0619         -DE/DX =    0.0                 !
 ! D52   D(7,8,9,23)           120.7694         -DE/DX =    0.0                 !
 ! D53   D(7,8,9,24)            -0.1153         -DE/DX =    0.0                 !
 ! D54   D(10,8,9,22)           59.1781         -DE/DX =    0.0                 !
 ! D55   D(10,8,9,23)          -58.9905         -DE/DX =    0.0                 !
 ! D56   D(10,8,9,24)         -179.8753         -DE/DX =    0.0                 !
 ! D57   D(7,8,10,25)         -119.5601         -DE/DX =    0.0                 !
 ! D58   D(7,8,10,26)            1.7262         -DE/DX =    0.0                 !
 ! D59   D(7,8,10,27)          123.0629         -DE/DX =    0.0                 !
 ! D60   D(9,8,10,25)           60.1883         -DE/DX =    0.0                 !
 ! D61   D(9,8,10,26)         -178.5254         -DE/DX =    0.0                 !
 ! D62   D(9,8,10,27)          -57.1887         -DE/DX =    0.0                 !
 --------------------------------------------------------------------------------
 GradGradGradGradGradGradGradGradGradGradGradGradGradGradGradGradGradGrad

 Leave Link  103 at Sat May  4 11:03:07 2024, MaxMem= 13421772800 cpu:               7.4 elap:               0.3
 (Enter /tmpu/scunam/7/gaussian-2016.03/g1/g16/l9999.exe)

 ----------------------------------------------------------------------

 Electric dipole moment (input orientation):
 (Debye = 10**-18 statcoulomb cm , SI units = C m)
                  (au)            (Debye)         (10**-30 SI)
   Tot        0.685524D+00      0.174243D+01      0.581211D+01
   x         -0.531473D+00     -0.135087D+01     -0.450602D+01
   y          0.423106D+00      0.107543D+01      0.358724D+01
   z         -0.919826D-01     -0.233796D+00     -0.779861D+00

 Dipole polarizability, Alpha (input orientation).
 (esu units = cm**3 , SI units = C**2 m**2 J**-1)
 Alpha(0;0):
               (au)            (10**-24 esu)      (10**-40 SI)
   iso        0.127447D+03      0.188857D+02      0.210132D+02
   aniso      0.416509D+02      0.617203D+01      0.686731D+01
   xx         0.150211D+03      0.222590D+02      0.247664D+02
   yx        -0.302171D+01     -0.447771D+00     -0.498212D+00
   yy         0.125509D+03      0.185985D+02      0.206936D+02
   zx         0.946777D+01      0.140298D+01      0.156102D+01
   zy         0.128709D+01      0.190727D+00      0.212213D+00
   zz         0.106621D+03      0.157996D+02      0.175794D+02

 First dipole hyperpolarizability, Beta (input orientation).
 ||, _|_  parallel and perpendicular components, (z) with respect to z axis,
 vector components x,y,z.  Values do not include the 1/n! factor of 1/2.
 (esu units = statvolt**-1 cm**4 , SI units = C**3 m**3 J**-2)
 Beta(0;0,0):
               (au)            (10**-30 esu)      (10**-50 SI)
   || (z)     0.806208D+01      0.696501D-01      0.258499D-01
   _|_(z)     0.268736D+01      0.232167D-01      0.861665D-02
   x         -0.641855D+03     -0.554513D+01     -0.205802D+01
   y          0.275272D+03      0.237814D+01      0.882621D+00
   z          0.403104D+02      0.348250D+00      0.129250D+00
   ||         0.139911D+03      0.120872D+01      0.448605D+00
   xxx       -0.150597D+03     -0.130104D+01     -0.482869D+00
   xxy        0.534133D+02      0.461449D+00      0.171262D+00
   yxy       -0.261964D+02     -0.226316D+00     -0.839950D-01
   yyy        0.325759D+01      0.281431D-01      0.104450D-01
   xxz        0.422318D+02      0.364850D+00      0.135410D+00
   yxz       -0.679163D+01     -0.586744D-01     -0.217764D-01
   yyz        0.359997D+02      0.311009D+00      0.115428D+00
   zxz       -0.371581D+02     -0.321017D+00     -0.119142D+00
   zyz        0.350864D+02      0.303119D+00      0.112500D+00
   zzz       -0.647947D+02     -0.559776D+00     -0.207755D+00

 ----------------------------------------------------------------------

 Dipole orientation:
     8          3.10256239          0.84787225         -5.23165303
     6          1.62673133         -0.66399709         -3.49944467
     6          0.30205663          1.14569477         -1.63228491
     6         -1.48016769         -0.07472279          0.30915406
     6         -0.24808611         -2.05453597         -5.18247098
     6          3.41829634         -2.39418908         -2.09374549
     6         -2.66459420          1.85337014          2.02063442
     6         -2.44988895          2.08255567          4.52534852
     6         -3.79449346          4.16881696          5.91742176
     6         -0.92019153          0.36121714          6.19272882
     6          3.37679673         -4.89710822         -1.98446187
     1          1.76771159          2.19546445         -0.61102157
     1         -0.73178124          2.53508688         -2.76036091
     1         -0.45890235         -1.50591038          1.38192266
     1         -2.98727566         -1.07130599         -0.70076825
     1         -1.44235040         -0.68511638         -6.15434893
     1          0.75892411         -3.15202310         -6.60449205
     1         -1.45428215         -3.32365853         -4.10036082
     1          4.90265395         -1.39182008         -1.07872101
     1         -3.83474181          3.24128208          1.05369235
     1          4.27989253          1.85271675         -4.26877314
     1         -2.45016823          5.36576519          6.93821839
     1         -5.08831926          3.39838859          7.33679796
     1         -4.88096689          5.36579541          4.64049683
     1         -2.13556185         -0.56235344          7.58948068
     1          0.07778056         -1.10620638          5.15506832
     1          0.47681445          1.44751656          7.26432043
     1          4.78838789         -5.93145330         -0.92410001
     1          1.95546225         -6.01470129         -2.94162865

 Electric dipole moment (dipole orientation):
 (Debye = 10**-18 statcoulomb cm , SI units = C m)
                  (au)            (Debye)         (10**-30 SI)
   Tot        0.685524D+00      0.174243D+01      0.581211D+01
   x          0.000000D+00      0.000000D+00      0.000000D+00
   y          0.000000D+00      0.000000D+00      0.000000D+00
   z          0.685524D+00      0.174243D+01      0.581211D+01

 Dipole polarizability, Alpha (dipole orientation).
 (esu units = cm**3 , SI units = C**2 m**2 J**-1)
 Alpha(0;0):
               (au)            (10**-24 esu)      (10**-40 SI)
   iso        0.127447D+03      0.188857D+02      0.210132D+02
   aniso      0.416509D+02      0.617203D+01      0.686731D+01
   xx         0.110673D+03      0.164000D+02      0.182475D+02
   yx        -0.117779D+02     -0.174530D+01     -0.194191D+01
   yy         0.127003D+03      0.188199D+02      0.209400D+02
   zx        -0.645025D+01     -0.955828D+00     -0.106350D+01
   zy         0.104373D+02      0.154664D+01      0.172087D+01
   zz         0.144665D+03      0.214371D+02      0.238520D+02

 First dipole hyperpolarizability, Beta (dipole orientation).
 ||, _|_  parallel and perpendicular components, (z) with respect to z axis,
 vector components x,y,z.  Values do not include the 1/n! factor of 1/2.
 (esu units = statvolt**-1 cm**4 , SI units = C**3 m**3 J**-2)
 Beta(0;0,0):
               (au)            (10**-30 esu)      (10**-50 SI)
   || (z)     0.132421D+03      0.114402D+01      0.424591D+00
   _|_(z)     0.441404D+02      0.381339D+00      0.141530D+00
   x         -0.216819D+03     -0.187315D+01     -0.695200D+00
   y          0.630989D+02      0.545125D+00      0.202318D+00
   z          0.662107D+03      0.572009D+01      0.212295D+01
   ||         0.139911D+03      0.120872D+01      0.448605D+00
   xxx       -0.119834D+02     -0.103527D+00     -0.384232D-01
   xxy        0.380632D+02      0.328836D+00      0.122044D+00
   yxy        0.877906D+01      0.758443D-01      0.281488D-01
   yyy       -0.237150D+02     -0.204879D+00     -0.760388D-01
   xxz        0.564077D+02      0.487319D+00      0.180864D+00
   yxz        0.272307D+02      0.235252D+00      0.873116D-01
   yyz        0.261694D+02      0.226083D+00      0.839085D-01
   zxz       -0.690687D+02     -0.596699D+00     -0.221459D+00
   zyz        0.668478D+01      0.577513D-01      0.214338D-01
   zzz        0.138125D+03      0.119329D+01      0.442879D+00

 ----------------------------------------------------------------------
 1\1\GINC-MN429\Freq\RB3LYP\def2TZVP\C10H18O1\ANDFAG_A\04-May-2024\0\\#
 P Geom=AllCheck Guess=TCheck SCRF=Check GenChk RB3LYP/def2TZVP Freq\\L
 inalool\\0,1\O,2.7287765604,-1.31401197,-1.1783121129\C,1.9885580073,-
 0.5464122794,-0.2020415247\C,0.4890114953,-0.8683276542,-0.3822163226\
 C,-0.47832668,-0.2032244391,0.6097085341\C,2.5231448867,-1.0259739855,
 1.1407861626\C,2.2437638613,0.9207430663,-0.4717657356\C,-1.9055527058
 ,-0.5862858208,0.3443785327\C,-2.9309002621,0.1991636635,0.0035941168\
 C,-4.3022407468,-0.3795666884,-0.2250009887\C,-2.8501651511,1.69021105
 28,-0.1801681881\C,2.7474002559,1.8268032783,0.3549747024\H,0.20022440
 7,-0.5764907865,-1.3988946392\H,0.3844698583,-1.9558696148,-0.33176214
 51\H,-0.3448907377,0.8781354689,0.5819901855\H,-0.2163775869,-0.519303
 8895,1.6252169876\H,2.31907603,-2.0912974543,1.2524894717\H,3.60204839
 66,-0.8798924065,1.1870674464\H,2.0625099501,-0.4958155213,1.973312690
 7\H,1.9727709287,1.2313763805,-1.4801925727\H,-2.1097763517,-1.6511119
 707,0.4397974857\H,2.4022541633,-1.0898254872,-2.0578836619\H,-4.65387
 44046,-0.1666947519,-1.2399390958\H,-5.0343765089,0.0659193864,0.45665
 15599\H,-4.315850368,-1.4598528541,-0.0795396823\H,-3.5193140619,2.199
 6442398,0.5209211187\H,-1.8486070143,2.0898215886,-0.0366458205\H,-3.1
 848311408,1.9703210984,-1.1841869642\H,2.8944176153,2.8517865844,0.038
 3898328\H,3.0360573043,1.5896317658,1.3710706267\\Version=ES64L-G16Rev
 A.03\State=1-A\HF=-467.2737647\RMSD=3.992e-09\RMSF=3.026e-06\ZeroPoint
 =0.2578051\Thermal=0.2719017\Dipole=-0.5314732,0.4231056,-0.0919826\Di
 poleDeriv=-0.7266629,0.0750747,0.2337443,0.0157998,-0.6943039,-0.26522
 55,0.3116524,-0.2425215,-0.5772825,0.6153654,-0.1084065,-0.1647158,0.0
 174544,0.500642,0.1738927,-0.1390249,0.085827,0.4707131,-0.0704207,0.0
 567056,0.0405411,-0.1567523,0.0638493,-0.0677099,-0.1286785,0.0200406,
 0.0869217,-0.0355168,0.0018442,0.0027863,-0.0001047,0.0402861,-0.00548
 92,-0.0066643,-0.0450089,0.152972,-0.0081809,0.0134156,-0.0579381,-0.0
 133507,0.0366595,0.0455834,-0.0301803,0.0169741,-0.0522993,-0.2514738,
 0.0296276,0.1060292,0.1309083,0.0861025,-0.0215041,0.0694011,0.0441646
 ,0.0678397,0.1221858,-0.0164136,0.0691685,0.1634262,0.0027755,-0.03188
 96,0.1248149,-0.029773,-0.2195205,0.1942202,0.0250301,0.0930081,-0.077
 4387,0.2354392,-0.0489234,0.0943046,-0.0457338,-0.1623241,0.0071398,-0
 .0626264,-0.0256852,0.0184782,0.029043,0.0116684,-0.0423135,0.0041262,
 0.1616155,0.0130761,-0.0277453,-0.0315386,-0.0419911,-0.0455012,0.0203
 528,-0.0243543,0.0170531,0.1623927,-0.2594287,0.0083622,0.065311,0.002
 7278,-0.0761607,-0.11299,0.0838105,-0.1242742,-0.008591,-0.004118,0.01
 58822,-0.026551,0.0194976,0.0388461,0.065961,-0.0206256,0.0310979,-0.1
 574526,0.006156,-0.0483778,0.0009652,-0.0254268,-0.142416,-0.0137441,0
 .0164379,0.0200401,0.0427785,0.0471469,-0.0067108,0.0063807,-0.0369379
 ,-0.1106371,-0.0198562,0.0160777,-0.0018605,0.0306165,-0.0460359,0.035
 2148,-0.052359,0.0008637,0.0422538,0.0427415,-0.0615943,0.0374959,-0.1
 115771,0.0726938,-0.0586034,0.0040232,-0.0335455,-0.1184675,0.0501268,
 -0.0035242,0.0069435,0.056473,-0.1349786,-0.0108623,-0.0425996,-0.0366
 455,0.0661033,0.0024898,-0.0003604,0.0081976,0.0488282,0.0464695,0.044
 8556,0.0625817,0.0543697,0.0118231,-0.0757271,0.0622017,-0.0495231,-0.
 0369552,0.0992369,-0.0135105,-0.0763693,-0.012234,0.001717,0.033277,-0
 .0727526,0.0400942,-0.1095847,-0.0118156,-0.0332456,-0.0159615,-0.0455
 818,-0.1371061,0.0293739,-0.0419981,0.0205517,0.1064631,0.2833111,0.04
 70202,-0.1158092,0.0698872,0.2729517,0.0990588,-0.0962138,0.085288,0.1
 756214,-0.0453656,0.0038318,-0.0365853,-0.0130113,0.0570541,0.0572619,
 -0.1289771,0.0406035,-0.1194732,-0.1215967,0.0404486,0.0407993,0.05471
 9,0.0250104,-0.0756279,0.1147329,-0.0599957,-0.0119814,0.036684,0.0345
 504,-0.0126121,-0.0603029,-0.1403171,0.0172701,-0.000365,0.0351587,0.0
 624025,-0.0310197,0.0778664,0.0807943,0.0847424,-0.0303556,-0.0113398,
 0.1002359,-0.0783798,-0.0109259,-0.0923689,-0.1037992,-0.0162148,-0.06
 98835,0.0094763,-0.0034297,-0.0256392,-0.0128669,0.0549787,0.0423144,0
 .0226255,-0.0603132,0.048548,0.000736,0.0158808,-0.0927682,0.0869676,-
 0.1075765,0.1365243,-0.0311994,-0.0314273,-0.0638518,-0.0835695,0.0249
 283,-0.0212596,0.0684096,0.05135,0.1164587,-0.0108547,-0.0394529,0.005
 6365,0.0580656,0.0635893,-0.0563757,0.0209036,-0.0464226\Polar=150.211
 005,-3.0217087,125.5087977,9.4677683,1.2870916,106.6209538\PolarDeriv=
 3.1899646,-2.5422933,2.230216,-2.4558915,1.5024904,3.3268665,-1.958234
 7,1.8499492,-3.2129586,0.979925,-2.1698487,-2.5513905,-0.5627456,0.115
 4254,-1.1731755,1.9855951,-2.0472246,4.8189483,11.2174495,2.7863445,-0
 .9412714,1.7943379,-0.4267857,-2.9312051,3.3639074,-0.6026954,-0.79462
 16,-0.1313694,2.3410926,2.567807,1.0435508,-0.2052816,2.2051601,-2.815
 0106,3.0068511,-4.1410787,-3.468396,-3.0608089,0.3359722,-2.15516,0.19
 84873,2.1461721,-4.8943179,2.4408431,6.8350997,-0.0460296,0.2208689,-2
 .1443477,-4.7527904,0.6980491,-1.0318201,2.3751262,-1.7757838,5.178320
 2,-11.2816053,3.4790834,-1.2001048,0.5982287,-0.1783201,-2.2437574,3.1
 365358,-1.4113663,-5.0917133,-0.3124682,-0.2442113,1.981379,1.8123986,
 -0.0044245,0.378388,-3.6034316,1.9380769,-4.7731138,-7.9232858,-0.7846
 933,2.0310753,-1.315865,-0.1801278,2.9525122,-2.2898797,1.5185805,5.47
 25138,0.1594998,-1.6977195,-2.7093506,-0.786165,0.0046453,-0.3786093,3
 .0528199,-2.8760175,1.4021995,-7.9356896,-3.8472632,-2.0540492,-1.8211
 701,-1.2542753,1.8969764,-4.7409422,-2.3577606,-6.0442079,-0.8903204,-
 3.9061779,-3.4641891,-3.0282602,-1.0772485,-3.7373463,1.5650908,-3.952
 5627,2.4336075,20.2062525,-6.7896188,4.7070747,2.1941054,-0.7607931,1.
 7094664,-7.6162659,4.4749886,2.588921,-0.6005964,-0.0580902,-2.1378475
 ,3.3197483,-0.8285824,0.2964288,4.0122874,-2.7511805,3.5585595,-17.821
 4524,6.5593884,-2.961739,-1.8794942,0.8067754,-2.436254,10.8171945,-6.
 5161017,2.1485763,1.2766028,-0.6796743,2.1512152,-3.8395102,1.4686089,
 -0.4423093,-4.3025755,1.9704668,-2.4942808,9.544913,-3.6700029,-0.6883
 023,-0.081691,0.4187609,3.2062861,-3.200388,1.3120711,5.6879888,0.6057
 057,-1.1992632,-1.9800923,-0.9278309,0.463153,-1.573842,6.0449768,-1.9
 416304,3.9729136,-2.7189365,-4.8527867,2.2664991,-1.5453568,0.1901303,
 2.7158909,-5.8081295,4.409909,-1.7920216,-0.1939707,-0.0196739,-2.3502
 747,-1.7903687,0.0276335,-0.6145465,4.4416835,-3.8584574,3.5838984,7.5
 050946,4.8451212,0.7460792,1.7181031,0.6206798,-1.0641384,4.1649586,0.
 39984,1.6756742,0.693111,4.5231657,3.0785377,3.2422608,1.3477734,6.002
 2506,-0.9549084,3.5546398,-0.6940086,-0.9739862,0.7280747,-0.3180822,-
 0.945328,-0.0841908,-1.2925678,2.0176468,-0.4243459,-0.0725624,-0.0193
 639,-0.9834169,1.2781162,-1.6275272,-0.0644806,-0.6524026,-1.0877475,0
 .3124482,-6.4613318,0.2470945,-0.9260607,-0.4170267,0.3847841,-0.15361
 02,-0.2769436,-2.1109955,-1.0703769,-8.7043187,0.0153564,-0.7421928,-0
 .7195275,1.1855833,-0.0603195,0.0952088,-0.4446965,-0.9873971,-0.53435
 61,0.9081508,1.4739603,0.2793217,-0.4849124,0.1242873,0.35084,3.462074
 7,0.4633839,4.869621,0.0402864,0.4132466,0.4891237,-1.3361438,0.016699
 8,-0.2876481,0.4575804,0.4744331,0.546807,3.8872455,-1.1854508,0.27774
 43,1.5818716,-0.1960284,1.1530497,-3.3096469,1.0620807,-0.4961198,-0.3
 016951,1.2311429,-1.6031719,3.9988593,-0.6715605,0.7599174,2.4179306,-
 1.5204921,6.6774632,0.2600969,-1.1233885,-0.8386516,0.3366497,0.300752
 8,-0.673269,-1.1187817,0.143719,-8.3600868,-0.1978773,2.1920951,-1.354
 4694,0.0794331,0.0207756,0.8480835,-0.4245412,-1.0337144,0.5590925,10.
 3085834,-0.5822199,0.8620768,1.994452,-0.2934302,1.2208978,0.6775335,1
 .0334827,-0.4056461,0.1045715,0.2638399,0.5225605,0.4429559,-0.0469875
 ,-0.0299713,1.0325757,0.3755576,0.3016602,-1.5763936,0.8238192,-0.7810
 356,1.0223709,-0.1427794,-1.6526726,1.354957,-0.6965628,0.8382859,-0.2
 578037,1.0746498,1.8725806,1.2753217,-0.2607487,0.922044,-1.1170648,1.
 1896391,4.6300123,-0.082762,0.5170066,-1.0213991,-0.9990108,-0.0326469
 ,-1.5096121,-0.2048339,-0.6595423,0.3291466,0.120314,-1.4799701,1.6158
 142,-1.1341361,-0.1687485,-1.745934,-1.1149968,1.9045221,-6.9991888,0.
 5643153,-1.5459489,-1.1685094,0.4885143,0.0616365,0.028126,-2.3371528,
 -0.8702469,-8.0339027,-0.1680785,1.0697814,-0.5826027,1.2063575,-0.306
 0723,0.7122702,-0.7780689,-0.7500443,0.0789015,-0.4058909,0.0571956,-0
 .2514686,-0.7145025,-0.2584759,-1.9676277,0.314322,-0.0824633,-0.12665
 68,-0.188922,-0.7172397,1.372442,-1.2137,0.2611493,-1.1674577,0.267222
 4,-0.7486703,-8.639319,-5.0655665,0.6427249,-0.0579481,-2.5563521,-0.0
 413938,-2.1430387,2.0540162,-1.0239801,0.0959649,0.4800468,-1.2177571,
 0.9910496,-5.10266,0.0102134,-0.7408917,-4.9642774,0.745767,-6.8391211
 ,-9.6040428,1.689456,-0.5825351,2.4728718,-0.4763839,-1.6954044,4.1453
 887,-1.8885963,0.9825101,-0.6328616,1.1264865,1.0109448,4.9627922,-0.7
 892619,1.0148691,-3.4367388,1.021216,1.8998423,-0.0928071,-0.8987791,-
 0.4261237,0.3708673,0.0425073,-0.2391793,-2.1170597,-2.538475,-7.53442
 93,-0.0318359,0.3791412,-0.6878585,0.6937617,0.2804163,0.6779699,-0.80
 17685,-1.0608263,0.009612,-4.2003031,3.4931879,-3.5000397,1.824356,-0.
 8762885,-1.518177,2.3884158,-3.1781881,4.1944322,-0.9427624,1.8163068,
 1.2309134,2.6713049,-1.9331924,2.9510685,-2.5416926,2.4637012,1.995966
 4,6.0080665,1.7817308,2.7656669,0.5856104,-0.1726014,0.4189675,1.51003
 92,1.7984377,1.7395749,0.0038708,0.3059667,0.4807216,0.7503023,-0.0726
 682,0.6575215,0.4653936,0.8871728,-0.0931509,-1.7819481,1.9035959,-1.8
 202011,-1.5947874,0.6922455,-1.6440991,1.0096594,-1.5824281,2.1377505,
 0.5582323,-2.0503407,1.6734536,-1.8403217,1.4865294,-3.0260545,-2.9717
 852,3.5299796,-6.3083609,0.2056448,0.9261403,1.918618,-0.1623492,0.339
 3327,0.6093153,1.3072179,3.2007619,10.3152833,0.0401744,-0.7817665,0.7
 843704,-0.1064476,-0.3026042,-2.2822865,0.8218163,1.4769812,0.0522498,
 0.880194,0.1024855,0.6081435,1.344748,0.2300451,1.5525792,-0.0172391,0
 .7950825,0.7579023,-0.1617418,0.9895586,-0.8159071,1.363977,0.5911086,
 1.363115,2.4192056,0.4525491,6.2772563\HyperPolar=-150.5971397,53.4133
 025,-26.1963533,3.2575938,42.231775,-6.7916332,35.9997086,-37.1581423,
 35.0864197,-64.7946823\Quadrupole=-3.6379717,0.4021052,3.2358665,2.412
 5463,1.5488475,-0.944953\PG=C01 [X(C10H18O1)]\NImag=0\\0.20636036,-0.1
 3025951,0.17256336,0.09082130,-0.03687058,0.58887871,-0.09769970,0.047
 95800,0.04342835,0.43368202,0.03602817,-0.09811075,-0.03995796,0.00670
 533,0.47493717,0.00664705,-0.01403107,-0.11955753,0.04475558,-0.043219
 24,0.50244396,-0.03408134,0.00435836,0.00899129,-0.13620201,-0.0150841
 9,-0.01168745,0.43151275,0.02649380,0.00043410,-0.00613913,-0.03157879
 ,-0.08188311,0.00046532,-0.00034613,0.56535255,0.03651296,-0.00515617,
 -0.01040799,-0.02555171,0.00076497,-0.07997720,0.02311153,-0.03591522,
 0.53392599,-0.00667793,0.00061162,0.00224208,-0.01517632,0.01289265,0.
 01888500,-0.10335061,0.01959231,0.03306962,0.45077839,-0.00405246,0.00
 228195,0.00133797,0.00148830,0.00332742,0.00637181,0.02051422,-0.09984
 557,-0.02891088,0.02382403,0.58051059,-0.00423877,0.00074369,0.0028477
 1,0.00419008,0.00383357,0.00333944,0.03498819,-0.02924662,-0.11719991,
 0.03754218,-0.03668082,0.50575782,0.00592875,-0.00273345,0.02093696,-0
 .09236593,0.01189521,-0.04164499,-0.01549340,0.00946007,-0.03133616,0.
 00020498,-0.00028394,-0.00019679,0.56593887,-0.00391713,0.00499935,-0.
 02286719,0.01256216,-0.09104981,0.03815034,-0.00091531,0.00249106,-0.0
 0444549,-0.00050794,-0.00033934,0.00035548,0.01417436,0.56744104,-0.00
 377998,0.00132399,-0.04476182,-0.03148183,0.02858950,-0.14988379,-0.00
 935347,0.00121598,-0.00388858,-0.00067791,-0.00004008,0.00065973,-0.03
 850131,0.03748856,0.50219271,0.00266495,0.02262271,0.00283093,-0.07940
 812,-0.02315705,-0.00309733,-0.00974921,-0.03464554,0.00418660,-0.0009
 1894,-0.00058685,-0.00022568,0.00289600,0.01071062,-0.00179957,0.26753
 655,0.00804005,-0.03508460,-0.01178991,-0.02075076,-0.16799062,0.02697
 611,-0.01513819,-0.01060566,0.00115181,-0.00024768,0.00032357,0.000524
 05,-0.00007407,-0.01348030,0.01077609,0.14933920,0.62454985,0.00566184
 ,-0.03650957,-0.00807362,-0.00496034,0.03975812,-0.09198237,-0.0021487
 6,-0.00394237,0.00320562,-0.00038082,0.00024594,-0.00014337,0.00429620
 ,0.03206077,-0.00600091,0.19827313,0.09849499,0.67111357,-0.00031757,0
 .00020047,0.00033103,-0.00074832,0.00062972,0.00120458,-0.03311181,0.0
 0018944,0.00232412,-0.18862624,-0.03515500,-0.02552154,0.00021175,0.00
 006843,0.00020010,0.00011542,0.00009615,0.00004306,0.67289331,0.002537
 11,-0.00023026,-0.00117546,0.00001998,-0.00231131,-0.00234457,0.016049
 69,0.00603649,0.00571807,-0.03560151,-0.10235948,-0.00434388,0.0002286
 6,0.00044584,-0.00007370,-0.00042054,-0.00066267,-0.00006005,-0.103611
 02,0.67793189,0.00237963,-0.00034384,-0.00064709,-0.00041306,-0.002242
 79,-0.00302685,0.02072654,0.00759772,0.00569827,-0.02502253,-0.0035893
 7,-0.07532632,-0.00018638,-0.00021304,-0.00045623,0.00008424,-0.000389
 96,0.00021448,0.12993330,-0.09361662,0.19016127,-0.00042081,0.00009720
 ,0.00018128,0.00032234,0.00053151,0.00082229,-0.00033422,-0.00184332,-
 0.00315635,-0.02505540,0.01632935,-0.00846011,0.00007818,-0.00005842,-
 0.00003955,0.00008397,-0.00000914,-0.00003922,-0.34180513,0.18371395,-
 0.08950500,0.66804002,-0.00097459,0.00006448,0.00044179,0.00014220,0.0
 0085862,0.00035217,-0.00305359,-0.00148845,-0.00096269,-0.00209169,0.0
 1205930,-0.00096613,-0.00016786,-0.00020286,-0.00003301,0.00003650,0.0
 0025779,-0.00008909,0.17570431,-0.25071173,0.06653158,-0.13381748,0.60
 991213,0.00005388,-0.00000366,-0.00004471,0.00026438,-0.00002959,0.000
 36664,0.00193418,-0.00056935,-0.00082767,-0.00727760,0.00259626,0.0010
 1574,0.00012085,0.00002534,-0.00006273,0.00003726,-0.00006679,-0.00003
 103,-0.08836628,0.06848819,-0.08351722,0.12667012,-0.08787359,0.226985
 61,0.00001726,-0.00000638,0.00001221,-0.00005740,-0.00002054,-0.000018
 93,0.00014408,0.00016016,-0.00002718,0.00199632,0.00122265,-0.00289067
 ,0.00000627,-0.00002456,-0.00002817,0.00000294,0.00000740,-0.00000830,
 -0.03539305,-0.00646026,-0.00821548,-0.17759042,-0.04147332,-0.0178157
 6,0.48042564,0.00034347,-0.00002458,-0.00016282,-0.00025536,-0.0002174
 0,-0.00009089,0.00020378,0.00061217,0.00051076,0.00163404,-0.00241541,
 0.00236861,0.00007939,0.00008188,0.00002549,0.00002145,-0.00009582,0.0
 0003850,0.01539403,0.00948480,0.00282875,-0.04570813,-0.10508698,-0.00
 591938,-0.02654832,0.57441105,-0.00052201,0.00007260,0.00016786,0.0001
 4319,0.00050386,0.00057631,-0.00286085,-0.00102272,-0.00087666,-0.0022
 6443,0.00228845,0.01279291,0.00005517,0.00001295,0.00008712,0.00001299
 ,0.00007819,-0.00002283,-0.01158769,-0.00188709,0.00288503,-0.01708802
 ,-0.00517024,-0.07632173,-0.00575928,-0.01308065,0.52364824,-0.0001636
 5,-0.00010873,0.00003855,0.00008806,0.00022054,0.00009706,-0.00050231,
 -0.00019005,-0.00012954,0.00069789,0.00038565,0.00120416,-0.00003521,-
 0.00003159,0.00000448,0.00006416,0.00012538,0.00001740,0.00668576,0.02
 644987,-0.00362619,-0.08903157,-0.01059886,-0.00178362,-0.00318300,-0.
 03277321,0.00298065,0.58086746,-0.00007844,-0.00001653,0.00002491,0.00
 005376,0.00015618,0.00003585,-0.00026874,-0.00058448,-0.00023729,-0.00
 109217,0.00103961,-0.00072569,-0.00004917,-0.00002585,-0.00000399,0.00
 002364,0.00004921,-0.00000120,0.00578403,-0.02459729,0.00558151,-0.010
 63017,-0.19736970,0.01419003,-0.00673428,-0.01809591,0.00138970,0.0176
 0700,0.47439197,0.00013352,-0.00005845,-0.00006049,-0.00000420,-0.0002
 0906,-0.00012234,0.00066075,0.00045392,0.00022208,0.00156616,-0.000736
 10,-0.00533389,-0.00002420,-0.00001779,-0.00002930,-0.00001553,0.00001
 042,-0.00002256,-0.00127669,0.00994153,0.00599990,-0.00159654,0.014506
 58,-0.07699232,-0.00041202,-0.00429326,0.00323766,0.01064252,0.0095612
 6,0.52237059,0.00022915,0.00050539,0.00066469,0.00350748,-0.00660524,-
 0.00332151,-0.00042750,0.00072712,0.00014272,-0.00016612,0.00022447,-0
 .00010849,-0.00091161,0.00034442,0.00008089,-0.12310696,-0.12607977,-0
 .12488214,0.00007306,-0.00024047,-0.00001201,0.00001973,0.00002193,0.0
 0000376,0.00000325,-0.00000149,0.00001120,0.00006092,0.00001557,0.0000
 0540,0.21869663,0.00072666,-0.00395244,-0.00131006,-0.01363589,-0.0170
 3472,-0.01757823,0.00189595,-0.00381517,0.00117433,0.00034433,-0.00053
 870,-0.00034607,-0.00114569,-0.00082470,-0.00113750,-0.12838583,-0.314
 04102,-0.18615604,-0.00016884,0.00055777,0.00022060,-0.00000091,-0.000
 13601,0.00005048,0.00000017,0.00006012,-0.00005648,-0.00014867,-0.0000
 6223,-0.00003834,0.16532922,0.70719577,-0.00138785,0.00332076,0.002741
 02,0.00236109,-0.00408359,0.00896602,0.00126615,0.00124833,-0.00066437
 ,0.00080713,-0.00042909,0.00035989,0.00014942,0.00057528,-0.00046081,-
 0.12389469,-0.17894297,-0.28234096,-0.00012482,0.00041302,-0.00008892,
 0.00000907,-0.00002611,0.00002074,0.00000050,0.00000770,-0.00000598,-0
 .00009244,-0.00002024,-0.00000508,0.20338773,0.05215704,0.66830269,0.0
 0300483,-0.00109416,-0.00081664,-0.01183311,0.00923296,-0.03030953,-0.
 06327461,0.01732957,-0.06040501,0.00302097,-0.00550890,0.02085508,-0.0
 0604971,-0.00167999,0.00097569,0.00113000,0.00165269,-0.00066534,0.002
 01165,-0.00064172,0.00078466,-0.00012303,0.00026509,-0.00044999,-0.000
 03336,-0.00003882,-0.00001997,0.00000306,0.00011844,0.00002111,0.00002
 681,-0.00016336,0.00024552,0.07500271,0.00067053,-0.00066833,-0.000574
 54,-0.00302472,0.00124141,-0.00749708,0.01698939,-0.06827162,0.0652340
 4,-0.00235764,0.00380839,-0.01481952,-0.00088594,-0.00013107,0.0002134
 6,-0.00012495,0.00030213,-0.00120241,-0.00078718,0.00029422,0.00024889
 ,-0.00006833,0.00002856,0.00008616,0.00001843,-0.00001320,-0.00009744,
 0.00002383,0.00002090,0.00009521,-0.00001904,0.00010802,0.00008392,-0.
 02040828,0.07046468,0.00090580,0.00013346,0.00320364,-0.00111038,0.001
 29664,-0.00843199,-0.06040378,0.06441854,-0.25584988,-0.00299632,0.005
 53040,-0.02274654,-0.00107958,-0.00096860,0.00140155,0.00050008,0.0010
 6205,0.00009117,-0.00203420,0.00001228,0.00109101,0.00062188,0.0000154
 5,0.00059391,0.00010231,-0.00011776,-0.00013950,0.00004238,-0.00001876
 ,0.00011630,0.00005205,-0.00036386,0.00031537,0.06400862,-0.06919062,0
 .28298713,0.00350471,0.00099936,-0.00100461,-0.00894359,-0.03388717,0.
 00251407,-0.04704605,-0.02233626,0.00071310,0.00051161,0.02124839,-0.0
 0092250,0.00142616,-0.00075727,0.00095686,-0.00599082,0.00086627,-0.00
 152191,0.00159129,0.00126390,-0.00042441,-0.00015487,-0.00013144,-0.00
 005573,-0.00002928,-0.00000498,0.00000276,0.00009219,0.00010479,-0.000
 02290,0.00021541,-0.00146329,0.00041229,0.00055792,0.00851205,-0.00051
 891,0.05658046,0.00136579,0.00274720,0.00054527,-0.00099552,-0.0110956
 4,0.00062204,-0.02455874,-0.29796316,0.01651395,-0.00007238,-0.0142535
 2,-0.00023634,0.00073435,0.00025969,0.00034914,-0.00215989,0.00030497,
 -0.00133120,-0.00131805,0.00034262,0.00019824,0.00043833,0.00024689,0.
 00015511,0.00000835,-0.00003645,0.00006294,-0.00019910,-0.00002670,-0.
 00016889,-0.00005469,-0.00007869,0.00050771,-0.00092850,-0.00858319,0.
 00121115,0.02544017,0.32570321,0.00052977,0.00025818,-0.00034084,-0.00
 157506,-0.00593076,-0.00018531,0.00027339,0.01648842,-0.04868976,-0.00
 067866,-0.02347744,0.00006122,0.00018201,-0.00099824,0.00019508,-0.000
 28561,0.00070186,0.00006069,-0.00116334,0.00004723,0.00036439,0.000089
 68,0.00000956,-0.00000504,0.00002695,0.00002822,-0.00006326,-0.0000860
 2,-0.00011149,0.00005096,0.00008136,-0.00030024,0.00024125,0.00317851,
 0.02988659,-0.00220544,-0.00287120,-0.01546417,0.05166781,-0.00017221,
 -0.00073897,-0.00005691,0.00077236,0.00103805,-0.00029970,0.00152407,0
 .02185030,-0.00109149,-0.05107297,-0.02999670,0.00016179,-0.00015232,-
 0.00001993,0.00003174,-0.00057619,0.00034046,0.00059443,-0.00304660,-0
 .03338612,0.00240368,0.00168157,-0.00003963,0.00049518,-0.00002210,0.0
 0014437,0.00005171,-0.00160089,0.00018187,-0.00028334,-0.00010544,-0.0
 0050442,-0.00022793,0.00069920,-0.00081508,-0.00034651,-0.00254088,0.0
 0153388,0.00307979,0.05951402,0.00046840,0.00046830,-0.00003035,-0.000
 91090,-0.00059938,-0.00008089,0.00049408,-0.01491307,-0.00029873,-0.03
 105400,-0.30288220,0.00997336,0.00023372,0.00002322,-0.00004050,-0.000
 56672,-0.00016836,-0.00010239,-0.00328176,-0.00801821,0.00027807,0.000
 81354,-0.00099783,0.00033430,-0.00012790,0.00005760,-0.00005549,0.0014
 2119,-0.00058619,0.00053386,-0.00052633,0.00043132,0.00055713,-0.00018
 224,0.00072031,-0.00020511,0.00140880,0.00028498,-0.00214234,0.0310580
 1,0.33430445,0.00001640,0.00041058,-0.00000596,-0.00043784,0.00014753,
 0.00062007,-0.00191619,-0.02357948,0.00051966,-0.00015688,0.01110089,-
 0.05022569,-0.00007270,0.00008875,0.00001855,0.00035479,-0.00012238,0.
 00011900,0.00009240,-0.00636823,-0.00024841,0.00034015,-0.00009151,-0.
 00003123,-0.00000152,0.00004494,-0.00000731,-0.00054104,-0.00001254,-0
 .00035249,0.00003254,0.00013827,-0.00009995,-0.00090865,0.00020450,0.0
 0079209,0.00308876,-0.00206875,-0.00230636,-0.00213000,-0.01034578,0.0
 5070327,-0.00008816,0.00009974,-0.00061016,0.00082395,-0.00061374,0.00
 053300,0.00422035,-0.00592589,0.02080831,-0.05639445,0.01661856,-0.056
 92463,-0.00093571,0.00023660,0.00026424,-0.00000613,-0.00004129,0.0000
 0502,-0.01425246,0.01175033,-0.03089632,-0.00163915,-0.00335512,-0.000
 68441,-0.00114949,0.00105081,0.00233235,-0.00003221,-0.00046821,-0.000
 86209,-0.00001638,-0.00000301,-0.00007062,-0.00261461,0.00191292,0.003
 09997,0.00081739,-0.00020242,-0.00093173,0.00055384,-0.00078522,0.0038
 3003,0.07118883,-0.00025620,-0.00005049,0.00021050,0.00015938,0.000392
 98,0.00066221,-0.00259595,0.00376626,-0.01545315,0.01504900,-0.0727105
 7,0.06997538,0.00020557,0.00047784,0.00021507,-0.00006836,-0.00007718,
 -0.00004717,-0.00143271,0.00320277,-0.00846845,-0.00065078,-0.00041170
 ,-0.00020501,-0.00009354,0.00032203,0.00055199,-0.00005360,-0.00035464
 ,0.00025970,-0.00005822,0.00002355,0.00005696,0.00209942,-0.00033360,-
 0.00251676,-0.00080626,0.00078294,0.00012167,0.00795771,-0.00941291,0.
 03006166,-0.02022176,0.07355087,0.00052607,-0.00008685,0.00046373,-0.0
 0137676,0.00010232,-0.00073147,-0.00266060,0.00610824,-0.02373387,-0.0
 5324019,0.06980531,-0.25657107,-0.00050254,-0.00039398,-0.00048977,0.0
 0017771,0.00000034,-0.00000908,-0.00455123,0.00223595,-0.00365116,0.00
 021844,-0.00161346,0.00013411,-0.00030640,0.00024945,0.00022320,0.0000
 9349,0.00000502,-0.00023819,0.00002705,0.00000345,-0.00003643,0.003085
 67,-0.00249039,-0.00184042,-0.00033750,-0.00026690,0.00098277,0.000035
 29,0.00126019,-0.00068569,0.06001332,-0.07501213,0.28400292,-0.0000014
 2,-0.00033910,0.00097696,0.00074886,0.01272399,-0.00125444,0.00055184,
 0.00122514,0.00017077,-0.00006781,-0.00000070,-0.00005519,-0.05696953,
 -0.05082664,0.00483938,-0.00047277,0.00021828,-0.00245508,-0.00004849,
 -0.00005198,0.00002659,-0.00001903,0.00002465,-0.00000814,0.00000035,-
 0.00001764,-0.00000424,0.00001635,0.00000374,0.00000497,0.00006475,-0.
 00014842,-0.00021894,0.00010658,-0.00018567,0.00017061,-0.00013696,-0.
 00017167,-0.00032876,0.00012322,-0.00010285,0.00002824,-0.00004160,0.0
 0010455,0.00013930,0.05833641,-0.00013391,0.00148821,-0.00089321,-0.00
 173126,-0.01304582,0.00095644,-0.00090167,0.00025143,-0.00063335,0.000
 33639,0.00004174,0.00008270,-0.04969566,-0.29908894,0.02494835,0.00096
 126,0.00080853,0.00172386,0.00000499,-0.00001975,-0.00004479,0.0000360
 5,-0.00000923,-0.00000124,-0.00000071,0.00000715,0.00001021,-0.0000322
 6,-0.00000620,-0.00000897,0.00004582,0.00015867,0.00003087,-0.00001465
 ,0.00039156,-0.00007043,0.00058828,0.00065730,0.00014189,-0.00014671,0
 .00014445,-0.00007078,0.00008576,-0.00022895,-0.00011189,0.05430692,0.
 32542434,-0.00025551,-0.00031927,0.00219076,0.00561406,0.03092708,-0.0
 0485781,0.00115043,0.00047981,0.00115893,-0.00005551,-0.00008146,0.000
 12764,0.00466143,0.02181566,-0.04805355,-0.00227665,0.00003944,-0.0053
 5830,-0.00004221,0.00001182,-0.00000557,-0.00000404,0.00000955,-0.0000
 1283,-0.00000009,-0.00000621,0.00000190,0.00000441,-0.00000024,0.00000
 771,-0.00030757,-0.00054141,-0.00040755,0.00022113,-0.00029394,0.00012
 783,-0.00051745,-0.00052362,-0.00002003,0.00005346,-0.00001146,-0.0001
 2349,-0.00004340,-0.00001776,-0.00008630,-0.00264357,-0.02801101,0.051
 98379,0.00153086,-0.00008635,0.00102474,-0.01372408,-0.00148210,-0.000
 39303,0.00080594,0.00147344,-0.00225245,0.00028115,-0.00029178,-0.0000
 3261,-0.30764788,-0.03621519,-0.00964940,0.00038725,-0.00107181,0.0001
 8511,-0.00001467,0.00019368,0.00000540,0.00004347,-0.00013834,0.000032
 18,-0.00000919,0.00005196,0.00000143,-0.00002534,-0.00000952,-0.000012
 00,0.00034531,-0.00008548,-0.00017527,-0.00073220,-0.00011613,-0.00022
 199,0.00020285,0.00001737,0.00013641,-0.00005469,0.00007535,-0.0000012
 7,0.00009176,0.00002662,-0.00017723,-0.00472619,-0.00078157,0.00014262
 ,0.33452907,-0.00049348,-0.00013158,-0.00093106,0.01154058,0.00062018,
 -0.00014953,0.00012009,-0.00061924,0.00137358,0.00005858,0.00019056,0.
 00001334,-0.03756843,-0.05215356,-0.00081842,0.00055984,0.00030139,-0.
 00011368,-0.00001651,-0.00012281,0.00006795,0.00001896,0.00005871,-0.0
 0001014,0.00000684,-0.00002069,-0.00001198,0.00000555,0.00000736,0.000
 00589,0.00020389,-0.00019770,0.00035899,0.00044022,0.00052553,0.000124
 82,0.00025419,0.00031867,0.00018191,-0.00001595,0.00000885,-0.00003385
 ,-0.00004445,-0.00015533,0.00011352,-0.03174381,-0.00319160,-0.0009505
 2,0.03997996,0.05335794,0.00029427,0.00026225,0.00226668,-0.03123773,-
 0.00463617,-0.00241873,-0.00038680,0.00213863,-0.00557987,0.00053951,-
 0.00001258,-0.00059606,-0.00628744,-0.00121404,-0.04658443,0.00012705,
 -0.00107028,0.00064423,-0.00008216,-0.00001679,0.00033362,0.00005195,0
 .00001397,0.00005990,0.00002066,-0.00000941,-0.00005225,-0.00000655,-0
 .00000269,0.00001371,0.00018990,0.00040276,0.00062091,-0.00186180,-0.0
 0022990,-0.00039484,0.00020977,0.00000788,0.00002773,-0.00004481,0.000
 02397,0.00005850,-0.00007605,-0.00011449,0.00054698,0.00272223,0.00001
 561,-0.00067793,0.01114615,-0.00041847,0.04989300,-0.00009357,0.000252
 31,-0.00272983,0.00424938,-0.00734803,-0.00681289,0.00030094,-0.000467
 79,0.00075707,-0.00116362,0.00006307,-0.00061199,-0.09548096,0.0564912
 0,0.08643829,0.00029944,0.00006981,0.00029362,-0.00009814,-0.00003283,
 0.00009651,-0.00002740,0.00008195,-0.00000130,0.00000754,-0.00003272,-
 0.00000984,0.00001161,-0.00000280,0.00000332,0.00046832,0.00037398,0.0
 0064298,0.00019034,0.00013800,0.00011713,-0.00010661,0.00002255,-0.000
 07690,0.00004632,0.00005429,0.00003819,-0.00145312,0.00001474,-0.00038
 825,0.00232888,-0.00300875,-0.00620401,-0.01162647,0.01645778,0.024393
 98,0.10174749,0.00040266,0.00011964,0.00252719,-0.00621699,0.00461955,
 0.00629727,-0.00005182,0.00000092,-0.00068468,0.00054088,0.00039566,-0
 .00052457,0.05644774,-0.11095053,-0.09949935,-0.00032121,-0.00011610,-
 0.00064968,-0.00003967,-0.00020743,0.00026700,0.00002983,0.00008187,0.
 00002421,0.00001893,-0.00003615,-0.00003614,0.00002430,0.00001338,0.00
 001172,-0.00018547,-0.00075537,0.00060024,-0.00014726,-0.00001685,0.00
 003425,0.00005490,0.00007705,-0.00007242,0.00003496,-0.00014068,0.0001
 4673,0.00005719,0.00010441,0.00060146,0.01424591,-0.01371136,-0.024084
 45,-0.00187708,0.00185952,0.00484470,-0.06261906,0.11867396,-0.0025607
 5,0.00211387,-0.00727544,0.01471064,-0.01623792,-0.01560592,0.00044637
 ,-0.00021824,0.00021802,0.00034394,0.00024487,-0.00041626,0.08380407,-
 0.09687989,-0.20167689,-0.00015045,-0.00083985,0.00059106,-0.00016843,
 -0.00017203,0.00046370,0.00006150,0.00013073,0.00002259,0.00003435,-0.
 00006071,-0.00007147,-0.00000709,0.00000270,0.00002176,-0.00020021,0.0
 0012092,0.00010998,0.00001464,0.00009910,0.00003057,-0.00001615,0.0001
 0025,-0.00004296,-0.00013134,0.00009590,-0.00001920,-0.00023312,-0.000
 17932,0.00090610,-0.00238192,0.00148723,0.00316180,-0.00047332,0.00162
 495,0.00157207,-0.09458287,0.10896365,0.21866240,-0.00023293,-0.000525
 93,-0.00021345,0.00293207,-0.00180983,0.00463611,0.00103551,0.00031386
 ,0.00074468,-0.00006650,-0.00009020,-0.00001065,0.00041122,-0.00086185
 ,-0.00023383,-0.05806586,0.01418520,-0.06352106,-0.00005329,0.00005843
 ,0.00001293,-0.00001191,-0.00002936,-0.00000788,-0.00000475,0.00000922
 ,-0.00000719,-0.00004197,-0.00001930,-0.00002077,0.00234667,0.00264042
 ,-0.01411210,-0.00003499,-0.00021555,-0.00010466,0.00007617,0.00020865
 ,-0.00010736,-0.00008392,0.00009529,0.00010807,0.00005586,0.00005080,-
 0.00005334,0.00045517,-0.00010892,0.00013882,0.00010533,-0.00012868,0.
 00017371,-0.00010397,-0.00001216,-0.00006778,0.04824010,-0.00060135,0.
 00330579,0.00011763,0.00706359,-0.00836411,0.02879979,0.00142053,0.000
 77480,0.00060506,-0.00010761,0.00001320,-0.00007788,-0.00183387,-0.005
 38398,-0.00081802,0.01612905,-0.07724510,0.07383149,-0.00002951,0.0000
 3494,-0.00000599,-0.00002340,-0.00000403,-0.00000973,-0.00000161,-0.00
 000216,-0.00000024,0.00000452,-0.00000874,0.00000338,-0.00763294,0.007
 97256,-0.02311710,-0.00069401,-0.00007159,-0.00073331,-0.00001237,0.00
 012962,-0.00042212,-0.00003274,0.00001679,0.00006932,0.00010243,-0.000
 01464,-0.00012964,0.00064981,-0.00056988,0.00172471,0.00011656,0.00009
 671,-0.00017124,-0.00015335,0.00019066,-0.00002165,-0.01244821,0.08121
 615,-0.00042790,-0.00015766,0.00302385,-0.00265888,-0.00066333,-0.0087
 9463,-0.00072751,-0.00024507,0.00002719,0.00019012,0.00013179,0.000057
 68,0.00099740,0.00111773,0.00160851,-0.06355816,0.07089613,-0.27565594
 ,0.00002261,-0.00006924,0.00001453,0.00000734,0.00006752,0.00001277,0.
 00001132,-0.00002662,0.00000141,0.00006279,0.00002535,0.00003864,-0.00
 686160,0.00718481,-0.01849536,0.00059669,0.00005305,0.00056965,0.00020
 148,-0.00002237,0.00020567,0.00003313,-0.00005488,-0.00018529,-0.00010
 033,-0.00005813,0.00013429,-0.00023612,0.00028339,-0.00036850,-0.00001
 845,-0.00008291,-0.00007904,-0.00004860,-0.00006665,0.00001052,0.07445
 570,-0.07610591,0.29691461,-0.00011673,0.00015359,0.00006559,0.0000529
 7,0.00020275,-0.00010967,0.00183691,-0.00134072,-0.00080531,-0.0059592
 1,-0.02948657,0.00266020,0.00002449,-0.00005896,-0.00005694,-0.0000768
 6,-0.00013470,-0.00006782,-0.06322268,-0.05236274,0.00119591,0.0043136
 6,0.02456826,-0.00339967,0.00013377,0.00317334,0.00143069,-0.00256878,
 0.00107639,-0.00338400,-0.00011111,0.00019850,0.00016890,-0.00005546,0
 .00002159,0.00015711,-0.00033423,0.00084887,0.00024578,-0.00529566,-0.
 00093745,-0.00113890,0.00101693,0.00051298,-0.00034699,-0.00003764,0.0
 0005497,-0.00000184,0.00000162,0.00002602,0.00002416,0.00002693,-0.000
 01342,0.00007363,0.00003033,0.00000912,-0.00001693,0.07072919,-0.00019
 120,0.00010011,0.00009553,-0.00003275,0.00024400,0.00008320,0.00038469
 ,0.00023903,-0.00019596,-0.00096295,-0.00789276,0.00061101,-0.00000528
 ,-0.00004850,-0.00002784,0.00007055,-0.00000052,-0.00002241,-0.0474092
 1,-0.30375304,0.02560376,-0.00406346,-0.02204258,0.00272794,-0.0017926
 8,0.00050633,-0.00156052,0.00230302,0.00122924,0.00192906,-0.00000252,
 0.00007694,0.00004902,-0.00004065,-0.00005751,0.00003299,-0.00046806,0
 .00045309,0.00031087,-0.00135232,0.00087709,-0.00049609,-0.00026677,0.
 00043794,-0.00034538,-0.00001502,0.00003568,0.00000342,-0.00000983,0.0
 0001939,0.00000785,0.00001620,-0.00000505,0.00004972,0.00001472,-0.000
 00341,-0.00001955,0.05274015,0.32873169,-0.00006186,-0.00002109,-0.000
 02049,-0.00001426,-0.00008146,-0.00001138,-0.00042691,0.00026694,0.000
 22429,-0.00193148,-0.00603662,0.00234207,-0.00003405,-0.00001289,0.000
 02476,-0.00005408,0.00004306,-0.00003637,0.00064202,0.02427337,-0.0401
 5673,0.00046528,0.00935247,0.00352289,0.00208627,-0.00045608,-0.007509
 27,-0.00355414,0.00168503,0.01068971,-0.00001374,-0.00001279,0.0000234
 8,0.00008317,0.00009973,-0.00014619,0.00013451,0.00000665,0.00014976,-
 0.00153817,-0.00035761,0.00114835,0.00093349,0.00002897,0.00044945,-0.
 00000413,0.00002228,0.00001952,-0.00000890,0.00000903,-0.00002789,-0.0
 0000695,-0.00003104,-0.00000904,0.00000472,0.00000657,-0.00001014,0.00
 354704,-0.02890660,0.02939569,-0.08267705,0.06071327,-0.16719159,0.004
 33165,-0.00409751,0.02200010,0.00178324,-0.00082185,0.00332201,-0.0004
 3789,0.00038267,-0.00057730,-0.00161127,0.00135015,0.00221625,-0.00026
 978,0.00007422,0.00049678,-0.00016642,-0.00020437,-0.00013456,-0.00006
 104,0.00013540,-0.00005055,-0.00000432,-0.00006206,0.00002594,0.000038
 24,0.00001119,0.00000770,-0.00017584,0.00013760,-0.00010375,-0.0009295
 7,0.00090001,-0.00122327,-0.00029093,-0.00020035,0.00009881,0.00012957
 ,-0.00014005,-0.00005182,0.00032754,-0.00015585,-0.00028870,-0.0001151
 0,0.00000762,-0.00002122,0.00026263,0.00012011,0.00013019,0.00074827,-
 0.00001735,0.00087337,0.00034794,0.00005353,-0.00024184,-0.00002057,0.
 00000016,0.00004146,0.07853623,0.06338593,-0.04984893,0.11769518,-0.00
 655492,0.00251990,-0.02269682,-0.00006705,0.00034346,-0.00057158,0.000
 00663,-0.00014654,0.00007010,0.00137704,-0.00174652,-0.00200369,-0.001
 30250,0.00135187,-0.00325160,0.00004780,-0.00007209,-0.00007533,-0.000
 01032,0.00004724,-0.00002279,-0.00000032,-0.00001286,0.00001350,0.0000
 4443,0.00001295,0.00001847,0.00013230,-0.00037242,0.00093941,0.0002473
 1,0.00035261,0.00036164,-0.00024117,-0.00039839,0.00064211,0.00013877,
 -0.00013749,-0.00011391,-0.00002533,0.00001496,-0.00001299,0.00011315,
 0.00025844,-0.00015688,0.00000940,-0.00013429,0.00006802,-0.00003371,0
 .00071101,-0.00081633,0.00066852,-0.00116080,0.00095428,-0.00005118,-0
 .00003379,0.00002383,-0.05813157,0.04835328,-0.13150769,0.08526643,-0.
 41456692,-0.01212648,0.00941459,-0.02887994,-0.00093248,0.00117455,0.0
 0232240,-0.00048521,-0.00045759,-0.00007720,0.00439278,-0.00478899,-0.
 00362790,-0.00078201,-0.00016511,0.00196519,0.00008483,0.00024180,0.00
 030387,-0.00002230,-0.00011647,-0.00000170,0.00000597,0.00005006,-0.00
 005393,-0.00000253,-0.00000440,0.00002309,0.00018689,0.00045879,0.0000
 5140,0.00112579,0.00014308,0.00039241,0.00024654,0.00002867,-0.0001446
 7,0.00001430,0.00004362,-0.00000885,-0.00013627,-0.00000980,0.00025924
 ,0.00005903,-0.00004694,0.00046816,0.00006096,-0.00003516,0.00050105,-
 0.00078647,0.00075419,-0.00132235,-0.00018942,-0.00093455,0.00025558,-
 0.00002120,-0.00002908,-0.00001702,0.14066091,-0.09115108,0.44203812,-
 0.00031868,0.00005229,0.00014451,0.00021450,0.00019192,0.00019983,-0.0
 0077684,-0.00050096,-0.00056997,-0.00099671,0.00105775,0.00255964,-0.0
 0001612,-0.00002387,0.00000816,-0.00004003,0.00006009,-0.00004558,-0.0
 0214904,-0.00308582,-0.00065808,-0.01377552,0.00708897,-0.02977006,-0.
 06664201,0.01431370,-0.07331999,0.00081965,0.00133479,0.00002028,-0.00
 001086,-0.00002757,0.00001929,-0.00000464,-0.00004705,0.00004804,0.000
 01059,0.00002832,-0.00001982,-0.00001867,-0.00008332,-0.00001429,0.000
 29642,0.00003610,0.00000250,0.00001049,-0.00000261,0.00000241,-0.00002
 506,0.00000292,-0.00000736,0.00001437,0.00000614,0.00001219,0.00000160
 ,-0.00000475,0.00000873,0.00016403,-0.00019105,-0.00130137,0.00003233,
 0.00000291,-0.00005308,0.07689027,-0.00008687,-0.00000879,0.00002120,0
 .00005365,0.00007265,0.00005736,-0.00025605,-0.00011779,-0.00012069,-0
 .00015014,0.00058764,0.00054477,-0.00001066,-0.00000960,0.00000645,-0.
 00000473,0.00002039,-0.00000559,-0.00060121,-0.00061525,0.00001557,-0.
 00184521,0.00243429,-0.01190895,0.01309559,-0.05824348,0.04667417,0.00
 004746,0.00055611,-0.00045968,0.00000264,-0.00001790,-0.00000499,0.000
 02075,0.00000695,-0.00001807,0.00000869,-0.00000134,0.00000149,0.00005
 257,-0.00000070,-0.00004881,0.00001089,-0.00007016,-0.00002749,0.00000
 118,0.00000012,0.00000333,-0.00000777,0.00000243,-0.00000637,0.0000026
 7,-0.00000176,-0.00000308,-0.00000220,0.00000214,0.00000260,-0.0001102
 6,0.00040157,0.00020193,0.00001598,0.00001205,-0.00000846,-0.01522923,
 0.05741586,-0.00015771,0.00002084,0.00007970,0.00016385,0.00007636,0.0
 0002368,-0.00020773,-0.00024441,-0.00019861,0.00001351,0.00025938,0.00
 031203,-0.00003096,-0.00002124,-0.00000221,-0.00003589,0.00003462,-0.0
 0002191,0.00019253,-0.00132543,0.00023913,-0.00381307,0.00136900,-0.00
 217866,-0.07191713,0.04744851,-0.26346847,0.00026507,0.00029340,0.0002
 4618,-0.00001231,-0.00001348,0.00001049,0.00002727,-0.00000984,0.00001
 051,0.00001612,-0.00000077,-0.00000984,-0.00007258,-0.00006816,0.00000
 283,-0.00002795,-0.00000565,-0.00003061,0.00001053,-0.00000568,0.00000
 185,-0.00002234,0.00000299,-0.00000314,0.00001278,0.00000971,0.0000152
 1,0.00000590,-0.00000088,0.00000294,0.00009769,-0.00014188,-0.00020649
 ,0.00003214,0.00000383,-0.00003165,0.08124286,-0.05197238,0.28836092,-
 0.00016495,0.00001094,0.00008093,0.00019230,0.00003120,-0.00004363,0.0
 0032915,-0.00015497,-0.00014396,-0.00001959,0.00048069,-0.00266632,-0.
 00006416,-0.00004073,-0.00002337,-0.00004966,0.00004721,-0.00002251,-0
 .00198135,-0.00330034,0.00058925,-0.02449583,0.01345794,0.01709345,-0.
 15279213,0.06805169,0.10650487,0.00099067,0.00127521,-0.00006671,-0.00
 001528,-0.00001863,0.00001203,0.00003178,0.00001072,0.00006362,0.00000
 538,0.00000188,0.00000185,-0.00007570,-0.00010098,0.00001291,-0.000830
 01,-0.00024120,-0.00009234,0.00001640,-0.00000671,0.00000527,-0.000037
 80,0.00001073,0.00000852,0.00002418,0.00002253,0.00004652,0.00000819,0
 .00000099,0.00000091,-0.00037687,0.00012551,0.00120790,0.00004891,0.00
 000574,-0.00003494,0.00678654,-0.00435588,-0.00554664,0.17175855,0.000
 00541,0.00000559,0.00001103,-0.00000456,0.00001152,-0.00002821,0.00002
 484,-0.00007246,0.00001208,0.00001852,0.00044808,-0.00073847,-0.000011
 31,-0.00001096,-0.00001020,0.00000939,0.00000364,0.00000025,-0.0006879
 2,-0.00051651,-0.00012816,-0.00671310,0.00555057,0.00971229,0.06628438
 ,-0.09136269,-0.06558536,-0.00006715,0.00063732,0.00027192,0.00000378,
 -0.00000175,-0.00000515,0.00001104,-0.00000610,0.00001914,-0.00000654,
 0.00000348,-0.00001419,0.00007482,0.00000693,0.00006599,-0.00026536,-0
 .00001418,-0.00002358,0.00000122,-0.00000333,-0.00000266,-0.00000431,0
 .00000389,0.00000600,0.00000409,0.00000962,0.00001045,-0.00000210,-0.0
 0000119,0.00000506,-0.00003065,0.00033316,-0.00031601,-0.00000398,-0.0
 0000419,0.00000028,-0.00472743,0.00238496,0.00416046,-0.07438344,0.094
 28569,0.00007117,0.00000298,-0.00002117,-0.00005050,-0.00004348,-0.000
 03002,0.00014707,0.00008865,0.00001827,-0.00004378,-0.00012689,-0.0007
 6748,0.00000539,0.00000482,-0.00000397,0.00000993,-0.00001572,0.000001
 82,-0.00105147,0.00007025,0.00002594,-0.00483360,0.00297251,0.00544637
 ,0.10547583,-0.06576305,-0.14416395,0.00004699,0.00020042,0.00012811,0
 .00000362,0.00000862,0.00000127,0.00000424,-0.00000934,0.00000867,-0.0
 0000508,0.00000383,0.00000346,0.00003209,0.00002268,0.00001231,-0.0001
 4337,0.00003550,-0.00006441,-0.00000378,0.00000241,-0.00000157,0.00000
 766,0.00000045,0.00000446,-0.00000422,-0.00000068,0.00000165,-0.000002
 45,-0.00000151,0.00000082,-0.00017006,0.00004880,0.00039204,-0.0000184
 8,-0.00000707,0.00000956,0.02018142,-0.01316904,-0.02084501,-0.1153974
 1,0.07351325,0.15662781,0.00003376,0.00001392,-0.00001137,-0.00003385,
 -0.00000818,-0.00000193,-0.00002195,-0.00001155,0.00004070,0.00016717,
 0.00034206,0.00003293,0.00000669,0.00000380,-0.00000084,0.00001020,-0.
 00001638,0.00000635,0.00116350,-0.00175312,0.00058969,0.00068267,-0.03
 034037,0.00464277,-0.04740094,0.00245133,-0.00041944,-0.00537622,-0.00
 106367,-0.00120940,-0.00000112,0.00001508,0.00000159,0.00000631,-0.000
 01153,-0.00001418,-0.00002508,0.00002171,-0.00000057,0.00020502,-0.000
 00519,0.00004193,-0.00000549,-0.00002825,0.00001158,-0.00000477,0.0000
 0439,-0.00000212,0.00000650,0.00000036,0.00000049,-0.00000397,-0.00000
 314,-0.00000366,0.00000299,-0.00000082,-0.00000634,-0.00035137,0.00091
 861,-0.00028997,-0.00001339,-0.00000835,0.00000513,-0.00082645,0.00949
 010,-0.00021378,0.00008261,0.02045075,-0.00446582,0.05178470,-0.000051
 78,0.00004181,0.00003203,0.00004847,0.00000133,0.00000576,-0.00005265,
 -0.00007388,-0.00006547,-0.00023761,0.00048216,-0.00013199,-0.00001047
 ,-0.00000763,-0.00000237,-0.00001141,-0.00000271,0.00000187,0.00260434
 ,0.00078503,0.00041347,0.00082676,-0.01346568,0.00180954,-0.00117457,-
 0.30609711,0.03533124,-0.00352848,0.00041596,-0.00066861,-0.00001323,0
 .00001290,0.00001038,0.00001297,-0.00002121,-0.00000679,-0.00002014,0.
 00003408,-0.00000228,0.00021415,0.00016335,0.00003676,-0.00011075,-0.0
 0001741,-0.00000547,0.00000123,0.00000696,0.,-0.00000633,0.00000207,-0
 .00000061,0.00000337,-0.00000064,0.00000883,0.00000996,-0.00000083,-0.
 00001237,-0.00031538,0.00121165,-0.00019244,0.00000546,-0.00001488,-0.
 00001333,0.00030200,-0.00482931,0.00082098,0.00011480,-0.01179154,0.00
 180416,0.00099931,0.33335759,0.00001580,-0.00001969,-0.00002215,-0.000
 00334,-0.00000584,-0.00000197,0.00003818,0.00003372,0.00003964,0.00009
 761,-0.00002370,-0.00014319,-0.00000316,0.00000161,0.00000185,0.000000
 06,-0.00000087,0.00000101,0.00001950,-0.00055871,-0.00042174,0.0003884
 0,-0.00518568,-0.00076248,0.00007175,0.03614879,-0.05208287,-0.0009748
 1,-0.00014279,0.00068344,0.00000190,-0.00000297,-0.00000183,0.00000834
 ,0.00001821,-0.00001632,0.00000672,-0.00001301,0.00001610,0.00001248,-
 0.00002400,-0.00000458,-0.00003492,-0.00001726,-0.00001233,-0.00000177
 ,0.00000175,0.00000291,0.00000085,0.00000066,-0.00000235,-0.00000136,-
 0.00000461,-0.00000373,-0.00000075,0.00000182,-0.00000172,-0.00012032,
 0.00009221,0.00035943,0.00000418,0.00000966,0.00000446,0.00027160,0.02
 985533,-0.00281304,-0.00088842,-0.02063362,0.00318689,0.00135170,-0.03
 938829,0.05088629,-0.00009059,0.00001164,0.00002905,0.00010615,-0.0000
 0778,-0.00000209,0.00012884,0.00020452,-0.00011278,-0.00029965,-0.0000
 2939,0.00005487,-0.00001901,0.00000548,0.00001078,-0.00004363,0.000006
 64,0.00002269,0.00087115,-0.00049040,0.00057070,-0.00009066,0.00282969
 ,-0.00336964,0.00030460,-0.00042134,-0.00035604,-0.14158854,0.06701116
 ,0.10125935,-0.00001208,0.00001484,0.00000132,0.00000918,-0.00005120,-
 0.00004389,-0.00005275,0.00005984,0.00004130,0.00031078,0.00018484,0.0
 0012024,0.00002047,-0.00000353,-0.00004704,0.00000566,0.00000181,0.000
 00070,-0.00001188,-0.00000044,-0.00000572,0.00000892,-0.00000204,0.000
 00716,0.00002616,0.00000287,-0.00004005,-0.00004427,0.00019258,0.00020
 361,0.00002749,-0.00000556,-0.00002140,0.00005562,-0.00012545,0.000041
 43,0.00028619,-0.00007026,0.00018777,0.00008456,0.00013961,-0.00015443
 ,0.15130486,0.00019599,0.00000076,-0.00007835,-0.00016406,-0.00012898,
 -0.00006213,0.00025971,0.00031836,0.00023120,-0.00001695,-0.00046631,-
 0.00098947,0.00004072,0.00002644,0.00000215,0.00002695,-0.00005950,0.0
 0004252,-0.00310467,-0.00303661,-0.00023224,0.02265185,-0.01932207,-0.
 02040337,0.00107617,0.00120451,0.00006609,0.06904672,-0.09619808,-0.07
 642393,0.00000278,0.00004161,-0.00000978,-0.00002320,-0.00000787,-0.00
 002373,-0.00002964,0.00002542,0.00001612,0.00016365,0.00019065,-0.0000
 5741,0.00013940,0.00010678,-0.00000551,-0.00001351,0.00001039,-0.00000
 422,0.00002737,-0.00000505,0.00000353,-0.00001591,-0.00001226,-0.00001
 664,0.00000707,0.00000109,-0.00002027,0.00010452,-0.00032886,0.0026025
 2,-0.00003750,-0.00001651,0.00003156,-0.00008577,0.00001225,0.00001663
 ,-0.00102854,-0.00008036,0.00023495,0.00002539,0.00040132,0.00049414,-
 0.07783605,0.10868363,0.00004965,-0.00000648,-0.00001776,-0.00005352,-
 0.00000567,0.00000931,-0.00004305,0.00010082,-0.00003994,-0.00001013,0
 .00004530,0.00024945,0.00001425,0.00000776,0.00000215,0.00001567,-0.00
 000554,-0.00001804,-0.00054225,0.00087363,-0.00028016,-0.00391058,0.00
 277729,0.00505086,-0.00007887,-0.00004683,0.00013124,0.10089767,-0.075
 10255,-0.14938869,0.00000682,-0.00000230,0.00000635,-0.00000321,-0.000
 01222,0.00000368,0.00000521,0.00000307,0.00001641,0.00004529,-0.000021
 32,0.00004817,0.00007225,0.00001310,-0.00001032,-0.00000401,0.00000033
 ,-0.00000081,0.00001077,-0.00000111,0.00000110,-0.00000592,-0.00000373
 ,-0.00000601,-0.00001097,-0.00000226,0.00001064,0.00000621,0.00004623,
 -0.00059380,-0.00002033,0.00000201,0.00000934,0.00014395,-0.00005673,-
 0.00018738,-0.00021282,-0.00024637,0.00015401,-0.00023400,0.00002930,0
 .00012676,-0.11191487,0.08170343,0.16253187,0.00003440,0.00002033,-0.0
 0000667,-0.00000988,-0.00002471,-0.00004217,0.00016899,0.00014946,0.00
 001787,-0.00091597,0.00159538,-0.00042729,0.00001475,0.00000142,-0.000
 00188,0.00003844,0.00000169,0.00003263,-0.00099385,-0.00009923,-0.0002
 5381,0.00044989,-0.00115287,0.00052728,0.00110599,-0.00073159,0.000194
 11,-0.27642636,-0.08935226,-0.03304507,-0.00001336,-0.00001043,-0.0000
 1676,-0.00000745,-0.00001736,0.00002540,-0.00004826,0.00004946,0.00009
 112,-0.00110202,0.00216395,-0.00076778,0.00013375,0.00008097,-0.000042
 00,-0.00000317,0.00000714,0.00000104,0.00000414,-0.00000182,-0.0000002
 0,-0.00000119,-0.00000659,0.00000027,-0.00000237,-0.00000307,-0.000008
 28,0.00013811,-0.00013844,0.00007488,-0.00000834,-0.00001422,0.0000020
 6,0.00004927,0.00018218,0.00003044,0.00028499,0.00019908,-0.00010898,-
 0.00013946,0.00005456,-0.00016018,-0.01736129,-0.00622466,-0.00329359,
 0.30263268,-0.00011319,0.00001819,0.00005740,0.00020126,-0.00002743,-0
 .00005534,0.00032577,0.00043103,-0.00009813,0.00014968,-0.00131638,0.0
 0003111,-0.00002481,-0.00001764,-0.00000363,-0.00004877,-0.00001121,0.
 00000358,-0.00042766,0.00146685,-0.00037088,-0.03230575,-0.00843623,-0
 .00558978,0.00151808,-0.00622567,0.00130829,-0.08639260,-0.08185687,-0
 .01224999,-0.00002938,0.00003697,0.00001298,-0.00000725,-0.00009104,-0
 .00001627,-0.00018758,0.00011818,0.00011167,0.00210575,-0.00004935,0.0
 0077841,0.00008235,0.00054437,-0.00004594,0.00000987,-0.00000065,0.000
 00455,-0.00002057,0.00000175,-0.00000111,0.00002012,0.00000224,0.00002
 462,0.00002584,0.00001653,-0.00003145,-0.00007755,0.00025047,-0.000096
 51,0.00003752,-0.00000842,-0.00003205,0.00028936,0.00015265,-0.0001141
 6,0.00009322,0.00018944,0.00022309,-0.00177503,-0.00089397,-0.00020838
 ,0.01348210,0.00517192,0.00344159,0.09545880,0.08836001,0.00003913,0.0
 0001714,-0.00003055,-0.00004478,-0.00003762,-0.00003575,0.00002523,-0.
 00011910,0.00020499,-0.00016229,0.00068673,-0.00026012,-0.00001094,0.0
 0002712,0.00002210,0.00001442,-0.00001832,0.00009538,-0.00012501,-0.00
 018104,-0.00023346,0.00479396,0.00038615,-0.00098390,-0.00017322,0.000
 73206,0.00071079,-0.03355097,-0.01279320,-0.05198612,0.00000710,0.0000
 0951,-0.00004324,0.00002966,-0.00005198,-0.00011047,0.00003485,0.00000
 422,-0.00007344,-0.00087477,0.00060855,0.00029722,-0.00002711,-0.00005
 913,-0.00001699,-0.00000139,0.00000673,-0.00000715,0.00000460,-0.00000
 351,-0.00000827,-0.00000635,-0.00000437,-0.00001264,0.00003312,-0.0000
 0447,-0.00006841,0.00002416,-0.00007422,0.00001044,0.00000266,-0.00002
 210,0.00000268,0.00040807,0.00014546,0.00037601,-0.00050412,-0.0000336
 6,0.00008845,0.00006164,0.00019739,0.00059760,0.01983829,0.00846383,0.
 00336742,0.03810288,0.01298266,0.05090632,-0.00004404,0.00001269,0.000
 03998,0.00008476,-0.00001948,0.00001785,0.00005055,0.00008833,-0.00016
 279,-0.00021714,-0.00009494,-0.00038821,0.00000532,-0.00001660,-0.0000
 1857,-0.00003510,-0.00000102,-0.00008311,0.00047626,-0.00062407,-0.000
 15257,-0.00108523,0.00305132,0.00114806,0.00016652,-0.00034317,0.00049
 604,-0.06977532,0.01517486,-0.07208094,-0.00001701,0.00001772,0.000049
 56,-0.00004230,0.00000876,0.00011031,-0.00007145,0.00000667,0.00008977
 ,0.00044872,0.00024951,0.00012602,-0.00004527,0.00043101,0.00001476,0.
 00000492,-0.00000460,0.00000301,-0.00000729,0.00000164,0.00001017,0.00
 000852,0.00000696,0.00001963,-0.00000940,-0.00000177,0.00002572,0.0000
 5430,0.00015236,-0.00018031,-0.00000116,0.00000867,-0.00001482,0.00025
 111,-0.00019239,-0.00010150,0.00005043,-0.00010658,0.00012649,-0.00003
 825,0.00017935,0.00005726,0.00606311,-0.00519336,0.01907497,-0.0080418
 5,0.00761206,-0.02792729,0.07174805,0.00013555,-0.00000524,-0.00006445
 ,-0.00012593,-0.00002862,-0.00005841,0.00016977,0.00019203,0.00020970,
 -0.00054995,-0.00031538,0.00081349,0.00002337,0.00001470,0.00000690,0.
 00003584,-0.00004645,0.00003038,-0.00267303,-0.00338401,-0.00019782,0.
 01223928,-0.01187440,0.03240226,0.00104325,0.00121813,0.00021108,0.016
 43750,-0.05874543,0.05773588,0.00000081,0.00003654,-0.00000604,0.00000
 557,-0.00000978,-0.00007535,-0.00006741,0.00007535,0.00002529,0.000147
 56,0.00023768,0.00006905,0.00021733,0.00010672,0.00002552,-0.00001068,
 0.00000901,-0.00000122,0.00002012,-0.00000333,-0.00000335,-0.00001132,
 -0.00001319,-0.00001685,0.00000484,0.00000673,-0.00001091,0.00123313,-
 0.00098125,-0.00209054,-0.00002129,-0.00000951,0.00002539,-0.00074603,
 -0.00014158,-0.00058324,-0.00009921,-0.00000846,-0.00010480,0.00028447
 ,0.00030004,-0.00042854,-0.00510622,0.00345742,-0.01353532,-0.00219495
 ,0.00219229,-0.01088072,-0.02039679,0.06771641,-0.00013942,0.00001725,
 0.00007517,0.00015219,0.00005557,0.00000295,-0.00014140,-0.00013452,-0
 .00017551,0.00005102,0.00001029,0.00002630,-0.00002835,-0.00002520,-0.
 00000732,-0.00004403,0.00002345,-0.00003795,0.00159242,-0.00014488,0.0
 0017768,-0.00225308,0.00316331,-0.00146373,-0.00020291,-0.00043683,0.0
 0038717,-0.07206968,0.05618049,-0.25932795,-0.00001696,0.00000003,0.00
 002180,0.00003116,-0.00001480,0.00003185,0.00000547,0.00000318,0.00002
 123,0.00005404,0.00004761,0.00000155,-0.00003015,0.00002013,-0.0000002
 4,0.00000984,-0.00000513,0.00000377,-0.00002148,0.00000416,-0.00000120
 ,0.00001363,0.00000819,0.00001806,0.00000427,0.00000204,0.00000919,-0.
 00006552,0.00012523,-0.00000145,0.00003085,0.00000760,-0.00002903,0.00
 048822,0.00028093,0.00031657,0.00001297,-0.00002610,-0.00021526,0.0000
 8929,-0.00000528,0.00038470,-0.00631837,0.00441992,-0.02117655,-0.0009
 1845,-0.00006937,-0.00280427,0.07970071,-0.06349404,0.28376416,-0.0000
 1312,-0.00423382,-0.00128764,0.01061031,0.00030221,-0.00490223,-0.0001
 3995,0.00204658,-0.00005270,-0.00026815,-0.00001333,0.00005719,-0.0001
 5555,0.00012611,0.00023768,0.00109175,-0.01425504,0.00371047,0.0000136
 7,0.00003058,0.00003149,0.00000682,-0.00005213,0.00000533,-0.00000721,
 0.00002137,-0.00000947,-0.00005964,0.00000032,-0.00000914,-0.04243546,
 -0.03785218,0.00476681,-0.00000690,0.00000177,0.00004746,0.00056169,0.
 00010041,0.00012476,-0.00004351,-0.00009908,0.00001508,0.00001455,0.00
 002757,-0.00001215,0.00012772,0.00001039,0.00006984,0.00017239,-0.0000
 7859,-0.00002805,-0.00003713,-0.00016351,0.00006785,-0.00670408,0.0020
 3538,0.00263187,-0.00000127,-0.00000720,-0.00000522,0.00011288,-0.0000
 0786,0.00021244,-0.00000083,-0.00000386,0.00000142,-0.00000037,-0.0000
 0336,0.00000016,0.00000486,0.00001089,-0.00000072,0.00000422,0.0000055
 1,-0.00000125,0.00001341,-0.00001380,0.00000655,0.00000496,0.00000212,
 0.00000252,0.03366098,0.00039974,-0.00001758,-0.00044282,-0.00396673,0
 .00203480,-0.00129405,0.00020885,-0.00123055,0.00021144,0.00000254,-0.
 00011165,-0.00007324,-0.00006994,0.00029120,-0.00035109,-0.00254838,-0
 .01875585,0.00810588,0.00001455,0.00010205,0.00005491,0.00001357,-0.00
 006504,0.00001596,-0.00000311,0.00002921,-0.00001282,-0.00003181,-0.00
 000302,-0.00000783,-0.03916770,-0.30351757,0.08154721,-0.00001953,0.00
 000709,-0.00005617,-0.00040310,-0.00012138,-0.00007387,-0.00002047,0.0
 0003767,0.00002786,0.00000238,0.00000976,0.00000045,-0.00001954,-0.000
 03607,0.00002802,0.00000336,0.00007098,0.00002653,0.00002792,0.0000677
 2,-0.00000070,0.00193213,0.00072386,-0.00096460,0.00001331,0.00000601,
 -0.00000858,-0.00001647,-0.00002891,0.00004439,-0.00001600,-0.00000571
 ,-0.00001206,-0.00001696,-0.00000084,0.00000541,0.00000608,0.00000179,
 0.00000003,-0.00000387,0.00001647,0.00000452,0.00000968,-0.00001347,0.
 00000857,-0.00000499,0.00001207,-0.00001208,0.04493439,0.32337707,0.00
 034677,0.00039654,0.00011052,-0.00519176,0.00000716,-0.00103771,0.0001
 5684,-0.00126636,0.00032675,0.00007410,-0.00003686,-0.00012467,0.00022
 318,0.00044059,-0.00049480,-0.00384352,-0.02258935,0.00840151,-0.00003
 091,0.00001748,0.00005129,-0.00000110,0.00001061,-0.00000167,0.0000040
 3,-0.00000437,-0.00000588,0.00001514,-0.00000119,0.00000100,0.00545328
 ,0.08601075,-0.08100209,0.00002574,0.00000838,-0.00002776,-0.00042049,
 -0.00015750,-0.00007965,0.00000783,0.00007397,0.00000235,-0.00003245,-
 0.00003262,0.00005180,0.00007514,0.00007444,0.00029798,0.00024196,-0.0
 0015895,-0.00004252,-0.00032945,0.00004550,0.00033930,0.00273407,-0.00
 070384,0.00046151,0.00001120,0.00000832,-0.00000227,-0.00000529,-0.000
 00761,0.00005101,-0.00000427,-0.00000053,-0.00000204,0.00000117,0.0000
 0162,0.,-0.00000085,-0.00000277,-0.00000032,0.00000666,0.00000332,-0.0
 0000312,-0.00000441,0.00000598,0.00001562,-0.00001090,-0.00000040,-0.0
 0000564,-0.00334330,-0.08688853,0.07720388,0.00006541,0.00143258,0.001
 08845,-0.00651686,0.00153936,0.00162900,0.00011865,-0.00114028,-0.0001
 2469,0.00019272,-0.00018647,-0.00004759,0.00075491,-0.00011877,-0.0006
 1790,0.00248899,0.00268913,-0.01283676,-0.00007769,0.00007038,0.000069
 89,-0.00000109,0.00000845,0.00001192,0.00000412,-0.00000514,-0.0000146
 3,-0.00002504,-0.00000806,0.00000046,-0.05853138,0.01206816,-0.0738762
 2,-0.00005939,-0.00007236,0.00002492,-0.00038207,-0.00002530,-0.000146
 20,-0.00004491,0.00018304,-0.00010690,-0.00005739,-0.00009024,0.000078
 09,-0.00025312,0.00011820,0.00030656,-0.00012751,0.00028389,-0.0000180
 4,-0.00028531,-0.00021614,0.00046097,0.00934062,-0.00400699,-0.0042948
 1,0.00004948,0.00003080,0.00000120,0.00005577,0.00026546,0.00005869,0.
 00000471,-0.00000242,0.00000606,0.00000744,0.00000074,-0.00000084,0.00
 000075,0.00000558,-0.00000214,-0.00000359,0.00000002,-0.00000339,0.000
 00601,0.00001217,-0.00001807,0.00001329,0.00000232,0.00001121,0.003472
 96,-0.00125989,0.00384158,0.04978950,0.00001085,-0.00048875,0.00017028
 ,0.00195248,0.00084997,-0.00064921,-0.00012962,0.00024050,0.00003851,-
 0.00001099,0.00008393,-0.00003998,-0.00032965,-0.00108048,-0.00029774,
 -0.00619426,0.01017036,-0.02085369,0.00000569,-0.00006684,0.00001127,0
 .00000776,0.00002406,-0.00000471,0.00000170,-0.00000842,0.00000192,0.0
 0000916,0.00000765,0.00000210,0.01305636,-0.07136636,0.06416811,0.0001
 5647,0.00001059,0.00012875,0.00007290,-0.00000626,0.00003646,0.0000321
 5,-0.00006730,0.00001829,-0.00003738,0.00000758,0.00006038,0.00001759,
 0.00021780,-0.00004106,0.00020896,-0.00071074,0.00008578,-0.00036777,-
 0.00095983,0.00038547,-0.00397065,-0.00167114,-0.00210979,-0.00001791,
 -0.00000614,-0.00000209,-0.00003470,0.00016878,0.00011558,0.00000420,0
 .00000130,0.00000255,0.00000662,0.00000063,-0.00000120,-0.00000179,-0.
 00000125,0.00000004,0.00000591,-0.00000657,0.00000006,-0.00000189,-0.0
 0000455,0.00000734,-0.00000215,-0.00000849,-0.00000115,0.00712819,-0.0
 0288010,0.02474623,-0.01157821,0.06755006,0.00003444,-0.00077619,-0.00
 019479,0.00250906,0.00190721,-0.00077568,-0.00001919,0.00036300,-0.000
 00227,-0.00003824,-0.00001589,-0.00001786,0.00010044,0.00067383,0.0002
 7089,-0.00656166,0.00520444,-0.01674947,-0.00001427,-0.00000690,0.0000
 3577,0.00000123,0.00001775,0.00000654,0.00000377,-0.00000695,-0.000005
 45,0.00001184,0.00000259,0.00000860,-0.07460239,0.05991942,-0.29814009
 ,0.00011745,0.00001969,0.00014200,0.00009033,-0.00006974,0.00010207,-0
 .00000870,-0.00001420,-0.00003941,-0.00002692,-0.00001600,0.00005377,0
 .00036792,0.00011493,0.00042685,0.00045891,-0.00016298,-0.00007543,-0.
 00020031,0.00052636,0.00031713,-0.00438842,-0.00190146,0.00029902,-0.0
 0000310,-0.00000564,-0.00000333,-0.00001469,0.00010012,0.00010359,0.00
 000218,0.00000026,0.00000101,0.00000102,0.00000193,0.00000090,-0.00000
 150,-0.00000364,-0.00000047,-0.00000958,-0.00000486,0.00000383,-0.0000
 0245,-0.00000293,-0.00002025,0.00001070,-0.00000295,0.00000397,-0.0023
 3707,0.00011728,-0.00448435,0.08451920,-0.06597851,0.31873291\\0.00000
 449,-0.00000393,-0.00000435,-0.00001293,0.00000367,0.00000772,0.000010
 36,-0.00000321,-0.00000526,-0.00000443,0.00000544,0.00000957,-0.000000
 80,0.00000049,-0.00000266,0.00000245,0.00000112,-0.00000281,0.00000272
 ,-0.00000223,-0.00000212,0.00000042,0.00000147,-0.00000585,-0.00000540
 ,0.00000327,0.00000105,-0.00000149,-0.00000442,0.00000067,0.00000173,-
 0.00000178,0.00000051,-0.00000118,-0.00000044,0.00000018,-0.00000142,0
 .00000010,0.00000123,0.00000074,-0.00000046,-0.00000143,0.00000213,-0.
 00000202,-0.00000209,-0.00000060,-0.00000206,0.00000112,-0.00000032,-0
 .00000142,-0.00000082,0.00000037,-0.00000181,0.00000002,-0.00000025,-0
 .00000030,0.00000128,-0.00000217,0.00000079,0.00000012,-0.00000069,0.0
 0000008,0.00000045,0.00000228,0.00000144,0.00000119,0.00000027,-0.0000
 0010,0.00000027,0.00000033,0.00000034,-0.00000022,0.00000137,0.0000021
 2,0.00000065,0.00000105,0.00000222,0.00000032,0.00000111,0.00000201,0.
 00000048,0.00000032,-0.00000023,0.00000084,-0.00000046,-0.00000013,-0.
 00000005\\\@


 IF YOU WANT TO LEARN FROM THE THEORETICAL PHYSICISTS ABOUT THE
 METHODS WHICH THEY USE, I ADVISE YOU TO FOLLOW THIS PRINCIPLE VERY STRICTLY:
 DON'T LISTEN TO THEIR WORDS; PAY ATTENTION, INSTEAD, TO THEIR ACTIONS.
 -- A.EINSTEIN, 1934
 Job cpu time:       0 days  7 hours 18 minutes 30.5 seconds.
 Elapsed time:       0 days  0 hours 13 minutes 43.9 seconds.
 File lengths (MBytes):  RWF=    498 Int=      0 D2E=      0 Chk=     17 Scr=      1
 Normal termination of Gaussian 16 at Sat May  4 11:03:07 2024.


PS:

Read file <linalool.err> for stderr output of this job.

